LAMMPS (11 Jun 2012)
# Initialization
atom_style      full
units           real
variable        T equal 300
variable        dt equal 1.0
variable        seed equal 123458
variable        radius equal 0.5
variable        sizet equal 4
variable        sizeb equal -4
variable        p equal 20000    # correlation length
variable        s equal 5        # sample interval
variable        d equal $p*$s    # dump interval
variable        d equal 20000*$s    variable        d equal 20000*5    
# convert from LAMMPS real units to SI
variable        kB equal 1.3806504e-23    # [J/K] Boltzmann
variable        kCal2J equal 4186.0/6.02214e23
variable        A2m equal 1.0e-10
variable        fs2s equal 1.0e-15
variable        convert equal ${kCal2J}*${kCal2J}/${fs2s}/${A2m}
variable        convert equal 6.9510174124148567155e-21*${kCal2J}/${fs2s}/${A2m}
variable        convert equal 6.9510174124148567155e-21*6.9510174124148567155e-21/${fs2s}/${A2m}
variable        convert equal 6.9510174124148567155e-21*6.9510174124148567155e-21/1.0000000000000000777e-15/${A2m}
variable        convert equal 6.9510174124148567155e-21*6.9510174124148567155e-21/1.0000000000000000777e-15/1.0000000000000000364e-10
variable        b_eq equal 10.0/3.0

# setup problem
dimension       3
boundary        p p p
neighbor        2    bin
pair_style      lj/cut 10.0
bond_style      morse
read_data       lammps.data
  9 = max bonds/atom
  orthogonal box = (0 0 0) to (80 80 80)
  2 by 2 by 2 MPI processor grid
  7168 atoms
  33696 bonds
  10 = max # of 1-2 neighbors
  86 = max # of 1-3 neighbors
  824 = max # of 1-4 neighbors
  164 = max # of special neighbors
pair_coeff      1 1 0.000 3.500
pair_coeff      2 2 0.000 3.500
pair_coeff      1 2 0.105 3.500
bond_coeff      1 10 1.8 ${b_eq}
bond_coeff      1 10 1.8 3.3333333333333334814
bond_coeff      2 5 0.805 7.4536
bond_coeff      3 10 1.8 ${b_eq}
bond_coeff      3 10 1.8 3.3333333333333334814
bond_coeff      4 5 0.805 7.4536
velocity        all create $T ${seed} mom yes rot yes dist gaussian
velocity        all create 300 ${seed} mom yes rot yes dist gaussian
velocity        all create 300 123458 mom yes rot yes dist gaussian
timestep        ${dt}
timestep        1
thermo          100
dump            T1 all cfg 600000 *.cfg id type xs ys zs
dump            T2 all xyz 10000 traj.xyz
#dump_modify    1 element Cu
# −−−−−−−−−−−−− Equilibration and thermalisation −−−−−−−−−−−−−−−−
fix             NVT all nvt temp $T $T 10
fix             NVT all nvt temp 300 $T 10
fix             NVT all nvt temp 300 300 10
run             300000
Memory usage per processor = 11.5453 Mbytes
Step Temp E_pair E_mol TotEng Press 
       0          300   -906.89526 0.00012694983    5502.1446    343.62551 
     100    245.56434   -934.26743    7026.2614    11338.099    2137.2225 
     200    296.23074   -991.44279    9881.2985    15218.371    1180.9671 
     300    302.32844    -990.6022    8366.5254    13834.706    543.84633 
     400    298.85015   -970.43758    6441.9366    11855.974    837.02188 
     500    300.76388   -954.91754    5741.2833    11211.724    1271.9565 
     600    300.72761   -952.74903    5588.2953     11060.13    1165.0607 
     700    298.40273   -965.04218    6482.9213    11892.796    1086.9132 
     800    298.50956   -976.92315    7207.8918    12608.167    1155.4818 
     900    301.77147   -981.67988    7101.5714    12566.776    1118.4993 
    1000    298.07225   -977.01769    6600.2853    11991.124    1134.3111 
    1100    305.83126   -976.12502    6326.4107    11883.901    1299.8784 
    1200    299.69818   -978.17686    6375.1582    11799.573    1214.9083 
    1300    295.86119   -981.01859    6304.3291    11643.931    1025.8616 
    1400     298.7036   -988.35861    6640.3987    12033.384    1127.2649 
    1500    303.79815   -992.37467    6941.4385    12439.245    1236.0573 
    1600    301.04616   -996.24397    6830.8054    12265.951    1340.8598 
    1700    299.08561   -995.35356    6335.9394    11730.091    1350.8008 
    1800    301.42659   -997.71579     6305.095    11746.896    1394.9598 
    1900    298.06038   -1004.0826    6477.1803      11840.7    1280.4934 
    2000    298.30533   -1012.1515    6495.4917    11856.176    1292.5257 
    2100    300.00305   -1018.7389    6579.3356    11969.701    1479.0411 
    2200    298.67812   -1025.4332    6252.6499    11608.017     1393.649 
    2300    301.64047   -1039.1844    6380.3037    11785.205    1500.6237 
    2400    299.41067   -1052.1758    6341.4845    11685.758    1406.0927 
    2500     298.9397   -1062.8494    6484.1426    11807.681    1380.5921 
    2600    299.65624   -1074.7762    6547.6717    11874.591    1433.3762 
    2700    299.39017   -1088.1011    6414.3175    11722.228     1532.828 
    2800    300.79093   -1107.0194    6345.2188    11664.136    1552.4075 
    2900    300.62876     -1110.25    6211.4951    11523.717    1478.9993 
    3000    305.18612   -1113.0351    6072.3633    11479.161    1529.6052 
    3100    297.69507   -1102.8888    6331.0767    11587.986    1591.6355 
    3200    298.20469   -1095.7514    6437.1752    11712.109    1639.7501 
    3300    301.19766   -1093.6963    6174.4526    11515.382    1621.4899 
    3400     299.7665   -1093.6734    6179.8947    11490.273    1651.6117 
    3500    299.07529   -1102.5703    6491.4809    11778.195    1686.5259 
    3600    302.39502   -1124.8922    6632.1477    11967.461     1664.027 
    3700    298.38977   -1142.9213    6326.1417     11557.86    1652.3125 
    3800    302.75564    -1155.325    6267.0391    11579.624    1735.5016 
    3900    302.83434   -1147.3288    6166.1507    11488.413    1728.7289 
    4000    300.97631   -1141.2763     6317.326    11605.947    1695.2324 
    4100    298.56392   -1138.2758    6248.7024    11488.787    1673.5182 
    4200    296.73115    -1132.496    6495.0264    11701.736    1780.7919 
    4300    299.50376   -1133.0178    6258.0893     11523.51    1713.1828 
    4400    301.48395     -1130.19     6211.432    11521.984    1754.3484 
    4500    301.19233   -1125.8826    6248.1018    11556.731    1690.0804 
    4600    298.19154    -1123.543    6375.2304    11622.092    1609.1514 
    4700    301.51454    -1121.401    6550.0089    11870.003    1632.0616 
    4800    299.69106   -1117.5667    6574.8812    11859.754    1668.3986 
    4900    298.06372   -1114.7597    6379.1558     11632.07    1653.8562 
    5000    300.29495   -1117.7499    6155.7941    11453.385    1640.7164 
    5100    301.10247   -1116.0451    6285.8523    11602.399    1693.4997 
    5200    295.22188   -1109.1596    6479.7596    11677.562    1654.1538 
    5300    303.12044    -1110.642    6502.9369    11867.998     1694.341 
    5400    298.10768   -1113.1568    6379.5686    11635.025     1688.252 
    5500    298.49757   -1117.1741    6360.5981    11620.367    1761.1349 
    5600    306.31435   -1109.5583    6203.9159    11638.294     1687.441 
    5700    295.59042   -1116.8649    6273.8752    11471.846    1703.7816 
    5800    300.73716   -1114.6284    6406.1787    11716.338    1738.9102 
    5900    302.14581   -1114.4207    6360.7986     11701.26    1720.3024 
    6000    298.32074   -1114.1298    6414.2452     11673.28    1877.3073 
    6100    298.93483   -1120.6971    6263.3338    11528.921    1815.1673 
    6200    301.30575   -1122.4824    6278.3117    11592.764    1729.7183 
    6300    298.83636   -1128.3437    6430.4797    11686.316    1797.0245 
    6400    300.58484   -1129.6062    6350.8009    11642.729      1739.49 
    6500    296.09097   -1130.5129    6375.7153    11570.732     1697.665 
    6600    303.12907   -1140.6807    6479.4557    11814.662    1711.6181 
    6700    295.38126   -1138.7112    6317.1777    11488.834    1717.5432 
    6800     299.6317   -1139.2792    6259.5099    11521.402    1681.8618 
    6900    301.98225   -1143.7509     6331.001    11638.637    1707.8007 
    7000    299.35601   -1146.2174     6319.999    11569.063    1769.4693 
    7100    298.38005   -1153.2515     6420.284    11641.464    1804.8485 
    7200    305.33205   -1145.8235    6373.1784    11750.306    1710.2286 
    7300    297.91838   -1149.4196    6352.1525    11567.302    1767.5234 
    7400    300.21754   -1154.1452    6397.6841    11657.226     1804.566 
    7500    298.32509   -1155.2037    6337.4916    11555.546    1730.8123 
    7600    300.24565   -1148.2835    6389.0253    11655.029    1824.5579 
    7700    301.55841   -1139.9906    6339.6574    11641.999    1824.5441 
    7800    298.65368   -1145.9319    6361.9638    11596.309    1780.7909 
    7900    302.33832   -1142.7362    6345.5308    11661.789    1820.5735 
    8000    293.18522   -1134.6435    6446.3335    11575.142    1910.5948 
    8100    297.25639   -1144.1899     6348.927    11555.164    1896.9851 
    8200    302.46075    -1142.532    6286.0888    11605.167    1801.8084 
    8300    301.43647   -1139.4547    6526.3147    11826.588    1927.6369 
    8400    299.90441   -1136.4613    6391.3252    11661.861    1788.0491 
    8500    295.14153   -1135.9569    6466.2875    11635.576    1803.7597 
    8600    304.18094   -1130.5463    6384.7661    11752.579    1818.8556 
    8700    301.27377   -1125.4389     6392.225    11703.038    1796.6022 
    8800    305.10027   -1124.6209    6388.8288    11782.207    1864.2368 
    8900    298.60873   -1121.1886     6332.136    11590.265    1737.8121 
    9000    303.31556   -1120.7666    6475.2295    11834.335    1818.3753 
    9100    297.96005   -1120.8583    6486.0512    11730.652    1776.1813 
    9200    300.73917   -1122.8874    6303.7286    11605.672    1719.6195 
    9300    301.23958   -1121.6908    6404.9733    11718.804    1849.6328 
    9400    301.50291   -1120.1281    6410.3747    11731.394    1845.7947 
    9500    296.34138   -1120.1253    6441.9419    11652.695    1823.2422 
    9600     305.5765   -1126.2936    6437.3116    11839.191    1850.7809 
    9700    299.83959    -1118.643    6420.9106     11707.88    1783.3873 
    9800    303.19371   -1123.1925    6406.3128    11760.389    1802.0923 
    9900    301.47315   -1129.8633    6393.6877    11704.336    1761.4508 
   10000     294.9513   -1121.0209    6356.4386      11536.6    1821.2962 
   10100    303.13253   -1117.2659    6405.5239    11764.219    1851.8548 
   10200      300.049   -1123.2114    6463.9276    11750.803    1813.9691 
   10300    304.89064   -1121.9662    6379.4461    11771.001    1902.9929 
   10400    297.47349   -1120.9887    6426.8183    11660.894    1900.5134 
   10500    298.04538   -1130.2512    6348.8219    11585.853    1852.2816 
   10600    298.63075   -1134.0996    6379.4898    11625.178    1921.0083 
   10700    306.27294   -1133.9623     6480.438    11889.527     1920.331 
   10800    297.17313   -1125.9808    6449.1685    11671.835    1853.9785 
   10900    305.60022   -1126.7876    6527.2771    11929.169    1928.5915 
   11000    300.48115   -1127.8981    6405.9735    11697.394    1835.7251 
   11100    293.37287   -1125.4669    6312.4216    11454.416    1708.8666 
   11200    304.22476   -1125.5701    6454.1397    11827.865    1846.8338 
   11300    297.26167   -1125.1944    6430.2113    11655.556    1884.7008 
   11400     301.5208   -1127.0572    6353.0404    11667.513    1823.3215 
   11500    299.43611   -1132.6397    6393.1498    11657.503    1822.6083 
   11600    301.52102   -1134.6855    6500.3273    11807.176    1898.5201 
   11700    296.28037   -1143.2062    6349.1558    11535.525    1781.7335 
   11800    301.27722   -1143.5688    6468.1516    11760.908    1868.8955 
   11900    300.60384   -1148.7406    6338.4761    11611.675    1783.7828 
   12000    299.14262   -1148.4188    6376.7578    11619.062    1818.8322 
   12100    302.88417   -1143.5588    6491.9037        11819     1963.328 
   12200    298.74888   -1147.6081    6298.4214    11533.125    1896.3761 
   12300    302.00519   -1140.3243    6367.4922    11679.045    1930.5507 
   12400    300.26471   -1132.1259    6531.4794    11814.048    2024.5268 
   12500    302.86231   -1146.0865    6349.2508    11673.353    1831.5819 
   12600    298.39857   -1140.5542    6491.2408    11725.514     1809.215 
   12700    298.83216   -1150.8214    6468.3854    11701.655    1851.7971 
   12800    300.79926   -1153.0622    6364.6703    11637.723    1801.1942 
   12900    300.41853   -1149.3225    6434.0274    11702.686    1843.8519 
   13000    294.39644   -1149.0553    6260.3187    11400.592     1821.743 
   13100    307.35637    -1143.915    6396.3653    11818.648    1948.4037 
   13200     297.1039   -1141.0384     6437.229     11643.36    1859.9651 
   13300    304.99232   -1136.8456    6426.4885    11805.336    1898.9698 
   13400    294.53969   -1130.7253    6402.1589    11563.822    1839.5543 
   13500    301.56433   -1129.8239     6373.474    11686.109    1805.7892 
   13600    297.77369   -1126.6435    6333.7743    11568.609     1813.189 
   13700    303.41036   -1121.7319     6517.051    11877.216    1954.2794 
   13800    299.67482   -1122.8032    6597.9015    11877.191    1893.4669 
   13900    298.53125   -1121.7897    6385.5406    11641.413    1741.0233 
   14000     302.2353    -1126.177    6385.3388    11715.955    1850.4724 
   14100    299.94411   -1121.9825    6476.7967     11762.66    1838.3724 
   14200     294.7505   -1132.0077    6453.3206    11618.205    1812.1658 
   14300     300.9084     -1135.71    6394.6338     11687.37    1883.4646 
   14400    299.78792   -1137.3029    6341.3194    11608.526    1836.0086 
   14500    300.55928   -1146.7962    6459.0393    11733.231    1836.2968 
   14600    299.45748   -1153.3931    6504.5625    11748.619    1872.7635 
   14700    297.30028   -1158.9477    6368.4414    11560.858    1789.7215 
   14800    299.84252   -1154.5721    6421.8571     11672.96    1835.3669 
   14900    296.22818   -1145.8571    6415.3159    11597.919    1836.5141 
   15000     301.5752   -1151.2383    6363.3584    11654.812    1861.5641 
   15100    298.72527   -1158.0889     6354.102     11577.82    1819.8723 
   15200    301.12911   -1150.3299    6460.4201    11743.252     1885.869 
   15300    299.16666   -1162.9396     6460.379    11688.676    1930.0091 
   15400    300.62864   -1162.5605    6376.8283    11636.737    1872.4095 
   15500    299.83151   -1171.1269    6366.1168     11600.43    1906.6133 
   15600    302.98286   -1172.5595    6272.4502    11572.655    1872.0222 
   15700    297.97713   -1161.6392    6435.5661    11639.751    1921.0163 
   15800     306.0847   -1155.8056    6368.5032    11751.728     1930.333 
   15900    299.04547    -1155.964    6344.2959    11576.979    1933.6036 
   16000     300.4066   -1149.0107    6311.7676    11580.483    1894.4966 
   16100    303.39261   -1146.0576    6335.8003     11671.26    1879.9072 
   16200    301.48563   -1149.4123    6280.8125    11572.178    1863.9812 
   16300    299.62196   -1143.3509    6427.7217    11685.334    1914.9826 
   16400    295.35155   -1138.1669    6466.9431    11638.509    1968.0401 
   16500    302.96975   -1139.6313    6436.5053    11769.358    1871.8904 
   16600    302.90668   -1132.6004    6367.3451    11705.881    1822.3343 
   16700    300.94281   -1129.1848    6315.2316    11615.228    1784.7964 
   16800    300.78685   -1129.9485    6553.7708    11849.672    1861.3834 
   16900    299.48699   -1126.4418    6385.5763    11657.215    1776.8734 
   17000    300.55943   -1123.5423    6375.9471    11673.396     1854.412 
   17100    300.01041   -1123.3899    6376.9355    11662.808    1800.4553 
   17200    298.78355   -1125.9289    6508.4798    11765.603    1783.5884 
   17300     302.5494   -1132.0342    6445.6113    11777.081    1822.4436 
   17400    292.97314   -1127.5807     6458.959      11590.3    1799.0482 
   17500    301.56048   -1133.5661    6346.1632    11654.974    1809.4716 
   17600    300.43398   -1137.6468    6369.4566    11650.121    1824.4661 
   17700      294.144   -1143.0285    6417.1725    11558.079    1775.9582 
   17800    303.83481   -1138.9935    6527.4616    11879.433    1857.1736 
   17900    295.16216   -1143.3182    6417.7068    11580.075    1785.0848 
   18000    301.63422   -1147.6529    6326.8058    11623.105    1777.3421 
   18100    300.88366   -1150.6493    6385.6588    11662.927    1812.8018 
   18200    297.04502   -1157.6145    6339.5832     11527.88    1794.8649 
   18300    302.63843   -1164.7018    6350.6634    11651.367    1856.7345 
   18400     300.7163   -1157.5112    6450.0154    11716.847    1844.6425 
   18500    303.12681   -1164.1433    6417.0899    11728.786    1824.3189 
   18600    300.06487   -1160.6472    6432.2621    11682.041    1858.2763 
   18700     300.2359   -1174.0769    6364.6232    11604.626    1871.5702 
   18800    305.28067   -1156.5158    6218.6168    11583.954    1824.0105 
   18900    301.94446   -1154.7519    6336.4924    11632.321    1864.5203 
   19000    300.67575   -1160.6467    6388.4882    11651.317    1855.4732 
   19100    300.82929   -1153.3675     6402.115    11675.504    1895.9521 
   19200    296.07729   -1153.1679    6381.2833    11553.352    1940.0469 
   19300    299.76379   -1158.1408    6372.7028    11618.555    1876.4609 
   19400    298.18296   -1154.7855    6425.9192    11641.355    1822.2808 
   19500    302.57777   -1154.8576    6377.9654    11687.218    1848.9419 
   19600    300.44542   -1149.9789    6434.0266    11702.603      1852.07 
   19700    300.95728   -1142.4522    6411.7659    11698.804    1841.9038 
   19800    302.55038   -1139.2638     6377.175    11701.436    1872.0352 
   19900    301.01141   -1131.5973    6404.1361    11703.186    1872.4817 
   20000    300.55877   -1131.1065    6394.9047    11684.775    1855.2562 
   20100    299.51857   -1127.2698     6481.455     11752.94    1811.0347 
   20200    301.74333   -1120.2696    6521.7958    11847.809    1742.6039 
   20300     300.9405   -1119.4617    6530.6848    11840.355    1795.9277 
   20400    304.98381   -1118.8157    6331.0818    11727.777    1708.9897 
   20500     299.5391   -1120.3247    6392.8458    11671.714    1702.6292 
   20600    301.85862   -1120.7847    6635.5798    11963.541     1841.701 
   20700    302.60242   -1122.6923    6549.1592    11891.103    1783.5408 
   20800    298.32458    -1120.082    6434.7549     11687.92    1800.4597 
   20900    304.92209    -1128.389    6433.0856    11818.889    1881.8611 
   21000    295.09672   -1133.0507    6395.8905    11567.128    1831.2714 
   21100    301.12397   -1135.7683    6433.6785    11730.962    1814.8406 
   21200    299.96271   -1137.4073    6370.3589    11641.195    1773.2544 
   21300     301.2379   -1150.4229    6486.8061    11771.869    1881.5268 
   21400      304.341    -1157.376    6442.2296    11786.632    1823.1964 
   21500    300.38905   -1161.7517    6342.6663    11598.266    1811.1897 
   21600    300.76471   -1164.2414    6294.9148     11556.05    1885.4222 
   21700    294.39294   -1165.3852    6286.2465    11410.115    1865.5144 
   21800    300.12818   -1170.3243    6457.4857    11698.939    1964.9313 
   21900    301.15286   -1158.9958     6287.382    11562.055    1910.7945 
   22000    298.62787   -1168.1928    6336.7884    11548.322    1874.9059 
   22100    296.46194   -1163.4364    6328.9492    11498.967    1871.3927 
   22200    300.87951   -1163.0435    6526.7424    11791.528    1956.2207 
   22300    302.82374    -1167.922    6401.9918    11703.434    1885.0524 
   22400    297.35571   -1175.4731    6318.9564    11496.032    1833.2418 
   22500    301.35146   -1170.5174    6405.0237    11672.418    1875.0303 
   22600    294.96548    -1174.687       6388.1    11514.898    1877.8133 
   22700    295.57754   -1160.7659    6365.7707    11519.566    1832.8482 
   22800     303.3068   -1163.8858    6459.5003    11775.299    1949.9827 
   22900    298.29524   -1158.5131    6306.2429     11520.35     1874.624 
   23000    299.97414   -1151.0568    6392.9701      11650.4    1905.3604 
   23100    298.71963   -1155.3685      6430.24    11656.558    1912.1705 
   23200    299.40799   -1144.7926    6460.2688    11711.868    1910.5265 
   23300    297.50868   -1143.6843    6442.6457    11654.778    1872.5019 
   23400    301.28884   -1140.7305    6394.4007    11690.244    1871.6937 
   23500    298.09691   -1134.4468    6484.0984    11718.035    1906.8645 
   23600    299.86712    -1132.118    6442.9677     11717.05    1898.2538 
   23700    301.88653   -1131.6773    6355.0223    11672.688     1820.277 
   23800    297.99842   -1134.8905     6464.798    11696.186    1779.3734 
   23900    296.95636   -1134.1801     6551.559    11761.396    1765.6534 
   24000    300.16936   -1133.5899    6469.8356    11748.903    1818.4029 
   24100    300.11627   -1144.1518    6371.7588     11639.13    1844.9074 
   24200    299.32195   -1146.9074    6308.5876    11556.234    1863.4713 
   24300    299.77583   -1150.0842    6410.9069    11665.073    1891.1682 
   24400    302.29098   -1154.0514    6532.5714    11836.503    1864.4055 
   24500    302.39595   -1160.9286    6478.5766    11777.873    1825.7872 
   24600     302.7968   -1159.4685    6252.1608    11561.481    1782.7308 
   24700    296.67037   -1162.4708    6406.3419    11581.778    1874.6988 
   24800    302.93697   -1149.6005    6412.4897    11734.673    1851.4779 
   24900    295.95641   -1150.9766    6374.2498    11545.928    1918.6396 
   25000    301.48653   -1155.4524     6318.773    11604.118    1929.7281 
   25100    301.13001   -1157.6258    6292.8615    11568.416    1876.9879 
   25200    301.60503   -1170.3358    6359.1133    11632.106    1857.9425 
   25300    304.23512   -1162.1022    6343.0388    11680.453    1826.6947 
   25400    299.35549   -1164.9824    6417.8619     11648.15    1881.7343 
   25500    299.27367   -1163.2046    6302.6484    11532.966    1891.5788 
   25600    300.15098   -1157.8715    6307.1951    11561.589    1861.9816 
   25700    299.07601    -1160.769    6362.1841    11590.715    1890.3357 
   25800    300.16354   -1159.5319    6373.7731    11626.775    1896.7729 
   25900    298.18152   -1155.1857    6358.0313    11573.036    1889.7617 
   26000    302.42572   -1158.3162    6402.3297    11704.875    1868.2617 
   26100    300.86457   -1151.9031    6376.6503    11652.257    1834.8764 
   26200    299.95336   -1151.2888    6379.0643    11635.819    1898.0668 
   26300     306.0696   -1150.8272    6420.4062    11808.286    1907.8125 
   26400    301.62975   -1145.0009    6554.6552    11853.511    1887.5048 
   26500    298.61716   -1145.9606    6374.0982    11607.635     1846.518 
   26600    301.11413   -1143.7961    6453.4096    11742.455    1890.3089 
   26700    300.16118   -1138.1942    6624.1071    11898.396    1906.4649 
   26800    305.35347   -1140.2708    6392.0307    11775.168    1822.5722 
   26900    296.20072   -1143.2782     6354.714     11539.31    1786.9149 
   27000    299.00784   -1141.9173    6483.3382    11729.265    1822.1239 
   27100    298.03738   -1142.1671    6500.8538    11725.798     1818.962 
   27200    300.40968   -1146.2031     6356.264    11627.853    1792.7885 
   27300    305.48845   -1152.7379     6320.304    11693.858    1771.1688 
   27400    299.45516   -1148.1929    6465.0808    11714.288    1833.6145 
   27500    298.36425    -1158.627    6522.7397    11738.207     1872.035 
   27600    303.53434   -1158.5939    6408.7712    11734.723      1833.87 
   27700    297.72486   -1161.2947    6310.2407    11509.381    1848.2373 
   27800    299.26568   -1166.7196    6385.0186    11611.651       1917.9 
   27900    300.80395   -1168.2017    6317.6373     11575.65    1941.4645 
   28000    300.69412   -1168.7081      6354.12     11609.28     1873.524 
   28100    295.70002   -1172.2674    6506.8186    11651.728    1910.3456 
   28200    301.80485   -1165.2958    6394.0209    11676.323    1927.6622 
   28300    299.50903   -1172.1605    6408.4463    11634.837    1900.6218 
   28400    296.54042   -1177.2723    6278.5745    11436.433    1834.2845 
   28500    300.22058   -1180.7927    6395.7196    11628.679    1908.2168 
   28600    300.08065    -1178.577    6261.4601    11493.646    1759.0142 
   28700    300.52622   -1176.4795    6489.1402    11732.942    1845.6696 
   28800    300.77221    -1173.242     6390.593    11642.888    1846.1873 
   28900    306.91101   -1172.1449    6374.8745    11759.412    1938.2175 
   29000     298.8083   -1170.8637    6375.8401    11588.557    1971.0918 
   29100    301.64602   -1167.9882    6326.4185    11602.635    1939.8719 
   29200    299.79949   -1171.2355    6434.7222    11668.243     1980.137 
   29300    299.57715   -1165.1389     6330.812    11565.679    1900.5821 
   29400    297.77681   -1167.6489    6483.8903    11677.786    1921.3972 
   29500    305.95213   -1158.2689     6506.144    11884.073    1903.3014 
   29600    298.18337   -1157.4298     6454.395    11667.195    1867.8969 
   29700    305.18255   -1151.1968    6432.4773    11801.038    1890.3487 
   29800    298.05408   -1144.1383    6363.5737    11586.903    1874.7921 
   29900    299.45724   -1142.7869     6381.096    11635.754    1894.7273 
   30000    307.71054   -1142.8522    6566.1912    11997.103    1971.8965 
   30100    302.42635   -1138.7604    6494.6165    11816.731    1964.6798 
   30200    297.72841   -1140.9637    6392.8162    11612.363    1892.8687 
   30300    303.76339   -1142.6581    6404.3106    11751.091    1883.7659 
   30400    305.18272   -1138.5744     6445.576    11826.762    1861.9788 
   30500    299.36613   -1137.0613    6445.9167    11704.354    1853.6395 
   30600    293.74194   -1140.4696    6556.7261    11691.602    1958.6797 
   30700     302.8484   -1135.1374    6346.8998    11681.654    1870.3885 
   30800    300.56205    -1145.552    6498.2547     11773.75     1934.951 
   30900    298.92769   -1146.2503    6554.3475    11794.229    1914.7459 
   31000    297.15731   -1145.2642    6344.3976    11547.443    1811.9613 
   31100    294.99609   -1144.1425    6402.2772    11560.273    1898.8306 
   31200    304.63708   -1150.2137    6384.4908    11742.381     1927.094 
   31300    295.58034   -1151.4258    6378.1245    11541.319    1882.1119 
   31400    299.03099   -1150.9202    6369.1088    11606.527    1936.2641 
   31500    303.53756   -1158.3442    6435.5019    11761.772    1976.5457 
   31600    294.54306   -1157.3175     6380.323    11515.466    1922.0486 
   31700    302.46856   -1163.6398    6358.9977    11657.135    1908.0953 
   31800      297.679   -1166.4632    6397.9262    11590.918    1932.7611 
   31900    305.36615   -1162.5423    6476.8455    11837.982    1948.2901 
   32000    296.91354   -1160.0559     6353.568    11536.614    1853.6515 
   32100    298.60097   -1160.3435    6365.5517     11584.36    1925.5555 
   32200     307.6593    -1154.272    6395.3394    11813.736    1980.2731 
   32300    298.88536   -1154.5703    6360.0059    11590.663    1944.1993 
   32400    301.65171   -1154.9517    6257.2645    11546.639    1938.2244 
   32500    298.33974   -1155.6407    6491.1593    11709.089    2030.3021 
   32600    310.54683   -1158.3075     6355.077    11831.126    1957.5565 
   32700    299.38608   -1154.2561    6331.4524     11573.12    1935.2972 
   32800    296.74652   -1161.2313    6425.6621    11603.965     1938.396 
   32900    301.27978   -1158.0075    6467.7109    11746.084    1892.3831 
   33000    297.99735   -1149.8534    6446.6234    11663.026    1857.3384 
   33100    303.48765   -1149.5128    6398.9082    11732.943    1863.8016 
   33200    296.82357   -1150.8305     6461.964    11652.314    1937.2671 
   33300    304.35643    -1150.357    6340.0224    11691.774    1941.8123 
   33400    295.64687   -1143.6003    6434.9584      11607.4    1929.5744 
   33500    303.00659   -1141.1994    6455.5797    11787.651    1913.6146 
   33600    302.80772   -1141.2367    6489.0758    11816.861    1918.7222 
   33700    295.54528   -1145.3727    6379.1844    11547.683    1956.1609 
   33800    302.88952   -1144.0696    6322.5807    11649.281    1931.8936 
   33900    295.32209   -1143.9048    6447.4784    11612.677    1919.7559 
   34000    301.58288    -1145.792    6466.5706    11763.634     1941.559 
   34100    303.83161   -1152.0014    6480.8534    11819.748     1975.385 
   34200    301.14379   -1148.7277    6396.7531      11681.5    1915.9236 
   34300    294.97056   -1147.0117    6503.0599    11657.641    1941.0251 
   34400    301.56229    -1154.775    6449.2611    11736.902    1922.1174 
   34500     297.6514   -1147.1646    6350.4979    11562.199    1906.1159 
   34600    304.69236   -1152.6137    6311.3116    11667.983    1882.4343 
   34700     302.0631   -1159.2529    6340.6789    11634.541    1900.7251 
   34800    298.33443   -1156.7416    6517.6682    11734.384    1942.1035 
   34900    303.29248   -1160.4252    6429.4009    11748.354    1899.5354 
   35000    296.60384   -1164.9618    6381.7073    11553.231    1864.6343 
   35100    301.16012   -1162.1286     6335.553    11607.248    1888.8043 
   35200    299.03255   -1161.0758    6299.0903    11526.386    1893.2968 
   35300    293.39782   -1153.6396    6518.8625    11633.217    1939.7325 
   35400    301.33762   -1161.1447    6381.2137    11657.685     1896.747 
   35500    297.55121   -1162.7332    6388.2191    11582.211    1964.1138 
   35600    300.80094    -1158.274    6380.3252    11648.202    1909.2737 
   35700    300.24073    -1161.365    6373.9504    11626.768     1854.876 
   35800    298.09422   -1163.6953    6472.1746    11676.805    1940.2918 
   35900    300.23575   -1150.2768    6399.5479    11663.347    1901.5277 
   36000    301.30463   -1157.6111    6362.9592    11642.259    1905.3546 
   36100    298.09707   -1163.6479    6390.0562    11594.795       1937.1 
   36200     300.5983   -1158.5074    6532.7761     11796.09    1984.8077 
   36300    295.92899   -1162.9515    6345.9087    11505.026    1889.6113 
   36400    297.74846   -1156.1285    6366.5911    11571.402    1940.8441 
   36500    301.18859   -1152.3983    6328.8704    11610.904    1926.6615 
   36600    299.84638   -1156.8961    6427.5839    11676.446     1968.593 
   36700    303.62087    -1155.182    6476.4731    11807.685    1949.1784 
   36800    293.98354   -1161.9371    6455.7478    11574.318    1931.8359 
   36900    300.68095   -1163.2843    6373.8125    11634.115    1918.2461 
   37000    301.37591   -1151.2226    6496.0146    11783.226    1874.7151 
   37100    299.96453   -1160.0601    6487.7303    11735.952    1882.1357 
   37200    302.24269   -1160.3602     6380.145    11676.736    1945.8445 
   37300    300.88076   -1156.2057    6390.1695     11661.82    1911.7504 
   37400    300.42894   -1156.6103     6444.623    11706.216     1934.434 
   37500    299.11374   -1156.8413    6378.8178    11612.083    1957.3821 
   37600    299.01579   -1157.3367    6550.9599    11781.637    1927.8638 
   37700    306.43881   -1152.8086    6512.7419    11906.528    1968.5542 
   37800     295.0507   -1158.2213     6357.478    11502.562    1952.5925 
   37900    302.39892   -1164.2141    6380.8487    11676.924    1877.1057 
   38000    297.95123   -1148.5167    6492.0411    11708.795    1898.1373 
   38100    301.17579   -1150.9781    6506.3485    11789.529     1971.868 
   38200    302.68834    -1148.533     6489.939    11807.878    1907.1748 
   38300    304.66298   -1147.1086    6536.4143    11897.963    1936.5716 
   38400    300.96744   -1149.6654    6315.6682     11595.71    1860.5388 
   38500     299.2862   -1145.4664    6379.4108    11627.735    1815.9149 
   38600    300.70965   -1145.1564    6571.6286    11850.672    1881.4244 
   38700    297.92745   -1144.6411    6448.8485     11668.97    1913.5856 
   38800    302.96255   -1143.9425    6382.5143    11710.902    1885.3103 
   38900    298.52117   -1142.7498    6432.1844    11666.881    1908.8349 
   39000    300.14723   -1143.1521    6420.6257    11689.659    1920.4117 
   39100     306.2233   -1146.9374     6501.427     11896.48    1992.7743 
   39200    299.57053   -1144.5244    6508.1729    11763.513    1934.8579 
   39300    303.09304   -1146.3774    6350.6934    11679.434    1815.7859 
   39400    296.05418    -1145.574    6392.3847    11571.554    1889.4691 
   39500    297.51826   -1147.2204    6363.3751    11572.176    1843.5196 
   39600    300.13604     -1147.67    6448.4908    11712.767    1859.8338 
   39700    300.59641   -1141.4249    6422.3609    11702.717    1873.9503 
   39800    302.79812   -1151.5476    6442.1882    11759.458    1872.2201 
   39900    294.74735   -1153.5338    6373.8712    11517.162    1811.5051 
   40000    301.44876   -1155.2715    6476.6115     11761.33    1906.0871 
   40100    300.30353   -1148.7038    6417.7998     11684.62    1920.3427 
   40200    295.48837   -1157.5776    6434.9523     11590.03    1944.7965 
   40300     302.4281   -1157.3121     6256.781    11560.381    1893.2303 
   40400    296.97673   -1144.5368    6433.5962    11633.512    1955.2764 
   40500    302.22256   -1146.8781    6570.7384    11880.382    1984.1674 
   40600     301.0874   -1151.6774    6366.2122    11646.805    1850.8011 
   40700    300.89964   -1157.6976    6301.8563    11572.418    1894.5569 
   40800    299.27826   -1150.6475    6357.3224    11600.296    1881.6397 
   40900    297.18395   -1154.8078    6472.3224    11666.394    1870.5018 
   41000    300.41402   -1151.7621    6351.2185    11617.341    1825.7685 
   41100    302.54534   -1158.3976     6433.167    11738.186    1924.9444 
   41200    303.83422   -1153.3593    6556.8214    11894.414    1913.8879 
   41300    291.89919   -1149.7162    6445.2632    11531.525    1854.9707 
   41400    300.77821   -1149.3345    6350.0296     11626.36    1891.5628 
   41500    300.68558   -1149.1579    6422.9238    11697.452    1951.4823 
   41600    299.44758   -1147.1231    6300.8685    11550.984    1869.9609 
   41700    300.71963   -1141.2098    6625.9678    11909.171    1965.2559 
   41800    305.72557   -1141.7578     6488.964    11878.564    1879.4585 
   41900    300.52498   -1141.5266    6383.0618     11661.79    1882.7283 
   42000    297.09138   -1147.5323    6287.3652    11486.734    1861.7996 
   42100    304.88346   -1146.5824    6460.5375    11827.322    1933.2103 
   42200    296.30808   -1148.1086    6413.9704    11596.029    1904.4109 
   42300    300.52853   -1146.5773    6335.5618    11609.315    1758.8657 
   42400    304.41403   -1141.9141    6481.9601    11843.385    1836.8796 
   42500    296.76958   -1151.1867    6515.5115    11704.351     1858.341 
   42600    296.23024   -1148.5582    6389.9095    11569.856    1758.2247 
   42700    302.30951   -1145.3296    6441.4568    11754.506     1828.375 
   42800     298.6384    -1138.894    6568.9965    11810.054    1898.8341 
   42900    302.43493   -1144.4917    6342.5939    11659.161    1802.1638 
   43000    293.24607   -1142.9146    6358.0097    11479.847    1819.0542 
   43100    297.94583   -1143.7659    6365.1272    11586.517    1924.0985 
   43200    300.39867   -1150.4387    6400.4091    11667.527    1846.1939 
   43300    301.29419   -1155.0668    6528.2924    11809.914     1852.683 
   43400    299.59839   -1149.8511    6402.8011     11653.41    1855.4566 
   43500    302.02902   -1151.5869    6301.8911    11602.691    1852.6746 
   43600     300.1163   -1151.8848    6339.4855    11599.125    1842.0478 
   43700    296.32297   -1154.7441    6380.3881     11556.13    1850.7252 
   43800    302.04099   -1150.4139    6514.4373    11816.666    1900.9842 
   43900    302.67795   -1146.6861    6465.5743    11785.138    1877.3985 
   44000    303.87595   -1150.5238    6348.1527    11689.472    1885.5229 
   44100    299.60504   -1151.2272    6239.2764    11488.651    1915.5605 
   44200    298.84445   -1153.6111    6423.8952    11654.637    1868.2009 
   44300    300.23704   -1150.6119    6462.5958    11726.088    1886.6036 
   44400    298.67369   -1150.1836     6375.633    11606.155     1884.686 
   44500    298.60299   -1148.9042    6498.5422    11728.833    1936.5689 
   44600      306.026   -1150.0671    6381.4877    11769.197    1880.6975 
   44700    295.99403   -1153.9983    6349.5615    11519.021    1900.5135 
   44800    301.49382   -1148.7668    6411.6096    11703.796    1932.7753 
   44900    295.29543   -1147.0521    6431.1304    11592.612    1892.3254 
   45000    299.10473   -1146.0276    6460.7969    11704.683    1961.7114 
   45100    303.97917   -1147.3678    6418.8358    11765.516    1930.2451 
   45200    301.91185   -1153.6818    6415.1082     11711.31    1844.0885 
   45300    294.93073   -1146.9459    6464.0567    11617.853    1833.6654 
   45400    300.18082   -1140.6137    6413.7372    11686.026    1809.3279 
   45500    300.71012   -1145.7911    6563.9496    11842.369    1839.3023 
   45600    308.97162   -1142.8228    6397.2139    11855.096    1857.0276 
   45700    298.58617   -1143.8864    6451.6752    11686.624    1953.0826 
   45800    298.64138   -1145.7382    6427.3418    11661.619     1885.258 
   45900    301.51265   -1144.6396    6463.3408    11760.056    1856.9426 
   46000    298.28041   -1142.2573    6530.4135    11760.459    1953.3522 
   46100    300.84731   -1144.9473    6370.9887    11653.183    1798.8711 
   46200    300.77246   -1142.7232    6435.8453    11718.664     1888.126 
   46300    299.18026   -1146.4611    6359.3238     11604.39    1877.6785 
   46400    299.76871   -1147.3461    6332.2014    11588.954    1879.4842 
   46500    304.27759   -1146.5284    6513.4262    11867.322    1945.3097 
   46600    298.68183   -1152.6697    6496.5694    11724.779    1908.7868 
   46700    302.14955   -1150.3394    6362.1418    11666.764    1846.1533 
   46800    301.76662   -1154.5221    6468.9192    11761.178    1918.0618 
   46900    297.06591   -1159.8025    6358.9792    11545.534     1866.368 
   47000    301.80317   -1160.2834    6402.1276    11689.406    1938.1613 
   47100    299.61832   -1160.2095    6553.0936     11793.77    1980.1695 
   47200    301.37827   -1156.7219    6350.3652    11632.128    1857.1263 
   47300    299.30204   -1157.7158    6328.2466     11564.66    1859.4244 
   47400    301.43338    -1154.888    6392.9758    11677.749    1913.5003 
   47500    301.98824   -1160.5284    6436.0061    11726.993    1881.0824 
   47600    306.10553    -1161.693    6471.6913    11849.473    1936.0126 
   47700    297.82862   -1168.8996    6492.9828    11686.735    1912.2951 
   47800    295.08169    -1159.576    6457.7783     11602.17    1893.3257 
   47900    303.18541   -1164.5323    6364.0345    11676.593    1894.8146 
   48000    294.45062   -1161.3809    6328.7334    11457.838    1875.3351 
   48100    304.29138   -1159.0004    6471.3416     11813.06    1890.5806 
   48200    299.11593   -1155.8718    6530.3389     11764.62    1931.4016 
   48300    300.75766   -1156.4179    6431.7894    11700.597    1891.0877 
   48400    296.23925    -1164.743    6278.4871    11442.441    1813.5108 
   48500    298.45466   -1160.8603    6454.9074    11670.073    1918.6391 
   48600    295.07108   -1160.5164     6467.328    11610.553    1976.9067 
   48700    300.00962   -1159.0822     6368.469    11618.632    1862.1188 
   48800    302.84866   -1157.2198    6447.2062    11759.883    1866.9684 
   48900    300.51196   -1158.6644    6530.3633    11791.676    1920.0641 
   49000    300.01403   -1161.5646    6320.7282    11568.503    1809.1191 
   49100    302.91811   -1158.0501    6390.3927    11703.723    1893.8486 
   49200    298.44596   -1150.6803    6401.2668    11626.426    1865.9036 
   49300    300.24575   -1150.2335    6415.5394    11679.596    1842.4304 
   49400     297.1696   -1158.5854    6387.6733     11577.66    1819.6279 
   49500    296.63616   -1166.7105    6436.8557    11607.322    1962.8835 
   49600    301.16869   -1157.7645    6361.1873     11637.43    1922.8539 
   49700    297.94204   -1158.1054    6502.2177    11709.187    1922.0918 
   49800    298.57691   -1164.6975     6507.672    11721.612    2009.1109 
   49900    300.46637   -1153.2481    6408.1186    11673.873    1946.8022 
   50000    301.03143   -1153.0316    6337.3486    11615.392    1894.9919 
   50100    296.47218   -1150.4598    6430.6799    11613.893    1948.5638 
   50200    302.99846   -1151.8809    6396.5881    11717.804    1962.0304 
   50300    299.87901   -1155.5805    6390.7876    11641.662    1847.8649 
   50400    298.57718   -1152.8838    6414.4338    11640.193    1842.9506 
   50500     299.9033   -1157.1745    6432.7402     11682.54    1839.8055 
   50600    294.81658   -1160.4215    6459.6965    11597.579    1811.6047 
   50700    300.61029   -1154.3258    6386.9431    11654.695    1836.1114 
   50800    300.69769    -1156.274     6440.498    11708.169    1975.6208 
   50900    299.20166   -1152.7088    6414.0566    11653.332     1916.951 
   51000     306.4166   -1149.8932    6468.6809    11864.908    1923.0545 
   51100     298.0279   -1148.0446     6467.971    11686.835     1949.954 
   51200    301.04961   -1150.7842    6404.7745    11685.453    1913.7391 
   51300    297.77059   -1146.1858    6329.6623    11544.888    1839.2244 
   51400    294.36755   -1145.6595    6500.5219    11643.573    1917.4008 
   51500    300.50264   -1151.8104    6424.3804    11692.348    1836.3907 
   51600    299.96717    -1155.232    6386.7559    11639.862    1783.6526 
   51700    295.80847   -1153.9182    6453.8051    11619.381    1838.0175 
   51800    308.63775   -1156.8679    6441.1484    11877.852    1837.2613 
   51900    300.15471   -1153.2255    6498.0181    11757.137    1895.2696 
   52000     299.5383   -1155.9057    6378.9218    11622.192    1903.3002 
   52100    298.23507   -1145.9456    6336.8171    11562.206    1901.1453 
   52200    302.78995   -1137.6622    6455.0583    11786.039    1919.5211 
   52300    296.72997   -1148.3981    6462.2275     11653.01    1980.7458 
   52400    300.54294   -1150.0268    6344.0507    11614.663    1890.9199 
   52500    300.50937   -1154.0931    6406.2133    11672.042    1881.4054 
   52600    299.51749   -1153.0712    6414.0216    11659.682    1846.6412 
   52700    295.17881   -1156.9052    6434.9317    11584.069    1843.5932 
   52800    303.50992   -1157.5352    6440.7939    11767.282    1923.0934 
   52900    300.18198   -1159.1056    6361.8341    11615.656    1856.4988 
   53000    305.38829   -1150.6091    6438.4719    11812.015    1882.1584 
   53100    298.11244   -1149.2218     6420.035    11639.528      1862.82 
   53200    300.16136   -1150.7442    6486.4734    11748.216    1851.3101 
   53300    303.03834   -1150.3351    6367.1027    11690.717    1855.0653 
   53400    303.12947   -1147.2287    6205.7685    11534.436    1852.4331 
   53500    298.16498   -1152.8904    6372.5903    11589.537    1819.3162 
   53600    296.98032   -1152.1328    6479.1369    11671.533    1792.5079 
   53700    301.46372   -1153.1562    6484.1244    11771.278    1847.9317 
   53800    295.76082   -1155.0144    6381.6117    11545.074    1793.1187 
   53900    302.22484   -1152.9211    6379.0218    11682.671    1825.8086 
   54000     302.9993   -1149.5496    6480.7415    11804.307    1945.5781 
   54100    302.31681   -1148.4482    6352.6892    11662.776    1893.6293 
   54200    295.58905   -1142.3236    6498.5863    11671.069    1857.2537 
   54300    301.16312   -1145.4044    6414.3448    11702.828    1893.8654 
   54400    301.50948   -1147.0294    6346.5407    11640.799    1894.0309 
   54500    298.78256     -1149.24    6423.2773    11657.068    1856.4249 
   54600    303.40644   -1151.3282    6450.6187    11781.103    1852.4261 
   54700    301.42086    -1159.308    6343.3182    11623.404    1793.6182 
   54800    298.37914   -1156.5927    6496.5791    11714.399    1769.3123 
   54900    297.32455   -1149.8273    6531.4563    11733.512    1888.1904 
   55000    302.48165   -1161.8952    6278.3145    11578.476    1884.0008 
   55100    298.98978     -1154.56    6296.9143    11529.812    1818.7139 
   55200    298.78055   -1144.8518     6447.502    11685.638    1906.9146 
   55300    303.58544   -1154.2284    6447.9586    11779.367    1928.7875 
   55400    297.57723   -1155.1027    6472.6635    11674.842    1861.4931 
   55500    300.79589   -1157.7909    6368.8795    11637.131    1853.0923 
   55600    303.33189   -1162.0523    6396.6668    11714.835    1937.9717 
   55700    301.04096   -1157.9858    6394.8334    11668.126    1842.0904 
   55800    300.30368   -1165.9655    6527.2019    11776.764    1838.1684 
   55900    301.97956   -1162.2749    6542.2711    11831.326    1946.2177 
   56000    298.61356   -1161.0733    6324.4658    11542.813    1832.9451 
   56100    303.60593   -1160.5858    6471.6391    11797.128    1869.6562 
   56200    299.13251    -1161.207    6397.5028    11626.803    1867.6273 
   56300    308.66647   -1159.9035    6372.1854    11806.467    1873.6117 
   56400    299.59863   -1161.9447    6486.7542    11725.274    1894.6588 
   56500    301.50766   -1164.1482    6435.2807    11712.381    1938.0005 
   56600    294.73955   -1164.4634     6362.538    11494.733    1914.6078 
   56700    300.15419   -1165.8139    6405.1831    11651.703    1853.0099 
   56800    300.64517   -1165.5373    6452.9824    11710.268    1903.6476 
   56900    299.51446   -1166.4004    6369.6814    11601.948    1891.9741 
   57000    296.40864   -1157.7877    6388.9542    11563.482    1801.0514 
   57100    298.65208   -1161.0368     6418.605    11637.812    1870.2244 
   57200    299.96599   -1167.2454    6409.8372    11650.905    1869.8698 
   57300    299.29815   -1167.9556    6402.5873    11628.677    1849.1198 
   57400     298.0143   -1165.7344    6362.1823    11563.066    1870.4496 
   57500    299.54081   -1163.7056    6378.0921    11613.616    1871.2675 
   57600    296.64995   -1162.8115    6451.0684    11625.728    1839.6103 
   57700     298.8599   -1164.1391    6456.5796    11677.124    1864.6097 
   57800    301.03525   -1160.4905    6377.9289    11648.595    1911.7201 
   57900     300.3581    -1159.559    6292.3992     11549.53    1901.1292 
   58000    298.43497   -1159.7105    6391.2499    11607.145    1856.9557 
   58100     302.0761   -1154.8276    6537.3784    11835.943    1925.3798 
   58200    299.62219   -1154.8104    6465.3314    11711.489    1837.1962 
   58300     294.4965   -1159.0812    6392.8637    11525.248    1794.9625 
   58400    297.93139   -1159.4008     6396.564     11602.01    1857.7423 
   58500    302.92826   -1152.7514    6469.3668    11788.213    1958.3009 
   58600     300.3187   -1151.9107    6447.1365    11711.074    1847.4314 
   58700    303.08006   -1156.6447    6454.8782    11773.074    1831.9647 
   58800    300.68955   -1155.1163     6493.698    11762.353    1927.0673 
   58900    300.01341   -1148.0746    6477.7137    11738.965    1890.9315 
   59000    299.51434   -1152.1397     6302.968    11549.493    1862.7948 
   59100     296.7223   -1149.0527    6509.4322    11699.396    2019.7487 
   59200    302.41709   -1147.1807    6435.8547    11749.351     1853.634 
   59300    296.33461   -1146.7155    6470.3317    11654.351    1813.6526 
   59400    303.41159   -1149.8897    6468.4918    11800.525    1913.2449 
   59500    295.19218   -1148.3036    6413.8028    11571.827    1902.3599 
   59600     303.4849   -1144.2416    6520.0973    11859.345    1921.6523 
   59700    298.79354   -1149.6567    6448.9882    11682.597    1869.8045 
   59800    302.43653   -1148.1978    6395.5462    11708.441    1909.0703 
   59900    301.73937   -1153.1687    6426.6569    11719.687     1909.036 
   60000    299.45668   -1157.6835    6379.2921    11619.041    1841.3051 
   60100    296.96956   -1151.2298    6515.3933    11708.463    1884.3725 
   60200    301.46298   -1161.5303    6473.7211    11752.485    1896.2634 
   60300    298.28508   -1163.5927    6392.0106    11600.821    1879.5393 
   60400    300.55685   -1160.3885    6414.9849    11675.532    1864.3947 
   60500    298.99967   -1163.9192    6421.6051    11645.355    1911.3754 
   60600    301.72957   -1166.6487    6345.4022    11624.743     1826.695 
   60700    296.73054   -1160.5744    6328.7494    11507.368    1877.8292 
   60800    304.10451   -1168.4587    6378.0153    11706.283    1879.7557 
   60900    295.25466   -1169.6799    6404.3907    11542.374    1843.9666 
   61000    300.64495   -1169.3618    6517.8542     11771.31    1907.1838 
   61100    296.53245   -1172.1066     6374.905    11537.759     1920.228 
   61200    303.14699   -1170.0355    6289.8391    11596.074    1929.0954 
   61300    296.57578   -1164.1329    6408.0206    11579.774    1899.7272 
   61400    297.12527   -1163.1875    6388.3194    11572.757    1910.7845 
   61500    303.19682   -1166.9473    6449.8062    11760.194     1889.076 
   61600    295.76857   -1171.8569     6416.392    11563.177    1834.8549 
   61700    299.02727   -1168.0691    6412.2272    11632.417    1847.1509 
   61800    302.60864   -1162.1817    6396.5902    11699.178    1875.8957 
   61900    296.14181   -1165.3308    6422.6565    11583.941    1907.3259 
   62000    298.74589   -1161.7375    6461.2107    11681.721     1906.957 
   62100     299.6861   -1161.0265    6329.0406    11570.348    1849.0725 
   62200    299.61086   -1153.6126    6536.4615    11783.575    1912.3064 
   62300    299.08166    -1153.429    6391.0107    11627.002    1834.1713 
   62400    301.58278   -1152.2029     6344.024    11634.674    1878.7751 
   62500    299.92173   -1149.7172    6450.3696     11708.02    1925.6007 
   62600    299.43804   -1150.8568    6426.3231    11672.501    1893.4351 
   62700    299.10548   -1147.8118    6416.0044    11658.122    1875.9216 
   62800    302.99365   -1146.0069    6472.4325     11799.42    1891.8981 
   62900     297.8554   -1145.7929    6542.3345    11759.765    1907.3316 
   63000    305.65549   -1148.2059    6371.7101    11753.365    1797.3277 
   63100    293.77052   -1147.4055     6362.925    11491.476    1826.1487 
   63200    301.10731   -1151.2713    6470.2028    11751.627    1854.4116 
   63300    303.60874   -1148.1349    6453.5486    11791.549    1868.0054 
   63400    297.20351   -1155.3849     6286.361    11480.273    1833.2873 
   63500     303.7958   -1150.8107    6489.6034    11828.924    1910.5888 
   63600     299.5702   -1160.1028     6427.595     11667.35    1844.5101 
   63700     296.8408   -1157.2764    6366.1506    11550.422    1878.4034 
   63800    297.35182   -1161.0596    6423.4146     11614.82    1893.7483 
   63900    301.04274   -1165.8011    6406.2792    11671.794    1874.2583 
   64000    294.93295    -1164.905    6397.9735    11533.858    1897.6045 
   64100    302.75225   -1171.6496    6546.7873    11842.975    1895.8172 
   64200    300.81493   -1172.2267    6432.8096    11687.032    1846.2957 
   64300    299.61611   -1172.7635    6351.5535    11579.628    1846.2323 
   64400     307.1668   -1164.9374    6433.1666    11830.377    1924.6766 
   64500     297.8902   -1169.8181    6428.2933    11622.442    1904.4458 
   64600     303.3938   -1168.3588    6446.1837    11759.368    1924.9889 
   64700    300.05461   -1165.5155    6404.1781    11648.869    1869.7772 
   64800    300.72374   -1169.8676    6353.1631    11607.797     1843.083 
   64900    299.23398   -1169.6897    6448.9743     11671.96    1915.0352 
   65000    302.51825   -1172.1301    6378.1331    11668.841    1887.1469 
   65100    299.99581   -1164.1143     6502.009    11746.845    1947.3219 
   65200    298.61853    -1170.803    6382.0413    11590.765    1901.2631 
   65300    301.97944   -1167.5406    6387.5665    11671.353    1890.2013 
   65400    296.77737   -1165.7295     6469.661    11644.125    1905.7218 
   65500    298.87342   -1161.0889     6381.222    11605.105    1820.7978 
   65600    298.69087   -1160.3062    6374.9658    11595.732    1830.2621 
   65700    297.82149   -1152.7427    6493.0796    11702.836    1954.2416 
   65800     301.8658   -1146.8837    6353.5916    11655.608    1827.2476 
   65900    301.24509   -1156.9742    6413.5077    11692.173     1915.115 
   66000    293.10867   -1147.7314     6381.491    11495.576    1835.4524 
   66100    301.98171   -1154.0932    6528.0465    11825.329     1881.561 
   66200    293.99463   -1154.0291    6410.8327    11537.548    1843.2861 
   66300    303.11906   -1151.6808    6389.5436    11713.536    1848.4486 
   66400    300.22803   -1147.1657    6442.6929    11709.438    1870.8376 
   66500    296.60547   -1147.3038    6432.6835      11621.9    1950.9708 
   66600    295.74264     -1140.03    6372.3158    11550.374      1919.95 
   66700    306.15785   -1144.9112    6376.1049    11771.787     1834.799 
   66800    297.86564   -1145.7083    6505.1267    11722.861    1884.3269 
   66900     298.4419   -1151.1842    6471.2226    11695.792    1893.0877 
   67000    303.53056   -1157.4971    6448.5913    11775.559    1875.8531 
   67100    300.78819    -1148.469    6347.5425    11624.952    1863.9638 
   67200    296.41317   -1157.8207    6436.4766    11611.068    1945.6212 
   67300    294.76824    -1150.763      6442.85    11589.358    1860.0694 
   67400    300.40422   -1152.5254       6386.6     11651.75    1813.6092 
   67500    301.17703   -1149.9938    6435.0535    11719.245    1888.2804 
   67600    295.78127   -1156.8095    6493.6502    11655.754    1911.9401 
   67700    301.43851   -1148.9461     6431.275      11722.1    1851.6971 
   67800    303.31354   -1156.2116    6422.8788    11746.496    1862.1561 
   67900    299.97915   -1157.4046    6480.8064    11731.996    1865.7208 
   68000    298.59412   -1160.2159    6399.9542    11618.744    1836.8625 
   68100    303.20109   -1161.7382    6362.5125      11678.2    1862.1176 
   68200    300.67871    -1161.747    6497.3943    11759.187    1831.8597 
   68300     299.8873   -1157.9148    6529.2832        11778    1859.8457 
   68400    300.26702   -1159.3604    6336.1217    11591.505     1857.247 
   68500    299.53179   -1154.0484    6298.7286    11543.717     1910.402 
   68600    301.05777   -1155.9637    6394.4797    11670.153     1885.044 
   68700    301.22061   -1151.0729    6477.4113    11761.455    1911.8527 
   68800    295.94577   -1157.3953    6414.7185     11579.75    1875.1606 
   68900    301.43053   -1152.8636    6400.8663    11687.604    1856.2825 
   69000    295.46948   -1152.2375    6478.7745    11638.789    1906.9795 
   69100    294.75065   -1150.8502     6393.069    11539.114    1912.7086 
   69200    302.67847   -1150.6638    6453.6303    11769.228    1922.2133 
   69300    295.89572    -1154.287    6433.7733    11600.844    1865.6486 
   69400    301.54711   -1161.0663    6470.7579    11751.783    1900.0568 
   69500      295.291   -1150.5937    6487.3631    11645.209    1869.3749 
   69600     302.7441   -1145.9102    6344.2629    11666.016     1847.433 
   69700    297.41544   -1149.1576    6408.3857    11613.053      1929.56 
   69800    299.29632   -1146.2498    6427.0802    11674.837    1882.4964 
   69900    291.04876   -1147.8472    6439.8981    11509.861    1862.1242 
   70000    299.61218   -1149.6093    6486.5071    11737.652    1936.0898 
   70100    297.90791   -1153.1853    6429.9511    11641.111     1904.846 
   70200    299.03366   -1155.6479    6421.3301    11654.078    1892.5621 
   70300    299.66072   -1157.5947    6395.9379    11640.135    1856.8829 
   70400      303.249   -1157.4201    6538.0493    11859.079    1869.9118 
   70500    293.23436   -1156.7037    6552.8439    11660.642    1873.3967 
   70600    302.37512   -1162.5309    6317.4637    11614.713    1835.8144 
   70700     298.1346   -1158.4829    6475.1304    11685.836    1976.2848 
   70800    300.48477   -1155.1076    6433.2243    11697.513    1936.7873 
   70900     300.2092   -1151.7964    6314.1852    11575.898    1941.9419 
   71000    298.37055   -1156.7583     6401.115    11618.586    1964.0211 
   71100    301.55048   -1162.9932    6436.9972    11716.167    1894.6355 
   71200    297.13953   -1166.9616    6355.1574    11536.126    1829.5919 
   71300     301.4976   -1175.3526    6448.7744    11714.455    1871.6314 
   71400    297.52129   -1168.4273     6465.034    11652.693    1871.1325 
   71500    298.71503   -1167.8935    6373.3396    11587.034    1848.0624 
   71600    303.99685   -1164.1543    6480.4742    11810.746    1931.7686 
   71700    296.70864   -1161.2177    6392.1973    11569.704     1875.203 
   71800    306.35618   -1161.8709      6453.94    11836.899    1936.0596 
   71900    297.27233   -1166.5726    6443.7386    11627.933    1923.5519 
   72000    295.27225   -1166.0258    6384.4163    11526.429    1864.9113 
   72100    303.01709    -1167.452    6473.5682    11779.611    1873.1643 
   72200    294.66652   -1167.0281    6355.9708    11484.041    1790.6938 
   72300    303.95765   -1166.2169    6454.4027    11781.775     1933.918 
   72400     297.1249   -1165.6845    6413.9901    11595.923    1940.9759 
   72500    299.67312   -1160.3628    6376.4066      11618.1    1866.1163 
   72600    302.28409   -1160.1775    6432.3608    11730.019    1918.7409 
   72700    298.73016   -1160.7997     6450.972    11672.084    1918.5983 
   72800    302.09335   -1152.7936    6403.0014    11703.969    1842.0899 
   72900    299.51268   -1156.1226    6328.0082    11570.514    1811.9519 
   73000     298.0882   -1160.4779     6499.203    11706.922    1839.1912 
   73100    303.37104   -1162.2744    6505.5776     11824.36    1834.0592 
   73200    293.10641   -1160.0729    6384.4261    11486.122    1850.5712 
   73300    302.22857    -1163.758    6376.1472    11669.039    1936.8218 
   73400    302.74857   -1158.1735     6518.497    11828.082    1928.0124 
   73500    304.01766   -1155.2357    6466.2275    11805.863    1950.6632 
   73600    296.01253   -1156.1239    6393.1497    11560.879    1942.3759 
   73700    298.56458   -1158.3404    6433.9619    11653.996    1937.3885 
   73800    300.01708   -1153.8601    6379.2054     11634.75    1864.7954 
   73900    299.81696   -1163.4777     6430.026    11671.678    1896.1291 
   74000    303.35246   -1160.2574    6366.3584    11686.761    1840.5802 
   74100    301.31421   -1163.1085    6484.8118    11758.819    1838.0955 
   74200    294.16038   -1164.4145     6445.987    11565.858    1836.9515 
   74300    302.05505   -1163.3895    6455.1839    11744.737    1875.6207 
   74400    300.28419   -1161.0843    6365.1795    11619.206    1812.2424 
   74500    299.77381   -1152.1985    6447.2535    11699.262    1914.9637 
   74600    297.47444   -1151.3283    6468.6167    11672.373    1934.1361 
   74700    296.20512   -1152.2781    6447.3073    11622.997    1981.2912 
   74800    303.36824    -1154.355    6300.8911    11627.533     1935.652 
   74900     300.7356     -1159.42    6278.7347    11544.069    1937.5398 
   75000    298.03047   -1157.8433    6385.4815    11594.602    1913.6301 
   75100    298.05266   -1159.7676    6507.4876    11715.158    1893.0821 
   75200    296.20813   -1162.3195    6534.9893    11700.702    1880.7871 
   75300    301.15308   -1156.2679    6362.3002    11639.706    1871.0517 
   75400    294.21143      -1161.3    6439.1727    11563.249      1880.54 
   75500    302.72814   -1162.3392    6409.0216    11714.005    1898.7602 
   75600    298.18588   -1156.9678    6458.2505    11671.566    1954.1981 
   75700    301.70625   -1155.3746    6482.3849    11772.502    1911.7542 
   75800    299.21904   -1150.7839    6429.0561    11670.628    1982.1589 
   75900    298.08825   -1153.5781    6256.8496     11471.47    1914.3478 
   76000    302.71114   -1154.1851    6401.2154    11713.989    1869.0957 
   76100    295.96672   -1157.5305    6472.8632    11638.207    1824.1766 
   76200    302.40665   -1165.1424    6390.3203    11685.632    1879.5361 
   76300    306.25794   -1159.8174     6564.089    11947.003    1986.5018 
   76400    298.25875   -1167.0951    6467.9665    11672.712    1895.5366 
   76500    295.28209   -1168.1125    6395.3164    11535.453    1894.4695 
   76600    301.81061   -1161.1221    6481.3818     11767.98    1984.4637 
   76700    297.89311   -1163.6407    6394.8547    11595.243    1846.7632 
   76800    296.86097     -1158.24    6461.1219    11644.861    1890.5128 
   76900    303.18474    -1158.873    6403.6729    11721.877    1989.9522 
   77000    305.11975   -1164.0043    6348.4067    11702.818    1878.5524 
   77100    300.11648   -1168.9682    6468.0582    11710.618      1917.62 
   77200    297.64811   -1165.9558    6505.2831    11698.122    1898.2748 
   77300    307.04973   -1165.4673    6399.5811     11793.76    1943.7836 
   77400    302.67153   -1168.8427    6292.1264    11589.396    1830.6429 
   77500    297.08287   -1163.3102    6484.3392    11667.749    1956.1673 
   77600    299.75575   -1161.2244    6547.1706    11789.768    1936.1483 
   77700    305.47179   -1162.8061    6431.3851    11794.515    1928.7389 
   77800    297.67774   -1163.0092    6353.5146    11549.934    1872.0811 
   77900    300.93174   -1156.2699    6406.1874    11678.862    1899.5558 
   78000    309.86291   -1153.7182    6502.1409    11968.168    1952.4678 
   78100    297.51006   -1159.4649     6469.493    11665.874    1915.2423 
   78200    300.07061   -1158.9117    6448.2171    11699.853    1950.2161 
   78300    302.70105   -1156.8485    6413.9895    11723.885    1892.0152 
   78400    301.16635   -1160.4401    6472.6517    11746.169    1897.1589 
   78500    297.30624   -1159.0842    6338.2884    11530.696    1860.7532 
   78600    300.82683   -1153.5524    6316.3256    11589.477    1884.9796 
   78700    300.84344   -1148.5661     6509.277    11787.769    1923.0809 
   78800    299.72473   -1154.5406    6470.6516     11719.27    1952.8825 
   78900     301.1173   -1148.9086    6386.2375    11670.238    1945.4865 
   79000    299.95609   -1154.5993    6408.6258    11662.128    1899.4968 
   79100    296.82863   -1154.7058    6378.1288    11564.711    1872.3945 
   79200    303.24223   -1155.4466     6508.528    11831.386    1971.3024 
   79300     295.2666   -1157.6544    6487.6902    11637.954    1879.2929 
   79400    298.86694   -1158.7039    6381.2711    11607.401    1866.4411 
   79500    301.48002   -1157.4675    6411.5759    11694.766    1929.5609 
   79600    302.57713   -1155.1522     6441.917    11750.861    1919.8517 
   79700     294.4542   -1155.6524    6458.3445    11593.254    1869.9886 
   79800    302.25788   -1152.7536    6439.4238    11743.946    1905.7524 
   79900    293.67548   -1155.0346    6378.9046    11497.796    1917.9839 
   80000    307.05742   -1159.0962     6400.801    11801.515    1869.4117 
   80100    299.47133   -1162.4781    6349.7614    11585.029    1878.1272 
   80200    298.71967     -1163.93    6469.2478    11687.005    1886.0338 
   80300    307.12475   -1163.8658    6448.7389    11846.122    1834.8812 
   80400    300.59455   -1165.1609    6479.0978    11735.678    1890.4317 
   80500    297.40952   -1170.1128    6427.4198    11611.005    1932.9999 
   80600    303.48962   -1176.2942    6280.7127    11588.009    1847.3907 
   80700    293.76168   -1165.3296    6494.0607    11604.499    1992.2349 
   80800    302.79178    -1163.792    6343.0907    11647.981    1925.2654 
   80900    299.79841   -1162.0613    6409.6381     11652.31    1920.6226 
   81000     300.1398   -1164.0752     6324.844    11572.795     1911.838 
   81100     298.6066   -1169.7945    6401.7166    11611.194    1882.6207 
   81200    304.73077   -1168.6152    6423.3787    11764.869    1901.8563 
   81300    297.11295   -1170.9129    6398.9996    11575.449    1867.3855 
   81400    301.37896   -1164.6471    6435.8262    11709.678    1848.2815 
   81500    299.81031   -1159.2732    6433.2498    11678.964    1823.6523 
   81600    296.51501   -1163.7701    6354.8655    11525.684    1822.1207 
   81700     298.7881   -1161.4936    6458.9349    11680.591    1865.9419 
   81800    300.04824   -1162.9862    6405.1067    11652.191    1874.7186 
   81900    302.18036   -1156.9793     6356.586    11655.226    1906.1662 
   82000    297.83802   -1154.5365    6394.4258    11602.742    1911.1677 
   82100    304.42195   -1150.1228    6430.3514    11783.736    1860.8844 
   82200    298.42554   -1152.3472     6380.631    11603.688    1869.1346 
   82300    300.04289   -1153.8135    6397.8264    11653.969    1877.0411 
   82400    293.19472   -1158.9132    6525.0562    11629.798    1920.9664 
   82500    300.37995   -1155.6379    6510.1308     11771.65    1843.1089 
   82600    302.24424   -1149.7044    6460.4671    11767.747    1798.4944 
   82700    295.25233   -1147.4453    6401.8092    11561.977     1830.913 
   82800    303.23045   -1148.2326    6357.1835    11687.004     1898.001 
   82900    302.77551    -1150.774    6360.0287    11677.589    1857.4093 
   83000    302.06727   -1150.5986    6381.7359    11684.341    1839.6825 
   83100    299.02934   -1148.5742    6544.0291    11783.758     1848.366 
   83200    295.83821   -1151.3215    6486.3552    11655.163    1911.2002 
   83300    300.68171   -1157.8711    6355.4912    11621.223    1913.4088 
   83400    300.92282    -1153.093    6319.6277    11595.289    1900.5243 
   83500    299.39431   -1164.8366    6432.7882    11664.052    1902.4598 
   83600    299.51433   -1163.3491    6516.5624    11751.877    1936.3874 
   83700    299.49821   -1163.8454    6423.1756     11657.65    1874.0483 
   83800     302.1079   -1158.8454    6355.3645    11650.591    1854.9824 
   83900     300.5652   -1162.0639    6380.9137    11639.964    1871.5215 
   84000    296.35662   -1160.8814    6344.2846    11514.608    1835.4942 
   84100    302.14862   -1152.8281    6495.6782    11797.792    1929.3228 
   84200    297.60061   -1164.0983    6342.1129    11535.795    1872.1192 
   84300    303.96019   -1164.9923    6420.2173    11748.868    1873.6837 
   84400    300.24372   -1163.5134    6478.2726    11729.006    1895.0174 
   84500    295.21952    -1170.787     6421.369    11557.494    1909.0215 
   84600    300.59348   -1168.4912    6403.1429     11656.37    1904.0539 
   84700    298.44364   -1165.8199    6456.3191     11666.29    1899.2598 
   84800     301.6235   -1166.7133    6369.9021    11646.912     1968.727 
   84900    296.93584   -1159.2994    6342.4858    11526.765    1961.5229 
   85000    304.11569   -1159.6006    6335.8579    11673.222    1965.1378 
   85100    297.45451   -1156.5877    6518.7088     11716.78    1987.4571 
   85200    303.76356   -1156.1144    6430.0094    11763.337    1935.4444 
   85300    294.36636   -1164.8853    6311.6333    11435.434    1887.6676 
   85400    300.64327   -1161.2297    6424.9129    11686.465    1947.5292 
   85500    298.52934   -1165.0803    6513.2921    11725.833    1944.3476 
   85600    301.46688   -1160.7828    6441.9381    11721.533    1888.5961 
   85700    295.95735   -1163.1948    6303.1389    11462.619    1805.0947 
   85800    300.70421   -1160.6625    6496.7015    11760.123    1869.6692 
   85900    303.97105    -1158.758    6532.4164    11867.534    1931.8531 
   86000    301.74566   -1154.1199    6419.7323    11711.945    1903.9136 
   86100    301.86661   -1154.7833    6296.9238    11591.057    1824.1941 
   86200    300.44638   -1154.4682    6443.0914    11707.199    1860.9059 
   86300     300.0215   -1158.4615    6397.5917    11648.629    1874.8553 
   86400    299.61505   -1164.8766    6452.2134    11688.153    1882.0215 
   86500    300.32015   -1161.6784    6486.9802    11741.181    1885.8301 
   86600    303.73893   -1161.4071    6416.8489    11744.358     1888.491 
   86700    306.75726   -1161.4123    6413.4668    11805.453    1881.3245 
   86800    299.47408   -1154.9565     6525.756    11768.604    1878.0995 
   86900    301.97395   -1156.2131    6390.9555    11685.952    1816.4229 
   87000    295.84734   -1150.7409    6403.2288    11572.812    1848.2238 
   87100     302.4243   -1153.4031    6430.0093    11737.437    1876.5691 
   87200    299.27079   -1159.9846    6415.3239    11648.801    1872.0819 
   87300    302.51736   -1163.1433    6438.7506    11738.426    1896.9919 
   87400     297.1146   -1161.3725    6443.4644    11629.489    1915.0133 
   87500    296.10704   -1164.4882    6374.1328    11535.517    1823.3243 
   87600    299.48014   -1161.9949    6394.0586    11629.997     1911.938 
   87700    301.77842   -1157.8076    6476.1342     11765.36    1991.4064 
   87800    296.91003   -1157.5521    6431.4799    11616.955    1909.1632 
   87900    303.60031   -1161.1734    6317.1707    11641.952    1906.5155 
   88000    299.10743   -1158.0643    6475.8884    11707.796    1969.0476 
   88100    297.08027   -1160.0186    6555.5593    11742.205    1943.3797 
   88200    300.14089    -1162.236    6352.7691    11602.583    1865.7741 
   88300    299.34383   -1163.3585    6390.1466     11621.81    1947.2918 
   88400    302.65304    -1164.821    6345.9473    11646.844    1940.4462 
   88500    298.72413   -1165.3829    6463.9867    11680.386      1913.55 
   88600    301.19078   -1161.4254    6476.1106    11749.164    1934.7273 
   88700    301.05796   -1163.1264    6395.5405    11664.056    1913.0169 
   88800    299.43823   -1162.3016    6451.5724    11686.309    1897.5496 
   88900    305.18221   -1162.3609    6475.3792    11832.768    1988.6429 
   89000    301.72626   -1156.1939    6452.4783    11742.203    1919.2522 
   89100    300.31842   -1166.5037    6423.2965    11672.635     1817.539 
   89200    303.58882   -1166.4908    6429.4084    11748.627    1913.1117 
   89300    297.15162    -1170.236    6411.1966    11589.149    1886.0403 
   89400    299.80905   -1159.7497      6424.94    11670.151     1866.633 
   89500    302.76785   -1161.1718    6406.1165    11713.115    1834.1122 
   89600    301.94065   -1163.9565    6509.0136    11795.556    1888.6652 
   89700    300.35848   -1162.1959    6332.7131    11587.215    1835.4766 
   89800     299.3361   -1161.8089    6274.6964    11507.744    1841.8241 
   89900     295.2097    -1157.809     6496.481    11645.374    1881.6471 
   90000    299.07609   -1163.9412    6382.1376    11607.498    1813.7936 
   90100    305.81064    -1162.661    6447.9489    11818.463      1860.59 
   90200    297.98121   -1161.8675    6544.6422    11748.686    1885.3289 
   90300    294.85134   -1160.5607    6409.7778    11548.264    1837.0031 
   90400    300.63884   -1162.8048    6331.2514    11591.134    1828.0022 
   90500    298.65603   -1162.7773    6469.5861    11687.137    1889.7605 
   90600    297.12758   -1152.9899      6419.66    11614.345    1931.9995 
   90700    305.42505   -1155.5901    6352.8335    11722.181    1893.6432 
   90800    298.90927   -1154.6696    6412.6809    11643.749    1901.5889 
   90900    304.33992    -1148.268    6395.1665    11748.654    1888.4938 
   91000    301.16752   -1146.6464    6426.9485    11714.284    1911.4498 
   91100    301.29872   -1153.0639    6334.5811    11618.302    1804.2508 
   91200    298.86378    -1157.475     6424.603    11651.894    1900.5282 
   91300    305.07421   -1147.1228    6430.0774    11800.397    1854.1706 
   91400    303.62635   -1158.9394     6509.574    11837.146    1783.3023 
   91500    296.05517   -1162.8512    6458.9013    11620.815    1810.2788 
   91600    302.47048   -1161.0142    6442.8148    11743.618    1925.3168 
   91700    296.36771   -1152.0781    6319.9764     11499.34     1788.211 
   91800    301.39875   -1149.7753    6410.0419    11699.188    1905.7287 
   91900    296.71332   -1155.4559    6411.3056    11594.675     1910.017 
   92000    298.97084   -1155.0816     6450.036    11682.008    1853.8698 
   92100    295.82443    -1155.217    6363.5045    11528.123    1835.3541 
   92200    302.45305   -1167.2109    6476.2959     11770.53    1920.8812 
   92300     294.3748   -1165.2763    6280.1315    11403.721    1805.8883 
   92400    305.39425   -1169.7888     6408.156    11762.647    1894.2291 
   92500    299.98285   -1162.3064    6533.2107    11779.578    1898.4181 
   92600    301.23481   -1163.3224    6489.5021    11761.599    1848.4587 
   92700    298.77788   -1161.5328    6458.6052    11680.003    1845.1955 
   92800    302.27558   -1166.7593    6324.3704    11615.265    1899.2873 
   92900    296.00136   -1161.3842    6318.1337    11480.364    1834.4567 
   93000    300.56856   -1166.2862    6433.8589    11688.759    1858.3947 
   93100    302.02726   -1164.9868    6432.9057    11720.268     1866.993 
   93200    298.28081   -1170.0551    6439.8334     11642.09    1902.2842 
   93300    306.45819   -1168.3368    6490.7379     11869.41    1928.5677 
   93400    297.40481   -1175.1049    6300.1624    11478.655    1825.1355 
   93500    296.09465   -1164.7612    6397.3379    11558.184    1896.9208 
   93600    300.81754   -1158.6884    6451.0613    11718.878    1848.0563 
   93700    303.54766    -1166.141    6532.7647    11851.454    1960.0938 
   93800    295.42077   -1165.5178    6301.0435    11446.737     1927.205 
   93900    304.53132   -1163.9644     6316.168    11658.048    1890.6673 
   94000    303.59168    -1161.655    6443.5004    11767.616    1913.1846 
   94100    296.08845   -1157.0268    6434.1211     11602.57    1843.8044 
   94200    302.89949   -1162.8987    6440.5142    11748.598    1838.9922 
   94300    301.43974   -1159.7449    6453.6674     11733.72    1894.0195 
   94400    298.90859   -1158.5769    6391.4051    11618.552    1868.2701 
   94500    303.73705   -1154.9628    6455.2342    11789.147    1935.4497 
   94600    298.94695   -1152.6442    6470.5635    11704.462    1916.3239 
   94700    300.29117   -1150.4261    6439.8489    11704.683    1944.7898 
   94800    296.77492   -1155.6396    6416.3361    11600.837    1907.2893 
   94900    295.86012   -1153.6617    6497.3971    11664.333     1841.016 
   95000    302.99625    -1156.575    6455.0493    11771.524    1873.3569 
   95100    302.75054   -1154.5925    6428.4936    11741.702    1874.0245 
   95200    300.25392   -1158.1629    6440.0253    11696.327    1883.7406 
   95300    300.43506   -1161.5639    6417.6248    11674.395    1851.1484 
   95400    298.16208   -1158.0966    6461.8427    11673.521    1881.9747 
   95500     297.5169   -1155.4524    6357.5633    11558.103    1821.1996 
   95600    303.05366   -1161.5661    6460.1662    11772.877    1919.7939 
   95700    296.94985   -1159.5807    6438.6663    11622.964    1968.9094 
   95800    303.76889   -1159.1579    6383.8106    11714.209    1900.1094 
   95900    294.96156    -1161.547    6480.3759     11620.23    1865.0244 
   96000    304.43517   -1162.9404    6477.7186    11818.568    1913.5206 
   96100    301.97446   -1165.8309    6371.8901     11657.28      1951.04 
   96200    301.64336   -1170.9668    6357.8316    11631.012    1893.1192 
   96300    299.61021   -1174.0475    6380.1817    11606.847    1887.3317 
   96400    299.55307   -1172.1085    6497.7216    11725.105     1889.424 
   96500    300.62345   -1162.9042    6388.3288    11647.783    1827.7394 
   96600     297.7948   -1165.1245    6342.8776    11539.682    1874.2687 
   96700    300.19991   -1159.8511    6475.8965    11729.356    1917.1923 
   96800    302.86607   -1167.3023    6384.4381    11687.405    1834.0499 
   96900    292.53557   -1164.8999    6353.7059     11438.38    1842.8708 
   97000    300.00848    -1164.521    6360.4116    11605.111    1897.8665 
   97100    299.15513   -1163.7158    6428.4184    11655.693    1856.7125 
   97200    299.72874   -1168.6798    6327.0549     11561.62    1815.3111 
   97300    299.76411   -1172.0543    6464.1131    11696.059    1892.3173 
   97400     306.8287   -1159.0006    6469.5326    11865.456     1882.342 
   97500    298.00189   -1159.1173    6411.7058    11618.942    1840.3649 
   97600    299.88102   -1160.6917    6374.6144    11620.421    1941.4748 
   97700    298.47755   -1156.6509    6391.3571    11611.221    1944.9721 
   97800    300.54883   -1155.7873    6539.2129     11804.19    1924.1838 
   97900    301.90431   -1157.4976      6444.88    11737.105    1890.8908 
   98000     299.6965   -1158.4989    6398.5903    11642.647    1862.6142 
   98100    298.77957   -1157.7095    6506.7511    11732.009     1808.357 
   98200    299.80392   -1157.5911    6483.7537    11731.013    1873.0671 
   98300    304.95743   -1153.1635     6426.886     11788.67    1943.0462 
   98400    298.57638   -1156.6604    6467.9948    11689.961    1949.6906 
   98500     301.7283   -1147.6536    6313.1673    11611.476    1907.6203 
   98600    297.95736   -1150.3619    6528.7361    11743.776    2033.1035 
   98700    302.40116   -1156.1795     6450.532    11754.689    1946.6922 
   98800    296.29439   -1154.5949    6430.3678    11605.648    1896.7097 
   98900    305.77799   -1158.7204    6388.5593    11762.317    1903.6729 
   99000     297.5784   -1160.5611    6389.6052     11586.35    1850.0561 
   99100    298.25176   -1163.9797    6439.7408    11647.452    1842.3417 
   99200    306.65063   -1167.1918    6434.8927    11818.821    1902.1493 
   99300    296.10118   -1161.6202    6401.1263    11565.253     1822.088 
   99400    296.70604   -1166.3561    6350.7703    11523.084    1809.1289 
   99500    298.70426   -1170.3502    6483.5681    11694.576    1893.5879 
   99600     304.2544   -1167.0495    6426.7164    11759.595     1862.606 
   99700    297.52062   -1164.0228    6376.4487    11568.497    1837.6909 
   99800    304.07424   -1165.7132    6409.7915    11740.158    1932.6175 
   99900    294.21689   -1168.6742    6437.8331    11554.651    1880.3082 
  100000    296.72817   -1166.2182     6454.422    11627.346         1920 
  100100     303.0673   -1169.8391    6299.5468    11604.276    1861.2323 
  100200    299.87053   -1163.1889    6445.2236    11688.308     1899.034 
  100300    301.25958   -1166.3581    6391.4918    11661.082    1830.8163 
  100400    301.68725   -1170.1415    6366.8514    11641.795    1818.6984 
  100500    297.40869   -1166.4593    6465.2469    11652.468    1915.3386 
  100600    302.07141   -1165.9128     6524.867    11812.246    1999.0346 
  100700    297.71057   -1158.1574    6384.4679     11586.44    1899.0363 
  100800    298.66035   -1154.3141    6366.1129    11592.219    1924.9411 
  100900    300.39063   -1166.7652     6489.242    11739.862    1938.9839 
  101000    299.04156   -1159.1484    6423.2191    11652.635    1874.6788 
  101100    300.08756   -1158.2566    6409.8548    11662.509    1903.9273 
  101200     302.0718   -1161.1481    6503.3929    11795.545    2004.7258 
  101300    298.54429    -1159.767    6385.1599    11603.334    1858.0252 
  101400    303.76685   -1155.1393    6421.6979    11756.071    1867.1198 
  101500    307.60213   -1155.7507    6429.4461    11845.143    1896.1711 
  101600    297.06138   -1155.0546    6463.9746    11655.181    1888.6646 
  101700    296.94598   -1154.5797    6439.1378    11628.353    1882.1775 
  101800    299.40878   -1155.1176    6331.7672    11573.059    1890.5935 
  101900    304.39041   -1145.8288    6444.9839    11801.989     1952.255 
  102000    299.85133   -1153.9544    6502.3434    11754.253    1817.2671 
  102100    298.92329   -1158.9574    6531.9924    11759.072    1888.0492 
  102200    300.00881   -1160.3357    6385.2273     11634.12    1834.1189 
  102300    297.41924   -1165.8524    6410.7984    11598.852    1798.3954 
  102400    301.39082   -1164.5825    6456.7304      11730.9    1900.7886 
  102500    299.12827   -1160.8435    6355.3837    11584.957    1888.3914 
  102600    305.27013    -1163.474    6404.5662     11762.72     1879.974 
  102700    298.02126   -1164.8863    6508.3413    11710.222    1878.5363 
  102800    302.00477    -1163.423    6450.4765    11738.922    1864.4024 
  102900    297.14458   -1164.1762    6323.0816    11506.943    1824.0038 
  103000    303.13917   -1160.4856     6446.492     11762.11    1948.3321 
  103100    297.55564   -1170.4174    6431.9692    11618.371    1907.3514 
  103200    299.08274   -1166.1932    6441.2574    11664.508    1861.6243 
  103300    300.74956    -1169.671     6354.532    11609.914    1846.7562 
  103400    301.75664   -1174.2016    6460.0782    11732.444     1898.839 
  103500     299.7492    -1174.361    6348.8666    11578.187    1850.9625 
  103600    303.87778   -1167.9606     6406.074    11729.996     1864.591 
  103700    299.94342   -1163.2095    6431.3365    11675.958    1900.6678 
  103800    302.29031   -1162.1316    6465.3264    11761.164    1997.4034 
  103900    297.92118   -1159.4547      6314.43    11519.604    1891.4038 
  104000    299.79533   -1164.8334    6445.4794    11685.313    1940.3205 
  104100     301.6973    -1170.431    6381.9191    11656.788    1862.6558 
  104200     300.2539   -1169.1967    6523.4125     11768.68    1846.7632 
  104300    306.12247   -1170.6887    6495.0127    11864.161    1854.9102 
  104400    298.14376   -1168.0182    6448.2018    11649.568    1917.6275 
  104500    299.68548   -1161.0252     6410.626    11651.921    1872.4189 
  104600    304.20308   -1163.0301    6440.9802    11776.782    1884.9961 
  104700    298.48202   -1155.2879    6369.2787    11590.601    1896.8425 
  104800    303.56526   -1155.8199    6513.8003    11843.186    1919.8086 
  104900    299.70668   -1157.2918      6494.56    11740.042    1837.7364 
  105000     300.7599   -1152.3258    6389.0364    11661.984    1851.2682 
  105100    296.18304   -1156.5584    6337.6357    11508.573      1895.13 
  105200    297.98982   -1159.4999    6412.9821    11619.577    1905.6672 
  105300     302.1969   -1160.4614    6457.9203    11753.432    1942.8069 
  105400    301.54053   -1165.7789    6462.8556    11739.028    1932.2568 
  105500     296.2258   -1161.9113     6399.686    11566.184    1864.0495 
  105600    301.61823   -1159.0219    6377.5407     11662.13    1902.7658 
  105700    295.89582   -1160.3329    6378.5865    11539.614    1904.8706 
  105800    299.42814   -1155.5719    6502.3601    11743.611    1947.3447 
  105900    300.43244    -1158.162    6401.5854    11661.701    1896.5722 
  106000    298.46719   -1165.2068    6389.2693    11600.356    1930.6701 
  106100    304.53776   -1165.6206    6448.0195    11788.381    1900.6773 
  106200    295.22148   -1165.0236    6476.0802    11618.011    1867.9205 
  106300    303.07457   -1163.9857    6472.6108    11783.348    1913.4095 
  106400    297.44865   -1176.3503    6458.0949    11636.279    1909.4234 
  106500    294.13305   -1169.5425    6353.2775    11467.436    1864.6815 
  106600    296.49104   -1172.6479    6354.9839    11516.412    1874.7017 
  106700    298.30392   -1171.0735    6378.6468    11580.379    1865.8236 
  106800    302.40314   -1170.9775    6523.3153    11812.717    1932.7846 
  106900    300.83527   -1167.5356    6505.4162    11764.765    1959.0189 
  107000     301.0543   -1168.1395    6296.9347    11560.358     1934.365 
  107100    305.65292   -1165.7121    6338.6453    11702.739    1955.4636 
  107200    297.22115   -1165.5736    6491.4862    11675.586    1952.2588 
  107300    300.85243   -1166.1343    6384.4775    11645.594    1896.3338 
  107400    300.79826   -1166.5248     6460.004    11719.573    1955.7428 
  107500    301.13288   -1163.2191    6378.3039    11648.327    1899.3433 
  107600    301.21236   -1165.4326    6467.9983    11737.505    1929.9756 
  107700    299.70641   -1164.4295    6520.5356    11758.874    1934.5635 
  107800     299.1001   -1162.8986     6320.062    11546.978    1860.3688 
  107900    303.13004   -1162.6177    6362.9782    11676.269    1888.8804 
  108000    301.10629   -1165.0575    6549.3924    11817.009    1937.9562 
  108100    297.14802   -1162.6932     6439.878    11625.296    1912.9676 
  108200    300.00631   -1155.1567    6409.3552    11663.373    1915.1666 
  108300    299.72286   -1154.2308    6328.4255    11577.314    1847.6636 
  108400     300.4447   -1154.4869    6535.8506    11799.904     1953.503 
  108500    301.52418   -1152.2942    6497.6887    11786.996    1878.5967 
  108600    301.69891   -1158.9452    6407.4836    11693.873    1881.9623 
  108700    299.14412   -1160.5595    6409.3047      11639.5    1919.3776 
  108800     301.1025   -1158.9623    6538.8159    11812.446     1915.587 
  108900     295.0636   -1159.5988    6531.7892    11675.772    1906.7592 
  109000    304.01184   -1161.1501    6418.8989    11752.495    1906.8061 
  109100    300.95973   -1159.4395    6412.5457    11682.649     1867.705 
  109200    297.55083   -1160.4024    6389.8149    11586.129    1882.1974 
  109300    300.26853   -1156.4639    6479.6473     11737.96    1961.3223 
  109400    300.01377   -1159.1678    6473.1455    11723.312    1927.2855 
  109500    299.08403   -1155.7792    6464.5355    11698.228    1886.3418 
  109600    301.71831   -1163.6398    6479.6318    11761.741    1972.3619 
  109700    292.80818   -1166.7615    6383.2817    11471.918    1925.4098 
  109800    301.90182   -1171.0479    6401.2611    11679.882    1881.8547 
  109900    304.84249   -1170.8978    6422.1958     11763.79    1857.2625 
  110000    300.66113   -1170.8631    6455.6635    11707.964    1930.4183 
  110100    304.63451   -1168.1316     6443.287    11783.204    1912.9464 
  110200     299.2648   -1164.3216    6375.8633    11604.875    1870.6644 
  110300    304.68596   -1153.7145    6424.0714    11779.505    1920.7571 
  110400    299.30592   -1170.5071    6356.0582    11579.763    1853.4337 
  110500    304.48541   -1164.6688    6405.2253     11745.42    1871.0113 
  110600    300.87152   -1172.3051    6497.2541    11752.607    1918.5792 
  110700    293.47144   -1172.8361    6457.9286    11554.659    1902.9191 
  110800    301.90099   -1171.0053    6365.9002    11644.546    1859.2725 
  110900    301.04678   -1170.1061    6439.8565    11701.153    1912.8368 
  111000    296.47624   -1166.6731     6431.577    11598.664    1856.0114 
  111100    297.81907   -1163.2814    6394.5449    11593.711    1827.7126 
  111200    301.65754   -1163.3793    6347.4099    11628.481    1892.7261 
  111300    298.90928   -1164.0643    6474.5651    11696.239    1956.7255 
  111400    292.02047   -1160.8767    6428.9027    11506.595    1859.8538 
  111500    303.28995   -1156.2051    6319.8062    11642.926    1869.0083 
  111600    297.81029   -1162.0059    6422.2744    11622.528    1893.9572 
  111700    303.34581   -1161.2513    6451.9009    11771.167    1859.6894 
  111800    298.35833   -1162.5308    6340.0287    11551.466    1881.9588 
  111900    305.95156   -1161.0022    6381.2946    11756.478    1918.7624 
  112000    300.46778   -1154.7373    6564.8157    11829.112    1874.5366 
  112100     299.0891   -1156.7673    6505.2162    11738.029    1840.9504 
  112200     298.7245   -1154.7918    6419.9468    11646.946     1925.167 
  112300     301.2807   -1155.5471    6259.2206    11540.073    1838.6496 
  112400    294.94451   -1159.0195    6456.0161    11598.034    1855.3511 
  112500    299.51381   -1156.2058    6599.5679    11842.015    1885.7544 
  112600     302.4131   -1158.2946    6462.2132    11764.511    1831.7761 
  112700    298.56471   -1160.0179    6376.8726    11595.232    1791.8062 
  112800    302.15287   -1160.2251     6376.687    11671.494    1845.6486 
  112900    298.95261   -1162.1454    6490.2939    11714.812     1875.407 
  113000    307.79909    -1154.306    6512.4506      11933.8    1885.7818 
  113100    297.71527   -1159.6314    6476.1833    11676.782    1831.5509 
  113200    306.68961   -1154.8874    6427.2152    11824.281    1882.6112 
  113300    301.66949   -1162.2975    6336.4071    11618.815    1835.5485 
  113400    301.48241   -1162.8639    6474.6896    11752.535     1929.191 
  113500    301.80268   -1158.0284    6534.2287    11823.752    1918.9811 
  113600    300.36879   -1162.0436    6375.1433    11630.018     1831.759 
  113700    302.68762   -1162.9527    6392.3974    11695.901    1917.6538 
  113800    299.24028   -1164.0271     6469.027    11697.809    1918.4133 
  113900    304.07404    -1163.226    6343.4707     11676.32    1845.0199 
  114000    298.30497   -1171.5054     6433.893    11635.216    1920.9074 
  114100    300.86961     -1166.51    6427.6989    11688.806    1905.4216 
  114200    300.69277   -1166.5424    6413.5708    11670.868    1877.6847 
  114300    297.70555   -1164.7462    6443.0204    11638.297    1939.5649 
  114400    303.94328   -1169.6807    6450.6541    11774.255    1958.1242 
  114500    298.76457   -1168.3966    6318.2419    11532.492    1898.5136 
  114600    298.51562   -1166.2729    6307.9083    11518.964    1834.6766 
  114700    300.28408   -1161.2918    6428.0018    11681.818    1863.8921 
  114800    300.62604   -1165.3585    6562.3075    11819.363    1935.5063 
  114900    293.79308   -1169.3561     6398.619    11505.701    1835.3982 
  115000    306.01791   -1173.1525    6353.8184    11718.269    1899.9032 
  115100    299.17613   -1167.8544    6381.3036    11604.888    1908.7025 
  115200    295.12549   -1160.6877     6394.048    11538.263    1836.4065 
  115300    297.40223   -1163.1973    6479.4468    11669.792    1868.9227 
  115400    298.51168    -1161.396    6360.7392    11576.587    1898.8462 
  115500    302.05072   -1164.4373    6395.8905    11684.303    1887.5879 
  115600    303.46832   -1163.5715    6404.9744    11724.538    1915.5391 
  115700    303.14578   -1162.6658    6444.1738    11757.752    1958.1179 
  115800    295.89427   -1163.4935    6399.9938    11557.827    1882.2534 
  115900    303.20573   -1167.7316    6378.8761     11688.67    1834.1585 
  116000    295.05644   -1166.2996    6445.2569    11582.385    1868.1617 
  116100    302.07453   -1162.8113    6530.5194    11821.067    1927.7732 
  116200    296.87454   -1159.3198    6422.4215    11605.371    1937.0241 
  116300    297.62843   -1160.9099    6385.9754     11583.44    1962.4494 
  116400    304.09468   -1162.4281    6428.7959    11762.884    1926.9084 
  116500    300.20876   -1162.5984    6485.4289     11736.33    1937.4613 
  116600    302.76914   -1161.1599    6422.8152    11729.854    1959.7777 
  116700    297.09038   -1161.1548    6473.8234    11659.549    1965.4463 
  116800    299.83402   -1164.2326    6342.7411    11584.002    1885.3752 
  116900    301.83011   -1160.0653    6473.1604    11761.232    1901.1315 
  117000    296.93251   -1166.2239    6441.3212    11618.605    1887.3845 
  117100    299.76291    -1163.869     6472.502    11712.608     1901.518 
  117200    301.59597   -1169.1376    6395.2893    11669.287    1881.3538 
  117300    297.66662   -1163.3419    6369.8682    11565.717    1834.9367 
  117400    297.69386   -1163.1795    6526.7535    11723.346    1938.7389 
  117500     301.9799   -1162.4346    6486.8932    11775.796    1967.8234 
  117600    305.30424   -1162.3132    6396.6738    11756.717    1917.1142 
  117700    301.13895   -1160.5369    6402.8457     11675.68    1989.8281 
  117800    297.76042   -1170.7977    6299.4381    11489.835    1907.4539 
  117900    305.08095   -1165.3134    6469.5631    11821.836    1989.5867 
  118000    297.31014   -1172.4348    6479.8248    11658.965    1936.0516 
  118100    306.22024   -1170.7848    6477.9535    11849.094    1932.4616 
  118200    298.68093   -1164.3138    6486.4827    11703.029    1988.3065 
  118300    301.10127   -1168.2733    6420.8013    11685.095    1953.7366 
  118400    293.70729   -1162.0033    6435.5259    11548.128    1972.0754 
  118500    300.96869   -1162.9729    6411.6822    11678.444    1936.1501 
  118600    299.12683   -1164.7517    6444.2143    11669.848    1930.3025 
  118700    305.00743   -1166.5198    6494.8184    11844.314    1887.7855 
  118800    299.42321   -1161.4473    6471.7843    11707.055    1926.5295 
  118900    299.83536   -1171.0052    6368.3371    11602.854    1945.8525 
  119000    301.59766    -1169.951    6444.3251    11717.545    1937.5067 
  119100    303.16804   -1170.4331    6446.5646    11752.851    1914.6752 
  119200    295.13106   -1165.0029    6398.0383    11538.058    1862.3692 
  119300    305.84021   -1165.5225    6429.8398    11798.124     1945.765 
  119400    299.83355    -1161.278     6452.011    11696.217    1964.9567 
  119500    302.92718   -1157.0156    6389.6109     11704.17    1907.3078 
  119600    298.46883   -1153.8453    6458.1803    11680.664      1890.92 
  119700    304.30672   -1157.7381    6406.8019     11750.11    1869.7798 
  119800    298.44879   -1165.5259    6346.4602    11556.835    1811.2803 
  119900    299.25888   -1158.8255    6417.5434    11651.925    1851.0246 
  120000    301.02467    -1167.695    6438.7859    11702.021    1911.1601 
  120100    299.63487     -1163.63    6483.8403    11721.449    1973.5531 
  120200    300.07463    -1166.694    6462.2556    11706.196    1946.2766 
  120300    300.76668   -1160.7172     6367.008    11631.709    1885.9384 
  120400    301.10105   -1156.3889    6512.9931    11789.166    1929.8485 
  120500    302.90097   -1160.9664    6473.3043    11783.352    1940.2326 
  120600    297.47978   -1158.3396    6379.7739    11576.633    1889.6052 
  120700    304.09819   -1159.7525    6414.5585    11751.397    1884.6983 
  120800    297.41739   -1163.4093    6402.1774    11592.634    1875.9476 
  120900    305.94521   -1163.0762    6449.2144    11822.188    1911.0893 
  121000    294.19737   -1164.3837    6469.5142    11590.206    1870.6495 
  121100    301.85878     -1170.04    6446.1446    11724.854    1853.2196 
  121200    300.75005   -1166.7422    6448.1347    11706.456    1882.2474 
  121300    299.06506   -1170.8964    6446.5719    11664.742    1879.5161 
  121400    303.66532   -1167.3021    6396.5596    11716.601    1913.9472 
  121500    298.63422   -1164.6077    6384.6424    11599.897    1881.9343 
  121600    300.82061   -1159.6046    6479.5292    11746.495    1966.8411 
  121700     300.5531    -1158.904    6320.6819    11582.634    1920.6167 
  121800    295.50537   -1166.9759    6401.8838    11547.927    1941.1624 
  121900    299.79619   -1164.6215    6442.9477    11683.012     1890.312 
  122000    303.61611    -1167.971    6416.9416    11735.263    1908.2937 
  122100    293.44714   -1176.1767    6397.3658    11490.237     1826.519 
  122200    299.47094   -1168.4894    6403.0521      11632.3    1878.8105 
  122300    299.91568    -1163.198    6371.2412    11615.281    1863.9217 
  122400    296.35567   -1164.0094    6449.5436    11616.718     1925.153 
  122500    303.51246     -1156.43    6483.2423     11810.89      1921.65 
  122600    297.96653   -1165.3547    6418.7241    11618.967    1893.7229 
  122700    299.51802   -1166.4016    6423.1158    11655.457    1939.7847 
  122800    302.10487   -1165.2756    6400.0782     11688.81    1870.0477 
  122900    299.64362   -1165.9425    6407.2583    11642.742    1870.9932 
  123000    292.59343   -1158.5591    6475.1256    11567.376    1906.1798 
  123100    300.34904   -1154.9005    6501.1973    11762.793    1900.9447 
  123200    306.41261   -1151.7395    6352.3113    11746.607    1841.1947 
  123300    299.61758   -1153.6612    6430.3609     11677.57    1933.8434 
  123400    297.68165   -1157.3077    6479.5589    11681.763    1893.1061 
  123500    301.29922    -1154.341    6371.0968    11653.551    1872.1455 
  123600    297.85589   -1151.9144    6458.2685    11669.588    1932.2174 
  123700    301.23293    -1156.589    6389.6411    11668.431    1894.7516 
  123800    299.42021   -1156.5988    6379.8026    11619.857     1881.262 
  123900    300.16178   -1161.2382    6461.6296    11712.887     1957.372 
  124000    303.78478   -1159.4693    6466.2014    11796.628     1930.834 
  124100    298.69666   -1153.9232    6373.9995    11601.272    1847.5893 
  124200    301.41583   -1153.4384    6387.4763    11673.325    1932.8842 
  124300    300.79878   -1153.9182    6433.1737     11705.36    1860.2903 
  124400    298.57682   -1156.4495    6434.0555    11656.242    1867.9421 
  124500    302.10045   -1156.7272       6424.8    11721.985    1919.7843 
  124600    299.59698   -1156.9502    6380.7088    11624.188    1857.0693 
  124700    303.86482   -1165.8485    6379.6939    11705.451    1880.3908 
  124800    298.01893   -1164.3087    6506.7589    11709.167    1921.9904 
  124900    302.05934   -1164.2101    6435.8947    11724.719    1855.7795 
  125000    295.82126   -1170.1365    6338.1915    11487.822    1839.3493 
  125100    303.70362   -1164.1738    6361.9145    11685.903    1875.7515 
  125200    298.27887   -1168.4317    6458.6298    11662.469    1898.8679 
  125300    297.76136   -1166.4678    6354.4089    11549.156    1831.5164 
  125400    305.17958   -1161.8812    6474.0904    11831.903    1875.5956 
  125500    299.35985   -1172.4176    6493.7433    11716.689    1938.9885 
  125600    299.69269   -1174.7324    6382.7773    11610.519    1957.9169 
  125700    299.04891   -1175.6088    6307.7633    11520.875    1871.4626 
  125800    297.94955   -1164.2615    6557.5058    11758.479    1913.5241 
  125900     303.5712   -1162.5768    6403.1778    11725.934    1905.8425 
  126000     292.0734   -1166.2611     6358.973    11432.412    1870.3308 
  126100    302.09359   -1168.6279    6330.8311    11615.969    1903.9301 
  126200    296.76928   -1165.6724    6382.4714    11556.819    1943.1081 
  126300     304.0113   -1168.7387     6507.376    11833.372    2008.7018 
  126400    298.11504   -1170.3311    6415.6925    11614.132    1916.6154 
  126500    297.92201   -1163.5171    6545.0685    11746.198    1953.6035 
  126600     303.2194   -1165.0037    6458.4929    11771.306    1888.6909 
  126700    298.68025   -1164.7469    6333.2349    11549.333    1908.9306 
  126800    297.21706   -1161.0612    6223.7254    11412.251    1827.5482 
  126900     295.7087   -1157.0254    6485.5232    11645.861    1893.4851 
  127000    300.16509   -1160.3605    6607.3822    11859.588    1917.8537 
  127100    303.44224   -1157.4024    6464.5127    11789.688    1823.5226 
  127200    299.26025   -1161.3359    6358.7484    11590.648    1825.8718 
  127300    298.09795   -1158.4795    6379.0362    11588.962    1856.1303 
  127400    303.64791   -1155.2629    6519.7238    11851.433    1841.3532 
  127500    301.73738   -1160.5134     6500.712    11786.355    1804.5358 
  127600    298.69017   -1153.0476    6471.5217    11699.531    1872.4741 
  127700    301.02448   -1159.7714    6398.5562    11669.711    1930.4743 
  127800    301.16026   -1159.5932    6314.6277    11588.861    1855.4254 
  127900    298.64174   -1158.2883    6478.6909    11700.425     1939.034 
  128000    303.01067   -1158.4975    6539.9067    11854.767    1931.2975 
  128100    296.12163   -1162.5879    6369.0142     11532.61    1841.0383 
  128200     300.7972    -1161.223    6469.8269    11734.675    1948.4692 
  128300    301.35894     -1165.87     6397.823    11670.024    1956.3333 
  128400     298.7806   -1164.4665    6433.5589    11652.081    1894.2386 
  128500    298.79942   -1159.4781    6439.0194    11662.932    1861.9697 
  128600    297.62289   -1169.8275    6379.6974    11568.126    1872.7477 
  128700     303.8045   -1168.7489    6512.9943    11834.562    1977.3249 
  128800    292.68413   -1166.7261    6365.5191     11451.54    1920.3088 
  128900    300.94193   -1167.8531    6325.4095    11586.719    1909.4853 
  129000    296.98989   -1169.0628    6460.7523    11636.423    1917.7118 
  129100    297.74053   -1166.2658    6458.4028    11652.907    1915.0119 
  129200    300.30154   -1169.7418    6398.2146    11643.955    1906.8928 
  129300    299.63059   -1165.3433    6375.4276    11611.232    1971.8716 
  129400    298.38483   -1169.2372    6394.8607    11600.158     1937.668 
  129500    300.16514   -1167.5035    6433.1483    11678.212    1884.4288 
  129600    304.02565   -1168.2632    6428.5989    11755.377    1949.4642 
  129700    296.68062   -1172.2095    6431.2747    11597.191    1977.2726 
  129800    299.16125    -1171.061    6513.9519    11734.012    1987.8862 
  129900    297.74418   -1169.3133    6431.9733    11623.508    1939.9785 
  130000    301.34891   -1171.2859    6310.1532    11576.724    1893.0745 
  130100    299.27411   -1163.5613    6473.0234    11702.994    1972.9321 
  130200    298.99176   -1159.5449     6441.504    11669.459    1931.6364 
  130300    303.62039   -1162.1911    6409.0844    11733.277    1924.5944 
  130400    301.71976   -1165.1702    6386.0077    11666.617    1910.6275 
  130500    295.43752   -1162.8477    6491.5431    11640.265     1898.261 
  130600    302.12172   -1165.6206     6492.025    11780.771    1960.0979 
  130700    300.31736   -1160.6293    6348.9247    11604.115    1932.1519 
  130800    299.98408   -1159.5352    6407.8802    11657.045    1919.4495 
  130900    303.08986   -1159.7022    6494.2327     11809.58    1949.7713 
  131000    299.46595   -1161.0868    6410.0764     11646.62    1924.3195 
  131100    299.98024   -1158.5865    6333.6982    11583.729    1855.7884 
  131200    296.71409   -1158.1139    6445.9278    11626.655    1913.4152 
  131300    303.41095   -1161.8413    6422.4661    11742.534    1987.0697 
  131400    302.05975   -1165.9564    6417.4593    11704.546    1925.6287 
  131500    303.14215   -1158.8739    6529.9274     11847.22    1897.5603 
  131600    300.80703    -1161.999    6524.9349    11789.216    1899.9854 
  131700     300.8604   -1163.1246    6331.5032    11595.799    1886.4854 
  131800    302.79682   -1166.5345    6397.0024    11699.257    1943.7445 
  131900      299.847   -1159.9354    6426.8309    11672.667    2027.4292 
  132000    300.95955   -1161.9989    6410.6512    11678.191    1952.6537 
  132100    296.59418   -1162.6038    6511.5677    11685.243    1956.8406 
  132200    304.24343   -1162.9173     6340.885    11677.662    1845.4822 
  132300    296.86417    -1167.581    6376.5612    11551.028     1898.262 
  132400    298.52251   -1164.4875    6563.6778    11776.666     1890.713 
  132500    300.41353   -1166.7539    6496.6171    11747.737    1896.0906 
  132600    299.04348   -1168.1838     6321.153    11541.574    1899.0095 
  132700    301.05411   -1173.0994    6325.4192    11583.879    1890.9714 
  132800    299.03773    -1165.438    6473.2388    11696.283    1883.8491 
  132900    301.27352   -1160.1309    6514.3172    11790.433    1949.3804 
  133000    298.59828   -1166.0197    6507.2526    11720.327    2020.9599 
  133100    297.91428   -1165.2016    6237.0922    11436.372    1807.7771 
  133200    298.28162   -1162.6054    6440.1652    11649.889    1906.8304 
  133300    297.29331    -1169.058     6490.419    11672.576    1906.2531 
  133400    302.19626   -1168.3583    6345.2736    11632.875    1798.7058 
  133500    297.88604   -1170.0476    6391.4182    11585.249    1807.3028 
  133600     297.1605   -1170.8451    6406.6597    11584.193    1803.0258 
  133700    297.29615   -1167.9735    6411.9736    11595.276    1803.1392 
  133800    299.13755   -1163.6604    6460.9773    11687.932    1884.2986 
  133900    303.68471   -1162.9785    6420.5042    11745.284    1941.3074 
  134000    293.99734   -1164.4561    6364.1374    11480.483    1886.3149 
  134100    306.15084   -1153.4617    6405.0505    11792.032    1968.6374 
  134200    298.51515    -1160.347    6402.9477    11619.919    1903.7252 
  134300    299.27827   -1161.6764    6450.0858    11682.031    1858.6968 
  134400    300.04813   -1164.8138    6384.7393    11629.994    1877.4724 
  134500    293.56499   -1160.3972    6403.4314      11514.6    1911.7891 
  134600    304.83038   -1158.7862    6526.8318    11880.279    1930.8374 
  134700    300.97537   -1161.3254    6398.9775    11667.529    1824.0959 
  134800    296.93926   -1164.3435    6393.6757    11572.984    1881.1269 
  134900    299.06369   -1156.1419    6419.8084    11652.704    1909.8253 
  135000    303.62268   -1158.1176    6455.4012    11783.716    1996.7907 
  135100    296.03567   -1158.7853     6340.416    11505.979    1932.8693 
  135200      295.947   -1161.9151    6390.9249    11551.463    1897.3291 
  135300    303.39695   -1158.7652    6403.7783    11726.623    1910.9762 
  135400    300.65299   -1167.6822    6532.4181    11787.726      1949.99 
  135500    297.56794   -1165.9164    6506.6956    11697.862    1941.6775 
  135600    301.27688   -1172.6991    6303.2152    11566.834    1900.3117 
  135700    301.58542   -1171.1233    6475.3085    11747.095     1915.102 
  135800    296.91726   -1166.5642    6595.0678    11771.685    1904.8696 
  135900    302.26326   -1167.2146    6361.9078    11652.084    1895.9331 
  136000    296.34719   -1163.4079     6345.237    11512.832     1946.091 
  136100    305.63021   -1165.0499     6463.303    11827.574    1926.4718 
  136200    297.86992   -1167.9381     6452.936    11648.532    1857.6915 
  136300    302.70015   -1169.5781    6522.2992    11819.445    1956.3509 
  136400    295.10832   -1172.8063    6319.6389    11451.369    1822.8681 
  136500    300.30398   -1169.2102    6398.2602    11644.584    1916.2361 
  136600    302.35951   -1170.3131    6423.3592    11712.493    1914.8237 
  136700     303.7937   -1161.7541    6561.5272    11889.859    1929.2029 
  136800    297.73443   -1162.8329    6477.8288    11675.635    1964.1028 
  136900    302.80853   -1165.9027    6355.4475    11658.584    1997.3873 
  137000    297.44667    -1162.802    6356.0748    11547.764    1898.9266 
  137100    303.12797    -1167.601    6401.0301    11709.293    1852.5888 
  137200    297.99106    -1162.462    6484.9573    11688.617    1868.0118 
  137300    296.22272   -1160.7457    6439.9919     11607.59    1830.4227 
  137400    303.36226   -1164.9452    6498.0065     11813.93    1918.4642 
  137500    299.98471   -1162.6937    6385.2686    11631.288    1914.0315 
  137600    295.75254   -1161.5526    6383.1389    11539.886    1922.4462 
  137700    302.96964   -1163.3192    6495.6365    11804.799    1946.2047 
  137800     295.0617   -1152.7462    6533.5953     11684.39    1896.1124 
  137900    299.18739   -1154.3646    6381.4671    11618.782       1874.3 
  138000    302.58064   -1159.9655    6445.8032    11750.009    1878.5439 
  138100    294.86255   -1155.2359    6384.7017    11528.752     1774.646 
  138200    301.31375    -1161.652    6509.5229    11784.977    1876.3814 
  138300    295.46797   -1161.4352    6475.8633    11626.648    1858.8529 
  138400    302.12749   -1159.7055    6331.5766    11626.361    1809.2127 
  138500    296.25105   -1158.9868    6537.4146    11707.377    1947.6648 
  138600    298.67208   -1158.8743    6478.3071    11700.104    1869.5974 
  138700    302.23883   -1158.0207    6366.2501    11665.098    1823.0444 
  138800    297.93649   -1158.0524    6353.5269     11560.43    1914.5826 
  138900    299.99221   -1154.3869    6356.7273    11611.214    1940.6505 
  139000    298.67746   -1162.7034    6473.9649    11692.047    1917.0241 
  139100    301.57469    -1160.807    6496.7757    11778.649    1893.7402 
  139200    298.73257    -1167.283    6381.0123    11595.692    1862.6679 
  139300    303.19551   -1169.7368    6443.1922    11750.762    1808.7334 
  139400    301.87051   -1165.0186    6550.6837    11834.665    1849.7258 
  139500    296.96971   -1164.8392    6445.4846    11624.948     1836.367 
  139600    298.62794   -1171.3972    6325.3919    11533.722    1838.4439 
  139700    298.81352   -1167.8886    6346.5187    11562.322    1849.6583 
  139800    304.45369   -1160.9267    6446.7457    11790.005    1931.1703 
  139900    299.88092   -1166.2559     6470.963    11711.203     1884.762 
  140000    297.67198   -1162.2066     6424.613    11621.711    1893.9407 
  140100    304.70116   -1170.9693    6351.8977    11690.401    1888.4365 
  140200    299.07199   -1168.8353    6377.1687    11597.548    1816.6468 
  140300    294.17306   -1168.9803    6515.2869    11630.863     1859.511 
  140400    297.97878   -1174.2553    6446.6693    11638.273    1899.1371 
  140500    302.16373   -1173.5873    6445.9937    11727.671    1900.4001 
  140600    298.81899   -1169.1135    6380.1469    11594.843    1863.9643 
  140700    306.52583   -1165.1542    6410.8417    11794.141    1962.4499 
  140800    301.11295   -1161.1266    6520.7461    11792.436    1929.9015 
  140900     304.8012   -1168.9369    6451.8987    11794.572    1885.7724 
  141000    299.83888   -1169.8689    6381.7024    11617.431    1889.2169 
  141100    294.34886   -1161.5306     6448.977    11575.758    1879.9428 
  141200    302.03449   -1160.4723    6430.8478    11722.879    1862.9446 
  141300    301.70165   -1166.1597    6458.8242    11738.057    1914.7885 
  141400    299.71198   -1154.8632    6438.6449    11686.668    1825.9642 
  141500     300.3112   -1161.4066    6462.2657    11716.547    1845.6108 
  141600     299.8766   -1156.7228    6455.3969    11705.078    1896.4525 
  141700    299.16286   -1157.5056    6383.4307    11617.081    1924.5305 
  141800    298.20984    -1162.858    6349.6704    11557.608    1858.5007 
  141900    295.39696   -1163.2207    6419.5602    11567.042    1918.5615 
  142000    300.48607   -1155.0477       6378.9    11643.276    1881.6269 
  142100    301.30184   -1162.9304    6468.7075    11742.629    1827.4535 
  142200    296.23638   -1158.0182    6511.6298    11682.247    1848.9833 
  142300    299.15627   -1158.9589    6330.7766    11562.832    1842.0025 
  142400    303.13083   -1161.6739    6473.4248    11787.676    1925.8356 
  142500    299.69969   -1161.9948    6429.0086    11669.638    1925.7533 
  142600    302.63699   -1155.9934    6502.5122    11811.894    1995.3279 
  142700     299.3897   -1156.3162    6427.7101    11667.396    1928.5382 
  142800     301.9683   -1157.1149    6473.3811    11767.356    1922.2351 
  142900    298.62018   -1164.0069      6316.74    11532.295    1869.2986 
  143000     298.7664   -1157.3705     6404.015     11629.33    1937.8024 
  143100    299.98985    -1166.023    6502.6279    11745.428    1910.4366 
  143200    301.16794    -1169.142    6432.7229    11697.572    1841.9429 
  143300    294.11634   -1169.2468    6379.8438    11493.941     1886.071 
  143400    300.84827   -1167.0461    6374.8768    11634.992    1895.0295 
  143500    299.98149   -1161.5004     6401.926     11649.07    1877.9429 
  143600    302.82996   -1166.9164    6399.6017    11702.183    1922.4276 
  143700    299.55769   -1159.1739    6388.5263    11628.943    1878.0693 
  143800    300.83544   -1155.9403    6485.0239    11755.971    1870.3352 
  143900      303.056   -1161.7453    6441.0584     11753.64    1993.9159 
  144000    300.06344   -1165.3417    6335.1898    11580.243    1933.8673 
  144100    296.64324    -1169.093    6442.1252     11610.36     1850.155 
  144200    302.59519    -1169.147    6490.6439    11785.979    1908.9029 
  144300    296.12687     -1167.74    6542.6788    11701.235    1913.1876 
  144400    300.93099   -1164.4036    6381.2642     11645.79    1854.4452 
  144500    296.13245   -1159.4697    6321.3911    11488.337    1873.1772 
  144600    301.53055   -1160.9016    6422.5785    11703.414    1952.7521 
  144700    295.78301   -1153.8921    6441.7876    11606.846    1884.1454 
  144800     295.6271    -1157.325    6497.7344    11656.029    1931.7754 
  144900    303.42443   -1160.6423      6298.22    11619.775      1859.46 
  145000    297.39334   -1157.7972    6381.8619    11577.417    1892.6769 
  145100    299.39732   -1161.3191    6432.4756    11667.321    1836.8039 
  145200    299.35593   -1160.7151    6460.5649     11695.13    1891.1219 
  145300    297.52718   -1164.2964    6388.0635    11579.979    1857.7407 
  145400    297.90259   -1162.6221    6389.2658    11590.876    1878.4919 
  145500    297.63345   -1153.9536    6421.1911    11625.719    1908.0733 
  145600    304.26455   -1155.0757     6444.419    11789.489    1943.7029 
  145700    299.10332   -1157.6755    6434.7694    11666.977      1915.65 
  145800    304.42459   -1155.5142    6492.8717    11840.922    1968.6007 
  145900    299.13384   -1159.4218    6344.2505    11575.364    1879.9598 
  146000    293.44151   -1162.6488    6508.6639    11614.943    1917.0025 
  146100    298.03663   -1169.1835    6488.7646    11686.676    1960.0717 
  146200    301.51759    -1164.527    6499.8386    11776.772    1922.4766 
  146300    299.59946   -1163.0903     6402.656    11640.048    1847.0225 
  146400    300.45129   -1168.5004    6332.5964    11582.777    1788.9553 
  146500    299.84486   -1163.5202    6538.0435    11780.249     1926.567 
  146600    303.54276   -1165.7598    6485.7492    11804.715    1932.5142 
  146700    298.96794   -1160.2738    6407.1388    11633.856    1940.0274 
  146800    301.34665   -1157.9624    6434.3951    11714.241    2015.7959 
  146900    299.14415   -1160.7001    6449.8152    11679.871    1967.5062 
  147000    300.82108   -1158.7339    6382.2982    11650.145    1933.7775 
  147100     298.4405   -1165.8674    6356.2719    11566.128    1866.7336 
  147200    298.81993   -1171.9709     6472.952     11684.81    1913.3287 
  147300    300.68721   -1169.7003     6426.714    11680.735    1860.9094 
  147400    299.54118   -1163.4705    6462.0384    11697.806    1945.2926 
  147500    300.43892   -1165.2456    6306.8155    11559.986    1895.7275 
  147600    299.71168   -1157.0703    6493.9424    11739.752    1936.5947 
  147700    303.33406   -1155.3926    6429.8779    11754.752    1936.3993 
  147800    298.57545   -1150.4064    6399.3147    11627.515     1887.204 
  147900    299.79133   -1162.3621    6437.6932    11679.913    1943.3627 
  148000    300.45027   -1160.5845    6346.8813    11604.956    1831.9786 
  148100    294.70118   -1159.4255    6518.5616    11654.975    1897.5845 
  148200     301.7699   -1164.0765     6449.502    11732.277    1836.6612 
  148300    296.61459   -1163.0477    6450.5546    11624.222    1890.0397 
  148400    301.91132   -1159.2251    6318.4044    11609.051     1846.658 
  148500    299.90936     -1154.42     6497.791    11750.474    1875.0225 
  148600    297.05326   -1157.3258    6550.4105    11739.172    1854.5922 
  148700    299.16698    -1151.061    6433.0056    11673.188    1879.8624 
  148800    301.80774   -1154.3766    6427.3039    11720.586    1944.6357 
  148900    305.45697   -1152.8195    6386.8613    11759.661     1934.027 
  149000    301.94624   -1157.2579     6464.269    11757.629    1886.9963 
  149100    298.14799   -1155.2343    6497.3568    11711.597    1928.1322 
  149200    307.27821   -1160.3435    6428.2259     11832.41     1884.027 
  149300    300.92389    -1165.092     6447.488    11711.173     1859.964 
  149400    295.36821   -1161.9903    6359.6923    11507.791    1857.5716 
  149500    302.62317   -1161.6921    6405.3684    11708.756    1910.1245 
  149600    294.84925   -1162.8338     6412.004    11548.172    1831.8232 
  149700    301.62495   -1157.8652    6498.2908     11784.18     1873.669 
  149800    297.81698   -1161.6755    6475.7365    11676.464    1882.1068 
  149900    300.43585   -1160.9454    6348.2893    11605.695    1849.5942 
  150000    301.06365   -1164.0284    6420.7534    11688.488    1867.3757 
  150100    300.45941   -1163.6421    6542.2649    11797.477    1916.4568 
  150200    303.60489   -1167.7614    6403.6851    11721.976    1819.2643 
  150300    298.30501   -1162.0534    6489.3425    11700.118      1883.33 
  150400    302.36938   -1173.9647    6395.6483    11681.342    1893.9721 
  150500    300.98457   -1167.7917    6449.7696    11712.051    1922.9591 
  150600    301.97897   -1161.7904    6446.2616    11735.788    1941.0927 
  150700    298.46721   -1163.4759    6423.3595    11636.178    1924.8512 
  150800    297.34274   -1158.7143    6383.6013    11577.158    1865.7821 
  150900    303.71225   -1166.8009      6400.17    11721.715    1858.2605 
  151000    299.44232   -1160.9172    6397.5663    11633.775    1867.3461 
  151100    298.86896   -1162.9482    6431.7589    11653.687    1870.7799 
  151200    301.18835   -1167.3199      6451.85    11718.957    1918.3134 
  151300     298.4001   -1168.6462    6314.1436    11520.358    1874.5662 
  151400    299.32164   -1167.3698    6373.7681    11600.946    1835.9362 
  151500    303.57821   -1165.1644    6477.4473    11797.766    1848.3957 
  151600    297.11318   -1158.1573     6394.318    11583.528    1815.2894 
  151700    297.10621    -1159.288    6430.0236    11617.954    1867.4858 
  151800    300.64467   -1159.0812    6320.7514    11584.482    1869.9649 
  151900     292.4184   -1151.0137    6405.6049    11501.662    1906.1118 
  152000    304.49088   -1157.6249    6456.6771    11804.033    1883.2189 
  152100    298.93148   -1159.3166    6543.2529    11770.149    1900.1532 
  152200    303.74432   -1162.9989     6381.423    11707.455     1857.311 
  152300    297.84866   -1162.2264    6442.9553    11643.809    1866.0296 
  152400    300.74566   -1160.9014    6447.6872    11711.755    1854.6072 
  152500    299.09014   -1164.0091    6403.5186    11629.112    1878.9671 
  152600    298.15908   -1161.6376    6356.3574    11564.431    1855.7422 
  152700    303.33388   -1160.6665    6464.6909    11784.287    1957.4786 
  152800    302.50657   -1159.8857     6374.425    11677.128    1908.7921 
  152900     295.6605   -1149.5507     6392.687    11559.469    1823.6093 
  153000    301.88012   -1154.6682    6379.5031     11674.04    1915.1976 
  153100     298.7075   -1160.5593    6516.5737    11737.442    1942.0157 
  153200    296.97108   -1165.7488    6453.7166    11632.299    1861.2921 
  153300    303.05105   -1162.0529    6411.9097    11724.077    1910.8566 
  153400    296.92683   -1163.9098    6403.8776    11583.354    1932.1242 
  153500    298.43726   -1162.4777    6394.4206    11607.597    1890.0846 
  153600    301.68843   -1158.9683    6521.5555    11807.698    1958.3608 
  153700    294.79873   -1158.0215    6441.1383    11581.039    1877.3471 
  153800    301.99392   -1161.5311    6371.7393    11661.845    1921.0319 
  153900    302.47193   -1156.6076    6406.4491     11711.69    2000.5589 
  154000    297.07502   -1161.3091    6362.6436    11547.886    1888.3772 
  154100    297.32467   -1161.2735    6514.8474    11705.459    1877.5193 
  154200    301.45261   -1162.2397    6494.6211    11772.454    1895.0384 
  154300    299.39543   -1161.1701    6375.1633    11610.117    1820.7816 
  154400    298.82956   -1162.4386    6383.5451    11605.142    1808.3636 
  154500    304.23599   -1167.8794    6416.8091    11748.465    1888.3828 
  154600    300.78391    -1163.193    6452.4558    11715.049    1948.6688 
  154700    301.49996   -1156.5004    6376.6314    11661.215    1884.6885 
  154800    296.26807   -1161.0564    6465.4437      11633.7    1932.4801 
  154900    298.12073   -1157.4123    6457.6843    11669.164    1918.2732 
  155000     302.0755   -1163.5152    6410.7355      11700.6    1912.6669 
  155100    298.45691   -1163.1432    6389.0127    11601.943    1944.5816 
  155200    301.91942   -1162.4233    6481.1478     11768.77    1941.4091 
  155300    296.91706   -1163.2998       6422.5    11602.378    1882.0668 
  155400    305.19035   -1164.4366     6423.862    11779.349    1904.9579 
  155500    301.75992   -1162.9013    6488.1026    11771.839     1937.674 
  155600    292.12025   -1158.4467    6433.7196    11515.974    1916.7462 
  155700    303.18712   -1163.2066    6371.0143    11684.935    1895.4912 
  155800    301.48949   -1160.7441    6544.9529    11825.069    1941.3703 
  155900     300.7862   -1162.1813    6388.7608    11652.415    1853.0653 
  156000    300.36893   -1161.4332    6378.7778    11634.266    1851.6462 
  156100    302.12868   -1164.4285    6505.6476    11795.735    1885.9543 
  156200    296.68551   -1164.3551    6308.9188    11482.794    1774.4737 
  156300    301.43067   -1167.5979    6468.0557    11740.062    1916.3774 
  156400     297.3856   -1164.7315    6425.7473    11614.203    1881.1269 
  156500    300.66549   -1159.7979     6325.591     11589.05    1831.6595 
  156600    308.26257   -1161.8186    6438.0308    11861.769     1898.508 
  156700    297.27668   -1163.5856    6507.1777    11694.452     1962.489 
  156800    302.98835    -1161.636    6391.5796    11702.825    1962.8627 
  156900    297.65342   -1167.7615    6302.6341    11493.781    1858.2111 
  157000    303.95564   -1164.0456     6493.446    11822.946    1907.8378 
  157100    302.05347    -1153.847    6508.7765    11807.838    1898.2173 
  157200    296.37327   -1161.8546    6456.1622    11625.868    1874.5107 
  157300    302.87629   -1161.3202    6329.9791    11639.146    1865.3536 
  157400    297.16843   -1160.0915    6384.4641     11572.92    1860.0975 
  157500    303.48922   -1159.4795    6513.9452    11838.047    1950.1137 
  157600    298.21222   -1165.4863    6386.4075    11591.768    1859.7577 
  157700    298.85951   -1165.1321    6481.9184    11701.461    1905.8384 
  157800    295.36223   -1162.6578    6445.6383    11592.941    1921.3311 
  157900    302.97212    -1152.936    6379.9221     11699.52    1945.2765 
  158000    299.15591   -1156.4557    6433.5927    11668.144    1870.0466 
  158100    300.47425   -1160.4732    6456.0833    11714.782    1946.4689 
  158200    299.62146   -1166.0718    6390.4389     11625.32    1900.5269 
  158300    301.13637   -1160.3867    6442.3616    11715.291    1911.2038 
  158400    302.61777   -1167.6696    6455.3914    11752.686    1928.6883 
  158500    296.77889   -1166.1167    6395.6559    11569.765     1913.994 
  158600    305.17427   -1169.6597    6394.7475    11744.668    1896.4375 
  158700    296.26244   -1164.1486    6523.5735    11688.617    1887.2395 
  158800    301.59129   -1162.7115    6479.8041    11760.128    1934.5581 
  158900    296.53277   -1161.1311    6336.7289    11510.565     1889.246 
  159000    298.52587   -1166.0008    6355.0666    11566.613    1900.9179 
  159100    304.46137   -1169.6807    6482.1902     11816.86     1927.547 
  159200    303.21199   -1168.2343    6473.1665    11782.591    1915.1428 
  159300    296.68977   -1173.6475    6458.6247    11623.299    1873.2868 
  159400    305.54972   -1167.4996     6426.909     11787.01    1930.2918 
  159500    299.61895   -1169.0578    6447.1161    11678.957    1937.7206 
  159600    296.77407   -1170.7729    6380.0112    11549.361    1858.3942 
  159700    300.71311   -1168.7108    6405.6814    11661.245    1913.7371 
  159800    300.31286   -1162.0692    6381.8074    11635.462    1933.2489 
  159900    298.05006   -1164.8176    6519.5342    11722.099     1997.289 
  160000    301.65099    -1165.174    6399.3308    11678.467    1897.6627 
  160100    299.07725   -1166.4941    6311.3239    11534.156    1955.3326 
  160200    296.45018   -1167.1935    6412.9882    11578.998    1953.2388 
  160300    304.39472   -1162.1973    6493.7864    11834.515    1886.1034 
  160400    297.28118   -1162.6544     6474.495    11662.797    1886.7087 
  160500    301.61593   -1161.2741    6359.7104    11641.998    1905.8585 
  160600    301.51359   -1161.9969    6381.7286    11661.107    1869.4564 
  160700     302.0095   -1160.8514    6514.6738    11805.792    1911.9873 
  160800    298.60263   -1155.7354    6425.7247    11649.176    1984.8596 
  160900    304.62077   -1159.6968    6461.7596    11809.818    1966.4854 
  161000    298.94857   -1158.3417    6486.7783    11715.014    1930.6427 
  161100      302.537   -1159.8152    6401.9512    11705.375    1937.8492 
  161200    297.32496   -1159.4329    6367.9378    11560.396     1947.542 
  161300    298.81715   -1159.5604    6477.6331    11701.843    1960.8424 
  161400    301.28647   -1162.9109    6494.5119    11768.124    1934.4193 
  161500    301.30293   -1153.4907    6432.8221    11716.206    1916.6094 
  161600    303.85729   -1160.8812    6397.0446    11727.608    1856.4805 
  161700     303.3721   -1159.9924    6468.9891    11790.076     1917.337 
  161800    301.42541   -1161.0863    6453.4648     11731.87    1962.7798 
  161900     296.3707   -1166.0167    6342.1347    11507.623    1843.0022 
  162000       300.28   -1165.2695    6585.3109    11835.063    1952.8517 
  162100    301.23735   -1166.1884    6432.0965    11701.382    1870.0664 
  162200    299.98035   -1162.6672     6382.681    11628.634    1892.0801 
  162300    296.74837    -1164.994    6427.9429    11602.523    1940.6485 
  162400    300.90299   -1161.7308    6330.0005      11596.6    1931.7531 
  162500    303.22525   -1167.7726    6380.5915    11690.761    1918.6711 
  162600    299.55508   -1170.1234    6429.2614    11658.673     1922.158 
  162700    297.03835   -1168.7904    6535.4672    11712.445    1948.7997 
  162800    300.78992   -1175.6911     6391.422    11641.646    1883.7697 
  162900    299.96593   -1172.2569    6433.0381    11669.093    1941.8398 
  163000    298.45881   -1167.8792    6472.2363    11680.472    1944.5262 
  163100    300.87842   -1172.5692    6386.0218    11641.258    1853.6688 
  163200    299.82312   -1161.0627    6424.3156    11668.514    1923.4116 
  163300    296.70958   -1165.9828    6355.1342    11527.896      1875.93 
  163400    303.04006   -1170.8355    6364.8385    11667.989    1898.8718 
  163500    297.47172   -1160.6494    6487.0444    11681.422    1951.9657 
  163600     298.6699   -1166.1317    6387.0082    11601.501    1870.2467 
  163700    307.65602   -1170.0949     6457.161    11859.665    1905.9337 
  163800    293.59961   -1159.5751    6407.8033    11520.533    1886.5579 
  163900    301.26715   -1166.7849    6326.2247     11595.55     1834.286 
  164000    298.27259   -1154.4242    6422.6846    11640.397    1828.9554 
  164100    297.09615   -1158.8917    6514.5311    11702.643    1883.3663 
  164200    299.08856   -1157.7862    6344.4354    11576.217    1930.0824 
  164300    301.11517   -1156.9216    6306.5497    11582.492    1831.8547 
  164400    300.77814   -1154.2722    6535.7235    11807.115    1893.9591 
  164500     297.5112   -1157.5431    6416.4401    11614.767    1820.5766 
  164600    301.86349   -1154.7886     6357.635    11651.697    1795.2877 
  164700    298.83548   -1150.0542    6505.9666    11740.074    1923.7796 
  164800    299.18445   -1152.6494    6388.2723     11627.24    1914.3305 
  164900    299.78939    -1158.744    6421.5237     11667.32    1896.0089 
  165000    300.46317   -1152.9186    6461.1187    11727.135    1857.1195 
  165100    298.85806   -1155.9115    6503.1089    11731.841    1878.8145 
  165200     303.7022   -1158.9035     6345.861    11675.089    1867.8639 
  165300    298.17524   -1158.1431    6400.8885    11612.802    1839.8113 
  165400    301.70236   -1153.5035    6452.8907    11744.795     1875.105 
  165500    302.83679   -1159.4095    6355.5153    11665.749    1823.0319 
  165600     297.4951   -1163.0078    6454.6821      11647.2    1843.4277 
  165700    296.13952   -1168.9166    6505.7566    11663.406    1855.6996 
  165800    302.19363   -1165.5199    6340.1691    11630.552    1854.6197 
  165900    296.92673   -1163.6662    6322.6959    11502.414    1847.9039 
  166000    301.75816    -1164.852    6486.3705    11768.119     1870.379 
  166100     295.9671   -1167.8019    6591.9278    11747.009    1944.9021 
  166200    297.60521    -1171.053    6240.3889    11427.214    1842.2832 
  166300    299.17895   -1164.1518    6427.7568    11655.104    1859.3991 
  166400    295.87889   -1167.2055    6430.7445    11584.537    1833.3816 
  166500    303.29977   -1165.2223       6431.2    11745.512     1908.144 
  166600    300.09748    -1165.947    6396.9243      11642.1    1902.9136 
  166700     301.9938   -1174.0717    6267.7722    11545.335    1894.3427 
  166800    300.07108    -1172.198    6493.0502     11731.41    1991.1237 
  166900    300.94469   -1171.0712    6512.9675    11771.118    1939.1435 
  167000    296.45972   -1164.4092    6396.5192    11565.517    1903.6461 
  167100    299.56292   -1167.4501    6363.1435    11595.396    1891.2063 
  167200    309.36946   -1161.7255    6431.1933    11878.671    1935.2178 
  167300     298.1242   -1166.5736    6406.2819    11608.674    1901.5632 
  167400    299.37869   -1167.0365    6418.8722    11647.602    1863.3405 
  167500    298.81186   -1168.5342    6521.1004    11736.223     1949.644 
  167600    297.95905   -1166.4306    6415.6667    11614.674    1878.2834 
  167700    298.24198   -1158.5155    6446.2826    11659.249     1908.651 
  167800    300.52461   -1160.0596    6405.2152    11665.403    1932.2049 
  167900    296.65352   -1160.1129    6437.0909    11614.525    1954.3634 
  168000    300.05182   -1159.4806    6349.9526    11600.619    1877.1581 
  168100    297.14373   -1155.6353    6457.8583    11650.243    1983.1634 
  168200    300.46175   -1161.9932    6351.8677    11608.779    1873.2543 
  168300     300.1391   -1154.3024    6519.9959    11777.705    1846.9215 
  168400    302.07249   -1160.9297    6503.8409    11796.226    1892.6716 
  168500    301.31976   -1161.6385    6402.0457    11677.642    1885.3422 
  168600    302.23561   -1159.5093    6389.9249    11687.216    1849.3287 
  168700    295.32231   -1163.5827    6440.5386    11586.064    1958.0322 
  168800    300.29639    -1157.316    6312.2776    11570.333    1905.4192 
  168900    301.64047   -1159.5982    6444.7465    11729.234    1916.7617 
  169000    295.29681   -1158.5251    6412.6551    11562.693    1924.4728 
  169100    303.44766   -1165.2537    6275.2418    11592.682    1940.3743 
  169200    296.72964   -1169.4831    6450.7762    11620.467    1959.7962 
  169300    304.67292   -1171.9854    6438.2108    11775.095    1904.9748 
  169400    298.50129   -1165.4759    6486.6272    11698.173    1923.8152 
  169500    296.17007   -1168.9079    6445.9311    11604.242     1920.817 
  169600    297.06694   -1168.0805    6356.6663    11534.965    1892.8892 
  169700    301.18271   -1170.3778    6418.2377    11682.167    1969.2645 
  169800    298.29317   -1167.6656    6376.7462    11581.657    1907.8257 
  169900    304.75163   -1172.0921    6384.0073    11722.466    1866.8463 
  170000    298.96154   -1166.4994    6501.5454    11721.901    1951.7599 
  170100    299.66318   -1172.0883    6326.9615    11556.717     1875.624 
  170200    298.64454      -1172.4    6471.5482    11679.231    1934.6575 
  170300    303.68224    -1173.067    6463.7338    11778.372     1937.567 
  170400    300.44308   -1169.4971    6314.5604    11563.569    1884.4939 
  170500    301.01537   -1164.0593    6357.1298    11623.802    1907.9711 
  170600    303.45326   -1166.6735    6418.9316    11735.071    1933.5216 
  170700    302.10854   -1166.6191    6487.0571    11774.523    1981.5336 
  170800    297.58792   -1160.4871    6319.0439    11516.066      1923.09 
  170900    300.22101    -1160.484    6374.4363    11627.714    1932.5714 
  171000    298.74052   -1159.2563    6498.7543    11721.631     1934.146 
  171100    301.37262   -1159.5739    6433.1353    11711.925    1933.5474 
  171200    302.05379   -1163.5489    6412.8882    11702.255    1946.8355 
  171300    298.12469   -1165.9695    6435.1756    11638.183    1939.3431 
  171400    302.68778   -1160.1279    6511.3673    11817.699     1923.034 
  171500     300.6266   -1161.0763    6520.9759    11782.326    1943.6398 
  171600    308.67355   -1166.8853    6406.9932    11834.445    1949.4233 
  171700    300.27305   -1164.8536    6419.9068    11669.926    1940.0798 
  171800     299.6931   -1157.9008    6401.6202    11646.203    1945.1256 
  171900    301.82547   -1158.7493    6367.9722    11657.261     1910.857 
  172000    297.15922    -1161.251    6424.7338    11611.834    1873.0963 
  172100    300.03821   -1168.3032    6446.1902    11687.743    1922.5335 
  172200    295.76376   -1162.9604    6408.3508    11563.929    1923.5081 
  172300     301.3642   -1162.8931      6412.75    11688.041    1928.8963 
  172400    297.99501   -1166.5633    6401.3905    11601.033    1940.1007 
  172500     303.9229   -1171.9236    6346.4894    11667.412    1900.9222 
  172600    304.21483   -1170.6816    6418.0772    11746.479    1884.4733 
  172700    300.79424   -1168.1122    6404.4643    11662.359      1919.58 
  172800    303.14164   -1163.6681    6402.3553    11714.843    1950.2045 
  172900    299.55406   -1169.0816    6392.1065    11622.538    1969.2057 
  173000    295.26775   -1167.1556    6372.4436     11513.23    1943.6279 
  173100    304.65087    -1167.336    6497.6022    11838.665    2041.3807 
  173200    295.64961   -1168.5203    6398.1473    11545.727    1964.1011 
  173300    301.07154    -1175.431    6392.6949    11649.195    1950.3446 
  173400    302.96287   -1171.9428    6387.8506    11688.245     1936.861 
  173500    298.47837   -1173.3517    6433.9557    11637.136    1909.6975 
  173600    305.55099   -1160.5123    6488.8374    11855.953    1917.5229 
  173700    296.99849   -1161.2537    6354.9747    11538.638    1902.3625 
  173800    301.69811     -1164.56    6368.2451    11649.002    1947.8453 
  173900    301.56529   -1164.5556    6520.4874    11798.411    1994.9622 
  174000    297.35179   -1161.4305    6397.5325    11588.567    1892.2801 
  174100    298.55336   -1166.6244    6328.7776    11540.288     1913.618 
  174200    303.55878   -1160.4154    6499.6935    11824.346    1941.9608 
  174300    302.25812   -1157.3004    6491.3914    11791.372    1919.8217 
  174400    296.19763    -1164.088    6428.5506     11592.27    1890.1455 
  174500    302.86498   -1161.3301    6396.3241     11705.24    1865.9162 
  174600    299.81905   -1157.0495    6381.4812    11629.606    1831.3247 
  174700    300.64189   -1157.8688    6490.3628    11755.247    1895.4788 
  174800    297.30663    -1151.671    6512.6286    11712.458    1915.7023 
  174900    299.38276   -1160.4049    6336.7165    11572.165    1902.5562 
  175000    299.81197   -1159.8264    6326.2164    11571.413    1933.6768 
  175100    298.87114   -1155.6744    6483.8956    11713.145    1966.9242 
  175200     301.0814   -1161.8701    6378.1547    11648.427    1906.5361 
  175300    298.25407   -1156.8473    6520.4909    11735.384    1939.4809 
  175400    303.83746   -1159.9111    6509.5241    11840.634    1964.8599 
  175500     298.9678   -1164.4451    6327.0292    11549.572    1906.9315 
  175600     304.1319    -1164.717    6360.2237    11692.818    1887.6763 
  175700    300.21267   -1169.9696    6501.8253    11745.439    1959.7474 
  175800    301.39955   -1169.6839    6473.4765    11742.732    1913.3544 
  175900    291.86733   -1165.1513    6492.6189    11562.765     1926.694 
  176000    301.13199   -1173.8154    6423.7984    11683.206    1907.6576 
  176100    303.00909   -1171.5602    6378.5144    11680.278    1871.9167 
  176200    295.10401   -1171.4095    6405.1881    11538.223    1807.6532 
  176300     299.5274   -1171.1953     6388.482     11616.23    1874.4521 
  176400    300.51378   -1169.6236    6444.5201    11694.912     1890.421 
  176500    297.45343   -1171.2645    6467.3338    11650.706    1913.3523 
  176600    301.80183   -1173.8737    6313.0159    11586.675    1903.3979 
  176700     295.7203   -1172.2553    6323.9547     11469.31    1842.5745 
  176800    301.00841   -1169.9499    6414.4909    11675.124    1880.7666 
  176900    298.69088   -1169.6404    6462.6707    11674.103    1969.6477 
  177000    300.90831   -1166.8963    6347.7015    11609.249    1891.8989 
  177100    296.50019   -1162.0302    6449.1898    11621.431    1902.4062 
  177200     300.7563   -1166.3858    6408.8225    11667.634    1995.6509 
  177300    299.98759   -1166.7491     6337.347    11579.372     1902.724 
  177400     298.2379   -1163.7911    6403.8136    11611.418    1890.4606 
  177500     294.2326   -1162.0229    6449.8576    11573.663    1924.2325 
  177600    302.15967   -1160.2985    6495.3655    11790.245    1932.3149 
  177700    295.07809   -1156.5572    6418.4015    11565.735    1824.3575 
  177800     303.0002   -1156.0779    6399.3625    11716.419    1875.1121 
  177900    297.89535   -1154.9159    6447.7458    11656.907    1909.2464 
  178000     295.7845   -1155.6142    6481.1375    11644.505      1918.11 
  178100    299.10431   -1156.4478    6336.9991    11570.456    1867.2193 
  178200    304.94787   -1155.5172    6477.4636     11836.69    1982.6524 
  178300    295.85153   -1156.5517    6414.5225    11578.385     1911.911 
  178400    302.33629   -1157.2295    6338.5824    11640.304    1845.0577 
  178500    295.64632   -1155.2302    6420.4065    11581.206    1934.0109 
  178600    302.03446   -1155.8943    6429.3024    11725.911    1906.8188 
  178700    299.18871   -1154.0522    6579.0506    11816.706    1920.3963 
  178800    303.11343    -1152.828    6436.7094    11759.435    1917.3512 
  178900    299.42609   -1163.9579    6375.0518    11607.873    1921.2733 
  179000    296.98791   -1166.0762    6439.5911    11618.206    1899.8012 
  179100    295.79253   -1167.4293    6472.8829    11624.607    1925.0983 
  179200    301.40245   -1169.1324    6405.5785    11675.447    1912.2636 
  179300    300.52986   -1176.2313     6420.739    11664.867    1795.1167 
  179400    298.80329   -1163.1707    6444.0377    11664.341    1852.9257 
  179500    303.70423   -1166.3366    6370.8027    11692.641    1903.4797 
  179600    301.08608   -1166.3982    6321.5459     11587.39    1911.6308 
  179700    292.41455   -1161.8802    6403.8779    11488.986    1874.8035 
  179800     299.6694   -1159.1267    6423.5929    11666.443    1904.4867 
  179900    304.13822   -1177.5969    6438.2843    11758.134     1933.168 
  180000    295.46077   -1175.6212    6283.5757    11420.021    1772.8093 
  180100    299.11366    -1170.518    6413.6674    11633.254    1864.0286 
  180200    306.86183     -1176.34    6551.8985    11931.191    1854.3992 
  180300    304.15199   -1176.1404    6474.7173    11796.317    1835.7231 
  180400    297.77427   -1162.3246    6418.4369    11617.603    1886.8391 
  180500    298.50695   -1161.6593    6360.0272    11575.511    1923.1415 
  180600    299.17722   -1165.7217    6337.5801    11563.321    1866.3836 
  180700    298.89521   -1160.3949    6409.3275     11634.37    1852.9102 
  180800    299.09695   -1155.0577    6551.2766    11785.966    1965.5462 
  180900    301.19629   -1162.4521    6384.8713    11657.016    1859.1408 
  181000    296.91735   -1159.8911    6435.0286    11618.321    1801.2195 
  181100    303.15793   -1159.7647    6488.2963    11805.036    1885.5467 
  181200    296.83407   -1156.1458    6374.2468    11559.505    1839.5458 
  181300    303.84784   -1152.6537    6443.1248    11781.714    1888.0389 
  181400    295.06806   -1154.0368    6538.9713    11688.611    1908.5906 
  181500    301.57791   -1152.7909    6407.1062    11697.065    1856.7986 
  181600    300.27159   -1149.9037    6435.6855    11700.624    1834.0718 
  181700    301.61702   -1156.7637    6361.0522    11647.873     1839.632 
  181800     300.9056   -1152.4126    6489.6861     11765.66    1883.1585 
  181900    297.84926   -1152.1965    6456.2502    11667.146    1840.1502 
  182000    303.70899   -1155.4207    6446.5669    11779.423    1866.8165 
  182100    296.56555   -1156.6556    6460.0536    11639.066    1900.4971 
  182200      297.395   -1154.5689    6335.3487    11534.168    1866.8657 
  182300    299.59747   -1159.1345    6342.6691    11583.975     1819.845 
  182400     292.7976   -1161.6553    6434.2246    11527.741    1851.7473 
  182500     296.1584   -1157.1867    6458.5221    11628.305     1895.355 
  182600    304.21138   -1159.2263    6337.9039    11677.687    1833.7096 
  182700    302.49315   -1162.6013     6449.704    11749.405    1881.6869 
  182800    297.36353   -1158.4472    6431.6153    11625.884    1864.3931 
  182900     305.3924   -1166.2836    6387.5989    11745.555    1856.4514 
  183000    298.26515   -1166.8875    6350.1499     11555.24    1822.9616 
  183100    302.50287   -1166.8709    6440.8811     11736.52    1879.6846 
  183200    297.81076   -1166.3078    6448.7013    11644.663    1825.3186 
  183300    298.82354     -1170.71     6387.808    11601.004    1840.8972 
  183400    300.26904   -1172.3966    6355.8995     11598.29    1891.4761 
  183500    299.04776   -1165.8357    6375.3882    11598.249    1859.6614 
  183600    298.16379   -1164.3611    6567.7878    11773.239    1896.5986 
  183700    299.17653   -1168.5032    6375.0729    11598.017    1889.3533 
  183800     298.5992   -1167.4423     6319.798    11531.469    1890.9069 
  183900    291.89896   -1165.3012    6501.8694    11572.542    1923.8258 
  184000    298.70957   -1162.6499    6477.9476    11696.769    1933.1732 
  184100    302.20301   -1165.8086    6337.2276    11627.523    1912.3691 
  184200    299.05513   -1164.7943    6390.5154    11614.575    1931.7178 
  184300    301.24624   -1163.0035    6365.1897     11637.85    1837.3056 
  184400    297.79536   -1166.3982    6460.3991    11655.942    1902.6515 
  184500     299.0467   -1164.2152    6470.3143    11694.773    1851.7817 
  184600    297.09926   -1162.2307    6370.4622    11555.301    1800.5296 
  184700    305.44522   -1158.8439    6455.7193    11822.244    1886.5867 
  184800    295.56381   -1157.9918    6411.9605    11568.236    1876.5045 
  184900    300.81388   -1158.5093    6395.1046    11663.022    1871.2455 
  185000    300.15151   -1155.5837    6514.7444    11771.437     1889.697 
  185100    298.74451   -1156.9391    6417.7594    11643.038    1905.2231 
  185200    301.02687   -1165.9757    6344.7744    11609.776    1881.1948 
  185300    300.87367   -1162.8198    6496.9024    11761.787    1875.0414 
  185400    299.12229   -1159.6137    6415.3467    11646.022    1848.1034 
  185500    302.16519   -1162.2682    6450.0267    11743.054    1888.9287 
  185600    296.83213   -1162.6162    6410.6738    11589.421     1816.318 
  185700    305.09358   -1153.3389    6422.7209    11787.238    1853.5956 
  185800    297.31364   -1162.1244    6424.0683    11613.594    1908.5527 
  185900    303.38334   -1157.3627    6397.1424    11721.099    1903.5063 
  186000    294.11286   -1168.9048    6514.0768    11628.442    1893.0893 
  186100    301.96615   -1169.2192    6399.6125    11681.437    1868.1176 
  186200    296.76709   -1170.1877    6360.7533    11530.539    1873.4204 
  186300     302.3712   -1169.7982     6381.065    11670.964     1879.483 
  186400    306.22683   -1165.2189    6364.9741    11741.821    1882.9076 
  186500    297.46277   -1166.9692    6391.8158    11579.682    1861.5902 
  186600    300.24246   -1163.9512    6358.1106    11608.379    1840.3348 
  186700    297.64676   -1165.7161    6447.6859    11640.736    1938.3248 
  186800    305.73984   -1167.0298    6455.5721    11820.205    1904.3061 
  186900    296.42727   -1167.4758     6329.789    11495.027    1820.3165 
  187000    303.02451   -1169.4385    6428.5688    11732.784    1929.8968 
  187100    304.96635   -1166.1346    6414.7475    11763.751    1898.6643 
  187200    302.91401   -1168.2887    6488.3682    11791.372    1927.7842 
  187300    295.45565   -1171.3236    6400.4236    11541.057    1958.5886 
  187400    306.03449   -1165.7169     6351.321    11723.562    1931.1726 
  187500    296.16953   -1168.2729    6440.5298    11599.464    1891.4574 
  187600    302.82892   -1163.1719    6515.9836    11822.287    1869.9505 
  187700    296.67015    -1166.283    6500.6314    11672.251    1876.6691 
  187800    298.40848   -1157.6961    6474.8555    11692.199    1873.5445 
  187900    302.50959   -1162.1054    6429.2438    11729.792    1908.6398 
  188000    298.13618   -1160.8683    6417.3145    11625.668    1920.9788 
  188100    295.68499   -1159.7439    6469.8361    11626.948    1887.5881 
  188200    303.04106   -1164.4411    6432.2967    11741.863    1928.7911 
  188300    293.25154   -1169.3341    6479.7135    11575.249    1919.5173 
  188400    300.47876    -1158.936    6456.9627    11717.294    1861.8498 
  188500    300.71002   -1159.8387    6329.6141    11593.984    1855.6732 
  188600    296.11677    -1163.871    6403.2713    11565.481    1919.9864 
  188700    302.58581    -1157.751    6565.7405    11872.271    1968.8096 
  188800    295.21977   -1155.8475     6408.028    11559.098    1906.3689 
  188900    303.82276   -1157.3578    6376.0538    11709.403    1873.4942 
  189000    297.00839   -1160.2557     6409.727      11594.6    1865.9724 
  189100    301.14849   -1166.4997    6431.3293    11698.405    1885.9077 
  189200    300.82546   -1167.1406    6497.5095    11757.043    1937.9164 
  189300    301.43054   -1164.6107    6390.8402     11665.83    1868.4299 
  189400    300.86838   -1164.1607    6376.4724    11639.903     1853.828 
  189500    298.03914   -1159.9685    6430.8496     11638.03    1869.8086 
  189600    300.09356   -1157.7074    6493.6346    11746.966    1939.7989 
  189700    300.56758   -1167.9506    6488.4065    11741.621    1893.7331 
  189800    299.24526    -1165.864    6415.3653    11642.417    1920.4353 
  189900     302.2758   -1165.6677    6424.1778    11716.169     1898.387 
  190000    297.84202   -1165.7739    6488.0254    11685.189    1877.2159 
  190100     299.8509   -1167.9366    6418.7311    11656.649    1849.4162 
  190200    301.66182   -1173.5441      6387.83    11658.828    1885.7937 
  190300    296.86288   -1167.9689    6352.2141    11526.265    1865.7883 
  190400    300.57764   -1166.9456    6417.4156     11671.85    1924.5146 
  190500    298.96839   -1171.9704    6347.7802    11562.811    1944.6495 
  190600    304.38028   -1166.8151      6502.86    11838.662    2065.3753 
  190700    298.69883    -1170.079    6417.2432    11628.406    1887.2942 
  190800     300.0313   -1168.4307     6439.836    11681.114     1895.449 
  190900    302.93272   -1166.8201    6285.1003    11589.973    1888.7677 
  191000    298.51334   -1168.4342    6434.6611    11643.506    1862.4652 
  191100    294.54324   -1166.6039    6471.9306    11597.791    1859.9697 
  191200    299.86352   -1170.6645    6380.8525    11616.312    1883.5845 
  191300    298.51953   -1167.8649     6340.965    11550.512    1900.8064 
  191400    301.60265    -1166.314    6451.2883    11728.252    1929.5581 
  191500    303.63345   -1163.8141    6463.7224    11786.571    1911.5226 
  191600     300.6492   -1171.1471    6462.6821    11714.444    1910.1165 
  191700    300.57278   -1162.0416    6489.0243    11748.259    1930.5001 
  191800    305.69265   -1166.0301     6414.405    11779.029    1903.9184 
  191900    297.00209    -1163.012    6402.6767    11584.658     1908.639 
  192000    304.21573   -1163.2004    6404.9544    11740.856     1884.626 
  192100    299.25288    -1161.179     6394.295    11626.195    1831.2426 
  192200     297.2375   -1161.8188    6477.5443    11665.749    1913.9898 
  192300    298.84353   -1162.9671    6466.9825    11688.349    1934.4858 
  192400    299.45481   -1164.2173    6342.1626    11575.338    1906.2515 
  192500    302.34406   -1160.5276    6415.2308     11713.82    1925.3627 
  192600    298.90539   -1155.8939    6517.0082    11746.769    1932.4928 
  192700    298.63762    -1161.469    6503.6302    11722.096    1976.5487 
  192800    298.66009   -1162.3012     6443.286    11661.399    1961.9525 
  192900    301.83518   -1160.3201    6307.2236    11595.149    1861.4696 
  193000    294.67108   -1162.8066    6432.1054    11564.494    1951.5469 
  193100    301.64744   -1157.2377    6560.2311    11847.228    2002.2116 
  193200    297.43261   -1160.7904     6397.594    11590.995    1900.0186 
  193300    301.27065   -1160.8301    6280.2102    11555.565    1946.8137 
  193400     300.6571   -1163.3896    6359.5348    11619.223    1973.6636 
  193500    296.69818   -1163.2855    6404.0386    11579.254    1848.3255 
  193600    306.29025   -1161.7247    6469.9273    11851.624    1897.2423 
  193700    301.25863    -1162.177    6513.1364    11786.888    1955.0023 
  193800    299.06154   -1162.7335    6405.9523     11632.21    1821.7464 
  193900     302.3822    -1165.721    6423.7724    11717.983    1875.9972 
  194000    298.85773   -1163.3659    6367.3633    11588.634    1911.6162 
  194100    298.52391   -1161.6515    6365.6544    11581.508    1784.2137 
  194200    304.69657   -1164.0446    6458.8843    11804.214    1880.7606 
  194300    305.00152    -1166.828    6365.9302    11714.992    1899.8929 
  194400    300.13297   -1162.6789    6483.4365    11732.638    1901.0505 
  194500    296.04187   -1163.4016    6495.2693    11656.348     1828.616 
  194600    300.40589   -1164.4636    6365.2845    11618.532    1916.2896 
  194700    302.14789   -1164.0056    6436.9619    11727.882    1906.6286 
  194800    303.69713   -1161.7887    6510.7229    11836.957    1859.4419 
  194900    297.56754   -1166.9245    6424.6825    11614.832    1841.6458 
  195000    299.02486   -1168.9169    6430.2434    11649.534    1916.8601 
  195100    304.21784   -1164.7281    6319.6203     11654.04    1871.8922 
  195200    300.68263   -1164.9355    6488.9239    11747.612    1895.1253 
  195300    299.09326   -1163.2731    6363.1663    11589.562    1801.8978 
  195400    303.30167   -1161.7578    6449.3865    11767.203    1877.1349 
  195500    299.18548     -1159.81    6524.9029    11756.732    1924.0033 
  195600    301.52782   -1157.4157    6369.4376    11653.701    1899.0832 
  195700    301.45287   -1159.1618    6358.3606    11639.277    1877.2869 
  195800    293.80777   -1168.6715    6424.1217    11532.202       1847.8 
  195900    297.21675   -1163.3994    6486.4367    11672.617    1910.8248 
  196000     301.6596   -1161.8983    6416.5844    11699.181    1896.5311 
  196100    299.27613    -1161.802    6467.2503    11699.024    1935.3235 
  196200      298.793   -1162.6412    6373.0868      11593.7    1882.5462 
  196300    299.32114   -1160.3716    6365.9769    11600.142    1850.8795 
  196400    297.85781   -1161.9867    6471.1216     11672.41    1929.6568 
  196500    302.69859   -1160.0465    6415.1173    11721.762    1890.6496 
  196600    300.75473   -1156.4091    6578.1322    11846.886    1976.2236 
  196700    297.75704   -1161.1828    6368.6255    11568.565    1899.4145 
  196800    300.10437   -1161.4698    6313.4626    11563.262    1904.0253 
  196900    298.98062   -1165.7037    6483.8506    11705.409    1937.7306 
  197000    296.94678    -1159.111     6549.317    11734.018    1945.1464 
  197100    301.37252    -1163.069    6560.7537    11836.046    1990.3796 
  197200    298.62503   -1166.5126    6425.3708    11638.524    1988.2255 
  197300    300.22354   -1162.4693    6319.1471    11570.493    1920.2015 
  197400    302.50732   -1167.4616     6468.717     11763.86    1995.4582 
  197500    299.42469     -1162.79    6440.1562    11674.115    1947.2345 
  197600    301.72477   -1158.1293    6444.8791    11732.636    1916.5161 
  197700    298.63876   -1166.1035    6454.7385    11668.594    1912.5563 
  197800    298.12594   -1167.2673    6415.8785    11617.614    1898.9216 
  197900    298.92403   -1163.5029    6471.6846    11694.235    1936.3974 
  198000    297.11598   -1165.2002      6459.31    11641.537    1960.0659 
  198100    301.21408    -1161.759    6410.6499    11683.867    1940.2182 
  198200    299.96629   -1167.1248    6521.6103    11762.805    1906.8808 
  198300     299.9195   -1165.8167    6476.8172     11718.32    1914.8465 
  198400    293.36238   -1166.9117    6337.5468    11437.872    1878.7741 
  198500    297.78513     -1167.25    6418.9001    11613.372    1935.8781 
  198600    296.91946   -1170.4475    6422.4772    11595.258    1874.4322 
  198700    299.54419   -1166.4491    6442.1802    11675.033    1967.1494 
  198800    307.12124   -1168.1661    6370.5801    11763.588    1989.0735 
  198900    299.34037   -1161.6192    6447.9569    11681.285    2007.7081 
  199000    302.83168   -1169.9857    6419.6112     11719.16    1966.3412 
  199100    299.26184   -1168.8493    6473.4483    11697.869    1996.6979 
  199200    299.81198   -1168.3062    6455.2514    11691.968    1913.9429 
  199300    301.14936   -1163.7234    6426.3834    11696.254    1892.1718 
  199400    305.15267    -1169.769    6417.2203     11766.57    1943.3895 
  199500    297.93742   -1169.2764    6399.0348    11594.734    1817.6909 
  199600    302.80856   -1169.6477    6462.5106    11761.903    1883.5151 
  199700    301.27039   -1169.1735    6534.2211    11801.227    1969.8754 
  199800    298.53231   -1162.0707    6336.3896    11552.004    1945.3218 
  199900    300.50457    -1168.636    6427.4748    11678.658      1939.12 
  200000    298.67412   -1166.7189    6408.0263    11622.022    1875.3317 
  200100    294.79087   -1165.3409    6417.0207    11549.434    1881.6183 
  200200    298.90316   -1161.3065    6387.8879    11612.189    1858.2324 
  200300    302.38004   -1169.2039    6495.0629    11785.745    1972.7486 
  200400    302.93495   -1169.8844    6357.7995    11659.655    1915.1268 
  200500    306.60312    -1164.142     6412.423    11798.386     1890.795 
  200600    297.51974   -1158.0769    6453.3037     11651.28    1816.8217 
  200700    300.11078   -1168.7819    6457.8503    11700.475    1899.0544 
  200800    298.84675   -1163.9678    6419.7744    11640.209    1897.7997 
  200900    300.07911   -1161.1335    6399.0248    11648.621    1885.6301 
  201000    295.18563   -1162.6652    6439.6138    11583.137     1909.318 
  201100    301.37553   -1161.8187    6419.7158    11696.323    1931.0206 
  201200    296.97649   -1157.6198    6416.9356    11603.763    1901.7087 
  201300    299.79902   -1163.8125     6417.876    11658.809     1926.615 
  201400    307.23268   -1166.3281    6397.0653    11794.292    1842.9562 
  201500    297.64039   -1158.5739    6507.7747    11707.831    1859.3821 
  201600    298.76021    -1159.365    6348.7929    11571.981    1850.0177 
  201700    299.11122   -1161.7639    6410.3961    11638.684    1878.5439 
  201800    298.94165   -1166.0823    6556.2038    11776.551     1949.749 
  201900    300.09305   -1159.8427    6455.5738    11706.759    1901.7317 
  202000    298.35123   -1165.4581    6373.1695    11581.528    1884.8972 
  202100    298.75004   -1160.5754    6423.9982    11645.759    1965.1518 
  202200    301.05996   -1165.4242    6411.8557    11678.116    1921.7451 
  202300    298.60921   -1158.8416    6454.4097    11674.896    1871.2239 
  202400    301.53729   -1162.7826     6396.251     11675.35    1873.2412 
  202500    298.22839   -1172.5608    6449.3839    11648.015    1945.2175 
  202600    294.81134   -1165.1055    6466.9278    11600.014    1862.9679 
  202700    299.62393   -1174.0011    6434.8778    11661.882    1887.2974 
  202800    301.97245   -1165.5999    6477.7195    11763.298    1939.5151 
  202900    298.49983   -1162.6532    6354.2401    11568.578    1808.8875 
  203000    301.38907   -1167.0686    6311.2709    11582.917    1805.7057 
  203100    300.01791   -1160.5012    6542.8707    11791.792    1953.8646 
  203200    301.76374   -1166.5288    6425.4087    11705.599     1890.036 
  203300     303.3677   -1173.4158    6382.3901     11689.96     1900.257 
  203400     295.9653   -1163.3845    6476.9353    11636.395    1880.7861 
  203500    302.37808   -1163.9072     6407.172    11703.109    1876.2077 
  203600    300.29392   -1162.5189    6346.8448    11599.645    1838.0319 
  203700    300.51698   -1166.5215    6502.4994    11756.062     1920.412 
  203800    302.50481   -1166.5927    6414.3418      11710.3    1855.2354 
  203900    301.09101   -1165.3488    6427.6606    11694.659    1836.3224 
  204000    294.65467    -1157.207    6410.3295    11547.967     1864.296 
  204100    299.04085    -1157.124    6400.7238    11632.149    1889.8293 
  204200    300.36502   -1157.8737    6428.6712    11687.635    1865.1935 
  204300     298.2144   -1160.6265    6521.2673    11731.534    1920.6438 
  204400    301.63273   -1165.8991    6403.1685     11681.19    1928.4064 
  204500    301.07052   -1162.5355    6329.4587    11598.833    1904.6144 
  204600    296.29941   -1157.5752    6429.1952    11601.602    1858.0273 
  204700    302.29115   -1162.3999    6482.5749    11778.161    1909.1823 
  204800    297.18056   -1160.6982    6488.5067    11676.615    1937.2697 
  204900    300.41462   -1157.4637    6434.6505    11695.084    1894.3838 
  205000    301.75703   -1157.6077    6352.4256    11641.394    1908.7443 
  205100    293.45394   -1156.1654    6399.8355    11512.863    1886.3049 
  205200    301.39271   -1159.5719    6432.1708    11711.392    1842.9288 
  205300    301.98432   -1161.9195    6516.1335    11805.646    1944.2859 
  205400    297.79841    -1160.974      6343.06    11544.092    1893.7547 
  205500    303.45953   -1165.2546    6389.1386    11706.831    1888.3532 
  205600    297.49538   -1164.1129    6424.2763    11615.696    1877.1411 
  205700    304.59388   -1163.5726    6535.4715     11879.08    1912.2344 
  205800    298.68542   -1162.0531    6443.0627    11661.965    1907.1699 
  205900    301.69955   -1157.0476     6349.807    11638.107      1892.81 
  206000    296.97056   -1163.3156    6352.0868    11533.091    1841.8671 
  206100     302.7909    -1166.463    6440.2644    11742.464    1897.3425 
  206200    295.74393   -1168.1495    6585.9002    11735.866    1938.6778 
  206300    303.39919   -1170.9172    6280.3165    11591.057    1839.3403 
  206400    301.22697   -1170.0942    6399.3343    11664.492    1893.8745 
  206500    299.44619   -1172.3537    6542.4722    11767.327    1887.1054 
  206600    301.04523   -1170.0826     6480.126    11741.413    1928.6069 
  206700    298.74509   -1167.9364     6332.694    11546.988    1917.2087 
  206800    299.95471   -1166.6922     6333.799    11575.179    1915.7087 
  206900    302.44978   -1169.3683    6481.7424     11773.75     1879.655 
  207000    293.11353   -1171.4683    6438.9826    11529.435    1814.7904 
  207100    296.28661   -1168.7971    6440.1917    11601.103    1870.6065 
  207200    303.78501   -1163.3606    6391.0096     11717.55    1919.3988 
  207300    297.37267   -1170.7527    6310.9608    11493.119    1889.9286 
  207400     300.9047   -1157.0973    6495.8028    11767.073    1966.9921 
  207500    302.29083   -1161.6394    6420.0331    11716.373    1870.6964 
  207600    297.67747   -1158.4157    6443.4057    11644.412    1909.3203 
  207700    302.13951   -1169.3574    6342.4768    11627.867    1953.7348 
  207800    296.45097   -1165.4901    6363.4867    11531.217    1835.7171 
  207900    297.93347   -1161.7904     6507.519     11710.62    1917.2519 
  208000    299.65883   -1159.4188    6373.1308    11615.463     1929.503 
  208100    301.05247   -1158.8988    6479.5207    11752.146    1913.2206 
  208200    298.82503   -1159.3103    6435.8959    11660.524    1842.9384 
  208300    300.93009    -1163.045    6386.5668    11652.431    1865.8622 
  208400      295.267   -1157.3731    6392.8903    11543.444     1837.021 
  208500    302.31415   -1159.5598    6571.9427    11870.861    1911.6447 
  208600    302.04492   -1159.3569    6449.2232    11742.593    1838.4797 
  208700    305.30336   -1161.8514    6498.7752    11859.262    1898.3192 
  208800     301.7006   -1164.3101    6491.0844    11772.145    1871.8935 
  208900    299.39629   -1157.6725    6395.0744    11633.544    1887.3332 
  209000    303.01854   -1159.5665     6423.829    11737.789     1956.809 
  209100    298.21826   -1161.6276    6520.5307    11729.879    1907.8789 
  209200    302.24156   -1157.7218    6367.8271    11667.033    1817.1585 
  209300    301.93524   -1160.7224    6404.0312    11693.692     1893.194 
  209400     298.2962   -1161.8259    6402.2025    11613.017    1847.9486 
  209500    303.33592   -1166.7456     6477.538    11791.099     1865.909 
  209600    301.33302   -1163.3994    6460.9597    11735.078    1951.6178 
  209700    299.97062   -1169.9241    6378.6552    11617.143    1888.0901 
  209800      303.457   -1163.9104    6384.6696    11703.652    1825.1223 
  209900    297.98081   -1165.8042    6487.7129    11687.811    1837.7212 
  210000    297.65742    -1164.444    6443.6045    11638.154    1864.4804 
  210100    302.64252   -1169.3985    6391.0234    11687.118    1899.9604 
  210200     298.3103   -1164.0334    6470.7685    11679.677    1931.0531 
  210300    297.68701   -1169.1057    6320.3658    11510.886    1885.3547 
  210400    301.32566   -1164.9362    6298.1328    11570.557    1784.6851 
  210500    301.13415   -1162.3265    6599.6282    11870.571    1879.1657 
  210600    302.35749   -1162.6306    6480.9494    11777.723    1851.6263 
  210700    300.91691   -1162.6475    6412.3322    11678.313    1831.4382 
  210800    301.05857   -1165.0744    6367.4144    11633.994    1838.6911 
  210900     298.4807   -1167.3279    6377.5047    11586.759    1891.3721 
  211000    304.75916   -1165.5341    6483.6391    11828.817    1881.9317 
  211100    297.09538    -1158.013    6568.5684    11757.542    1888.9578 
  211200     302.3292   -1165.3901     6342.117    11635.526    1849.0909 
  211300    298.64922   -1161.7923    6302.1365    11520.527    1788.2804 
  211400    302.38672    -1158.682    6458.6396    11759.986    1847.0817 
  211500    302.59527   -1162.9742    6462.6015    11764.111    1841.9132 
  211600    302.42113   -1157.4152    6428.5351    11731.883    1831.5485 
  211700    300.85749    -1163.362    6360.3219    11624.318    1788.5882 
  211800    302.78477   -1156.7099    6548.2048    11860.027    1925.5604 
  211900    293.60903   -1164.2594    6440.5955    11548.842    1843.1774 
  212000    302.75961    -1161.429    6405.4584    11712.024    1801.7714 
  212100    296.46963    -1157.205    6529.6014    11706.015    1879.8694 
  212200    306.58402   -1161.4821    6473.0468    11861.262    1878.6361 
  212300    301.19654   -1161.1009    6345.3415    11618.843    1855.9509 
  212400    295.37657   -1161.9509    6423.5585    11571.875    1867.4579 
  212500    299.92816   -1164.0553    6407.6736    11651.123    1833.0026 
  212600    299.87585   -1164.1656    6567.9025    11810.124    1914.2481 
  212700    300.18137   -1170.4765     6409.417    11651.855    1833.1164 
  212800    299.79003   -1162.1894    6325.9967    11568.361    1848.2311 
  212900    299.01939   -1167.3545    6442.9075    11663.644    1905.5793 
  213000    295.49562   -1166.7212    6510.6783    11656.768    1853.8184 
  213100    303.84276   -1166.2228    6420.7163    11745.628    1839.6112 
  213200     301.8008   -1163.0047    6396.7763    11681.282    1869.7471 
  213300    301.46484   -1158.0275    6464.6578    11746.964     1892.642 
  213400    301.18484   -1168.0449    6418.9046    11685.212    1887.4577 
  213500    295.08617   -1167.4527    6507.3168    11643.927    1939.5943 
  213600    302.25687   -1166.6431    6367.7399    11658.351    1873.1113 
  213700     302.1494   -1161.1753    6378.8336    11672.617    1864.5227 
  213800    298.82712    -1169.517    6503.1273    11717.593    1898.4555 
  213900    295.65515   -1163.5384    6459.5704    11612.251    1900.3384 
  214000    301.22478   -1164.0302    6365.4913    11636.666    1941.7109 
  214100    301.43326   -1168.9094    6449.1833    11719.933      1907.25 
  214200    296.43336   -1168.5908     6440.857     11605.11    1842.8515 
  214300    301.09225   -1161.3067    6389.0696    11660.137    1892.1272 
  214400    301.73051   -1158.7779    6445.8101    11733.042    1945.2247 
  214500    298.87329   -1158.7147    6482.2295    11708.484    1942.9771 
  214600    302.62194   -1166.3255    6366.4881    11665.216    1930.9881 
  214700     306.0947   -1160.0765    6374.8146    11753.982    1883.8067 
  214800    295.52092    -1165.879      6439.81    11587.282      1857.07 
  214900    302.98701    -1166.862    6532.5048    11838.495    1949.9133 
  215000    302.17517   -1165.2964      6450.48    11740.692    1911.1563 
  215100    296.85514   -1162.7113    6327.3054    11506.449    1878.8504 
  215200    300.60964   -1160.1008    6439.8667     11701.83    1931.6498 
  215300    298.81627   -1164.1278    6476.3858    11696.009    1898.4575 
  215400    297.06482   -1160.3474     6361.696    11547.683     1929.234 
  215500    302.21543    -1162.988    6423.6934    11717.074    1950.9425 
  215600    292.88062   -1166.2531    6462.4408    11553.133    1886.1871 
  215700    303.75303   -1169.9464    6518.1377    11837.409    1978.9188 
  215800    297.62201   -1169.1437    6417.0573    11606.151    1949.0417 
  215900    305.26177   -1167.4387    6447.5364    11801.547     1946.714 
  216000     298.9202   -1164.5321    6364.2599    11585.699    1918.0057 
  216100     296.3605   -1163.8315    6382.2777    11549.733    1929.3368 
  216200    297.42676   -1170.3938    6392.0057    11575.678    1922.2922 
  216300    299.96282    -1174.058    6475.3226     11709.51    1885.3186 
  216400    299.84364   -1166.8349    6470.6272    11709.492    1934.9731 
  216500    298.12492   -1167.0604    6372.8444    11574.765    1982.3758 
  216600    297.27898   -1172.9833    6344.0752    11522.001    1917.9738 
  216700    301.46728   -1165.2504    6376.4993    11651.635    1870.0625 
  216800    301.27654     -1169.46    6603.4297    11870.281    2019.1599 
  216900    300.06194   -1166.0436    6463.1371    11707.456    1973.9696 
  217000    306.57992   -1171.2974    6366.9564    11745.268    1946.2933 
  217100     299.1449     -1174.14    6466.1145    11682.746    1994.7586 
  217200    300.80658   -1163.5339    6521.3223    11784.059    1979.5916 
  217300    296.92311   -1170.1334    6384.4426    11557.616     1950.311 
  217400    305.08341   -1166.2635    6473.9224    11825.298    2051.4534 
  217500    295.06668    -1172.494    6361.2671     11492.42    1978.0467 
  217600    298.79921   -1167.4232    6328.6336    11544.597    1912.5193 
  217700    299.38926   -1162.2092    6476.8919    11710.675    1930.3288 
  217800    307.69855   -1168.0992    6533.6718     11939.08    1971.0934 
  217900    297.46747   -1163.6806    6458.5592    11649.815    1925.0627 
  218000     300.0639   -1164.8712    6367.5906    11613.124    1844.5791 
  218100    301.44278   -1167.1471    6424.9803    11697.696    1851.6788 
  218200    302.51656   -1165.9123    6447.2065    11744.096    1834.5512 
  218300    298.96326   -1164.8793    6401.8714    11623.883    1867.0563 
  218400    298.84064   -1160.3527    6421.2275    11645.147    1944.6764 
  218500    293.00537   -1163.2724    6369.8569    11466.195    1919.1226 
  218600    301.85574   -1160.7805    6408.0274    11695.932    1926.2558 
  218700    302.10398   -1159.6545    6407.2783    11701.612    1891.6203 
  218800    298.04174   -1166.0196    6488.8239    11690.009    1872.3412 
  218900    300.75586   -1165.0416    6403.4722    11663.618    1879.5182 
  219000    297.43012   -1162.4166    6426.2992    11618.021    1862.6629 
  219100    301.80121     -1167.53    6429.8035    11709.793    1834.6965 
  219200    304.77756   -1163.6974    6419.8453    11767.253     1887.269 
  219300    296.54984   -1163.4223     6454.371    11626.281    1929.3556 
  219400    297.53556   -1163.7624    6440.5095    11633.138    1940.5464 
  219500    302.57442   -1159.7743     6357.825    11662.089    1896.2591 
  219600    299.95558   -1163.1394     6457.495    11702.446    1936.2751 
  219700    300.06745   -1158.6615    6373.8238    11625.643    1862.5856 
  219800    296.05567   -1161.0684    6409.7982    11573.505    1861.9625 
  219900    299.51135   -1161.9495    6446.1695     11682.82    1933.9435 
  220000    304.77005   -1161.6061    6338.3675    11687.706    1866.5858 
  220100    300.39216   -1171.3169    6440.8535    11686.954    1911.9582 
  220200    298.16775   -1169.3877    6506.3838    11706.893    1906.4546 
  220300    305.18202   -1168.8493    6454.6893    11805.586    1808.4715 
  220400    302.08403   -1164.5996    6474.6748    11763.637    1919.7462 
  220500     300.1168   -1166.6265    6352.5448    11597.453     1849.355 
  220600    299.95047   -1163.4804    6462.5619    11707.063    1924.5337 
  220700     301.3654   -1157.8702    6412.2063    11692.546    1906.7742 
  220800    295.72422   -1164.4216    6447.6894    11600.962    1917.1314 
  220900    299.74974   -1162.1512    6396.8002    11638.342    1872.8357 
  221000    296.18267   -1162.7596    6414.6329    11579.361    1910.5417 
  221100    303.06213    -1164.389    6384.7996    11694.868    1922.8555 
  221200    299.16106   -1172.1572     6396.553    11615.513    1857.3178 
  221300    298.89011   -1166.7102    6418.1349    11636.753    1858.2004 
  221400    299.75977   -1168.0805    6523.4923    11759.319    1892.7119 
  221500    298.50953   -1164.7561    6392.8863    11605.328    1869.1853 
  221600    296.80094   -1165.0023    6272.7367    11448.431    1930.8073 
  221700    302.40654   -1161.3815    6364.9353    11664.006    1941.3011 
  221800    296.71752   -1158.6951    6504.8171    11685.037    1919.6482 
  221900    300.07649   -1157.0809    6421.3423    11674.935    1913.0947 
  222000    301.48126   -1164.4098    6347.3094    11623.584    1961.9946 
  222100    296.49791   -1166.9645    6311.8867    11479.145    1861.2476 
  222200    304.01565   -1163.6775    6455.3951    11786.546    1867.7448 
  222300    298.61801   -1170.4708    6542.2009    11751.246    1869.2403 
  222400    302.22486   -1170.3666    6430.2291    11716.433    1853.3258 
  222500    294.65721   -1170.3189    6367.5971    11492.177    1877.9881 
  222600    300.71972   -1158.9839     6391.533    11656.965    1948.6279 
  222700    299.46704   -1161.0468    6417.1715    11653.779    1917.8848 
  222800    296.88458   -1156.2016    6433.6441    11619.926     1847.983 
  222900    301.71995   -1153.2713     6410.942    11703.454    1944.5777 
  223000    296.06704   -1166.7471    6349.7206    11507.992    1871.6938 
  223100    299.55386    -1166.224    6471.1791    11704.464    1857.2758 
  223200    303.71042   -1172.3418     6463.674    11779.639     1851.517 
  223300    299.25634   -1173.4048    6477.5299    11697.278    1818.7387 
  223400    300.90855   -1167.4798    6389.0279    11649.998     1833.003 
  223500    298.95047   -1163.4032    6465.4069    11688.622    1931.3048 
  223600    300.27249   -1165.5943    6357.6593    11606.926    1897.9545 
  223700    297.34226   -1158.4404    6454.9297     11648.75    1911.5108 
  223800    303.91749   -1158.7111    6354.1829    11688.203    1934.2699 
  223900    295.24625   -1160.5036    6342.7604     11489.74    1874.6291 
  224000    302.75748   -1160.1704    6483.9416     11791.72      1925.64 
  224100    299.36956   -1165.4636    6357.4136    11587.521    1883.1911 
  224200    300.98476   -1166.8199    6480.7831    11744.041    1989.6823 
  224300    305.53894   -1167.0023    6400.5439    11760.912    1854.6302 
  224400     302.0675   -1163.5216    6467.3015    11756.989    1849.8094 
  224500    297.23564   -1165.2511    6411.9111    11596.643    1903.0823 
  224600    307.25044   -1172.2407    6348.1105    11739.804    1833.1142 
  224700    303.39063   -1162.3551    6444.3383    11763.458     1891.311 
  224800    300.46487   -1161.9516    6479.3991    11736.418    1887.4565 
  224900    300.65663   -1163.2826    6480.1583    11739.943    1917.9593 
  225000    303.16693   -1167.9595    6349.8297    11658.566    1922.0186 
  225100    296.86135   -1169.4057    6356.6977    11529.279     1960.854 
  225200    298.88343   -1161.2162    6503.2106     11727.18    1982.1551 
  225300    301.24075   -1167.8228    6419.8542    11687.578    1862.0411 
  225400    303.57613   -1169.4652    6536.7751    11852.748    1968.9777 
  225500    296.04274   -1172.2238    6388.5788    11540.854    1904.0357 
  225600    301.37834   -1164.3054    6404.6011    11678.782    1908.4347 
  225700    299.77919   -1169.1297    6440.3604    11675.553    1920.3102 
  225800    295.47387   -1169.4931     6474.238    11617.091    1925.1663 
  225900    301.13698   -1161.4361    6371.0227    11642.916    1854.1392 
  226000    294.74915   -1164.5542    6411.2032    11543.512    1940.8037 
  226100    301.85695   -1160.0209    6396.3317    11685.021    1998.6828 
  226200    301.93985   -1164.2063    6410.1381    11696.413     1946.285 
  226300    296.19536   -1171.3733    6377.3244     11533.71    1859.5339 
  226400     295.4982   -1168.2723    6513.7254    11658.319    1978.3088 
  226500    300.63761   -1164.6694     6471.628     11729.62    2011.6434 
  226600    301.55652   -1163.5764    6440.3294    11719.045     2007.599 
  226700    301.48844   -1164.9401    6405.9346    11681.833    1999.9713 
  226800    303.25623   -1166.4826    6448.8374    11760.959    2031.4038 
  226900     298.7212    -1162.755    6432.3715    11651.337    1905.5209 
  227000    300.74253   -1165.9612    6358.7919    11617.733    1899.5035 
  227100    299.72228   -1159.9675    6455.5559    11698.695    1995.0814 
  227200    298.93279   -1165.8059    6433.7607    11654.195    1954.3278 
  227300    294.09904   -1169.7237     6474.923    11588.174    1971.5181 
  227400    293.99005   -1165.3673    6376.7134    11491.992    1916.2003 
  227500    302.43874   -1167.5786    6445.0334    11738.594    1930.3245 
  227600    300.55317   -1173.7112    6517.4451    11764.591    1935.0344 
  227700    297.35097   -1166.5565    6415.9412    11601.832    1994.0641 
  227800    301.46809   -1164.2046    6267.6076    11543.806    1952.0752 
  227900    301.42529   -1161.9116    6346.1543    11623.732    1886.3962 
  228000     299.0287   -1162.9082    6519.5332    11744.914    1955.2468 
  228100    302.40043   -1156.2569     6459.891    11763.955    2017.3501 
  228200    300.08295   -1168.1652    6218.1098    11460.757    1884.5304 
  228300    297.83266   -1170.7156    6421.3111    11613.333    1963.2228 
  228400    302.09192    -1165.386    6492.9971    11781.341    1966.9299 
  228500    296.79709   -1171.3825    6478.6969    11647.929    1925.4233 
  228600    299.95169   -1171.8702    6419.8365    11655.974    1963.3555 
  228700    299.64564    -1166.245      6372.46    11607.684     1951.096 
  228800    301.24883   -1166.2766    6357.8568    11627.299    1923.0676 
  228900     298.1333   -1161.3019    6548.5505    11756.409    2057.2011 
  229000    298.29287   -1162.9349      6374.28    11583.915    1969.5327 
  229100    304.32943   -1161.3073    6456.7953    11797.019    1975.0518 
  229200    298.62282   -1168.6096    6411.9063    11622.915    1886.7674 
  229300    299.67026   -1167.7238    6497.8394    11732.111    1954.3096 
  229400    297.16553   -1171.1905    6343.2261    11520.521    1851.1111 
  229500    304.78468   -1168.1019    6385.6282    11728.783    1941.8399 
  229600    300.68869   -1168.4309    6406.5772    11661.899    1915.6509 
  229700    297.11185   -1159.5593    6519.7538    11707.533    1960.8979 
  229800    303.80628   -1166.4143    6458.6626    11782.603    1900.1375 
  229900    302.57349   -1154.8124    6360.6954    11669.901    1945.6623 
  230000    300.85646   -1155.6816    6287.8268    11559.482    1947.7815 
  230100     302.0983   -1163.0064     6475.242    11766.102    1975.9171 
  230200    298.70677   -1163.5934    6438.3244    11656.143    1957.7993 
  230300    305.68136   -1164.7392    6355.3979    11721.072    1906.3523 
  230400    301.38967   -1159.6123     6505.861    11784.976    1948.9532 
  230500     300.5021   -1164.9132    6386.3742    11641.227    1934.2593 
  230600    302.21359   -1162.8845     6349.482    11642.927    1890.3686 
  230700    302.71679    -1163.852    6467.3246    11770.552    1878.3527 
  230800    300.65272    -1158.735    6559.6321    11823.881    1903.6579 
  230900    295.24516   -1158.8113    6391.0728    11539.721     1868.875 
  231000    300.08679   -1159.0007    6316.5157    11568.409    1916.0354 
  231100    299.90543   -1165.3977    6402.3068    11643.928     1956.087 
  231200    305.95216   -1164.2394    6486.5201    11858.479    1993.2243 
  231300    299.50812   -1161.4187     6440.077     11677.19    1920.4793 
  231400     308.9393   -1163.8409    6523.1673     11959.34    1921.4779 
  231500    300.11665   -1165.2117    6462.8563    11709.176    1918.4755 
  231600    301.79484   -1173.1537    6307.3694    11581.599    1921.0983 
  231700    299.15844   -1160.3778    6413.5655    11644.249    1896.8522 
  231800    299.83517   -1166.2771    6594.9811    11834.222    1946.2672 
  231900    296.49994   -1160.5661    6329.2261    11502.926    1839.3395 
  232000    305.25248   -1160.3064    6386.2318    11747.176    1886.3805 
  232100     305.0812   -1159.6667    6374.0822    11732.007    1843.6286 
  232200    301.15794   -1164.4711    6396.7943    11666.101    1971.2406 
  232300    300.01063   -1166.3595     6350.732    11593.639     1910.675 
  232400    300.91125   -1166.0718    6437.7615    11700.197    1901.6929 
  232500    299.19443   -1167.2148    6467.1076    11691.723    1876.2968 
  232600    299.51482   -1172.1107    6493.2985    11719.862    1894.3532 
  232700    301.41361   -1166.0545    6445.4624    11718.647    1874.3743 
  232800    295.09801   -1170.8292    6372.0483    11505.535    1891.1221 
  232900    301.81678   -1159.4619    6452.9999     11741.39    1975.5837 
  233000    301.67026   -1161.5251    6416.0831     11699.28    1915.7927 
  233100    297.31276   -1160.5142    6375.3716    11566.488    1945.9839 
  233200    300.65465   -1163.2447    6438.1922    11697.973    2018.9888 
  233300    297.67395   -1167.1217    6440.2345     11632.46    1977.1598 
  233400    304.89645   -1164.6803    6462.2863    11811.251    1946.1842 
  233500       302.05   -1166.7327    6461.1619    11747.264    1934.4198 
  233600     296.7483   -1167.8305    6464.0341    11635.776    1930.5984 
  233700    303.68793   -1165.7868    6403.9664    11726.006    1924.4374 
  233800    299.62246   -1162.3455    6444.3671    11682.996    1923.5808 
  233900    300.66686    -1163.071    6413.4762    11673.691    1979.2537 
  234000     301.8365   -1157.0783    6428.2342     11719.43    1951.5236 
  234100    299.91175   -1155.6723    6463.6877     11715.17    1959.3968 
  234200    293.26443   -1170.9094    6376.7272    11470.962    1926.1913 
  234300    301.85022   -1165.3235    6455.9389    11739.182    1926.9633 
  234400     299.8035   -1161.8553    6415.6824    11658.669    1822.8818 
  234500    303.21391   -1160.8961    6377.8277    11694.631    1899.8335 
  234600    299.16672    -1161.367    6426.8321    11656.703      1900.64 
  234700    302.38884   -1159.2998    6500.5298    11801.304    1891.2228 
  234800    298.24014   -1165.2289    6314.9369    11521.151    1885.2069 
  234900    302.60229    -1164.884    6348.2191    11647.969    1856.7847 
  235000    299.02781   -1161.3548    6531.6629    11758.578    1886.7639 
  235100    296.88122   -1158.6418    6424.5783    11608.348    1881.2446 
  235200    304.18475   -1163.7891     6426.484    11761.135    1902.3885 
  235300     301.9937   -1163.0413      6457.61    11746.201    1939.0369 
  235400    299.31421   -1159.0827     6354.869    11590.175    1866.2934 
  235500    302.02085     -1155.49    6413.4588    11710.181    1914.4158 
  235600    301.74079   -1160.3815    6495.2496    11781.097    1919.0683 
  235700    299.86815   -1164.3185    6475.9374    11717.842    1887.5385 
  235800    301.82271   -1164.7677    6200.9342    11484.146    1805.5883 
  235900     299.7782   -1166.2373    6437.6242    11675.688     1973.431 
  236000    302.06089   -1163.8077    6470.4138    11759.674    1890.2216 
  236100    297.12285   -1165.4258    6379.8326    11561.981    1806.2844 
  236200    300.17947    -1159.914    6417.0437    11670.004    1915.9831 
  236300    300.88787   -1164.4495    6364.2703    11627.829    1920.5471 
  236400    298.66949   -1166.9971    6477.0237    11690.642    1896.9033 
  236500    298.60911   -1166.3837    6445.3432    11658.285    1902.1829 
  236600    302.27025   -1161.4177    6431.1529    11727.275    1890.9951 
  236700    299.70989   -1157.4134    6434.3549    11679.784    1912.2026 
  236800    300.78737   -1166.4327    6371.6662    11631.094     1941.574 
  236900    299.42753   -1163.4791    6435.6097     11668.94     1958.873 
  237000    296.83115   -1163.5161    6493.4013    11671.227    1886.5324 
  237100    294.02938    -1164.945     6369.239    11485.781    1833.3711 
  237200    300.73335   -1162.2224    6432.9777    11695.462    1899.4062 
  237300    299.53253   -1169.2098    6419.8394    11649.682     1852.381 
  237400     300.7596   -1168.0822    6461.7686    11718.954    1907.2308 
  237500    304.57616   -1167.8756    6426.7152    11765.642    1895.6642 
  237600    299.88558   -1164.3914    6367.8378    11610.042    1925.7038 
  237700    298.49324   -1168.6695    6370.0834    11578.264    1950.4707 
  237800    293.40846   -1164.0979    6479.6126    11583.736    1923.1771 
  237900    300.39127   -1163.2893    6461.5465    11715.656    1882.2942 
  238000    302.43525   -1163.3448    6470.1232    11767.843    1876.8114 
  238100    295.29958   -1165.4214    6376.3474    11519.548    1880.0034 
  238200    297.99682   -1163.8896    6328.0508    11530.406    1911.6066 
  238300    306.44882   -1162.3463    6366.3422    11750.805    1911.5994 
  238400    300.68008   -1165.8511    6470.4021     11728.12    1851.6864 
  238500    302.05174   -1162.0057    6435.8873    11726.753    1875.0595 
  238600    298.82763   -1167.1879     6453.951    11670.757    1917.8512 
  238700    304.82208   -1159.2796    6297.0115    11649.788    1856.0766 
  238800     297.1864   -1161.6095    6376.8048    11564.127    1884.7514 
  238900    301.04743   -1158.5984    6301.6437    11574.462    1834.7624 
  239000      299.507   -1159.7459    6530.3995    11769.161    1961.0501 
  239100    301.45447   -1162.7022    6381.9243    11659.334     1942.336 
  239200    304.58735   -1161.0639    6346.3187    11692.296    1949.6841 
  239300    297.09189   -1161.9842    6409.9837    11594.912    1892.1082 
  239400    302.12403   -1166.7477    6582.6918     11870.36    1933.3715 
  239500    294.16026   -1163.9263    6409.5573    11529.914    1919.5538 
  239600    297.25075    -1168.656     6319.027    11500.677    1829.0354 
  239700    300.32771   -1162.8692    6561.7604    11814.932     2017.832 
  239800    303.61435   -1168.9988    6389.1642     11706.42    1901.7178 
  239900    297.63705   -1158.2723    6401.0303    11601.317    1904.9767 
  240000    299.13335   -1162.3439    6365.4823    11593.663    1863.4697 
  240100    303.70303   -1160.1161    6387.5788    11715.612    1874.0972 
  240200    298.82845   -1156.9314    6580.4833    11807.563    1974.5259 
  240300    299.34895   -1161.1786    6295.6653    11529.618    1880.3263 
  240400    299.28003   -1167.9271    6427.8081     11653.54    1898.0722 
  240500    302.93083   -1167.2192    6462.8736    11767.307    1907.7435 
  240600    297.02641   -1164.9753    6365.2599    11545.798    1909.5203 
  240700    298.14181    -1166.303    6418.8266    11621.866    1922.9664 
  240800     301.1626   -1165.3465    6312.4658    11580.996    1864.3906 
  240900    297.56948   -1161.1186    6461.9819    11657.979    1924.3481 
  241000    305.52259   -1160.1121     6520.572    11887.481    1898.9695 
  241100    295.73525   -1165.2946    6379.9716    11532.607    1886.7262 
  241200    302.85298    -1164.354     6421.239    11726.874    1964.6613 
  241300    297.72833   -1166.9327    6498.1218    11691.698    1972.8484 
  241400    304.09087    -1169.656     6400.737    11727.516    1921.6555 
  241500    296.28274   -1164.6886    6417.1856    11582.123    1969.4659 
  241600    303.51974   -1169.4666    6432.2252    11746.992    1949.0801 
  241700    295.88043   -1167.1063    6470.0369    11623.962    1898.9509 
  241800    300.33824   -1161.1795    6503.6408    11758.727    1901.9798 
  241900    303.52346   -1166.9622    6464.9971    11782.348     1929.635 
  242000    295.16296   -1169.9055    6345.7746    11481.573     1861.136 
  242100    302.10852   -1168.8321    6378.8627    11664.116    1930.9383 
  242200    302.72632   -1171.7129    6506.8142    11802.385    1995.3025 
  242300      300.764   -1161.1464    6418.4484    11682.663    1858.3088 
  242400    301.26391   -1169.0754    6421.1008    11688.067    1914.4039 
  242500    304.24199    -1164.225    6490.7768    11826.215    1984.6195 
  242600    295.11762   -1169.6135    6374.5768    11509.698     1937.972 
  242700    296.11666   -1171.5883     6315.116    11469.606    1871.0431 
  242800    303.37873   -1167.7565    6471.0944    11784.559    1945.7606 
  242900    301.65073   -1169.8886    6507.2838      11781.7    1906.2869 
  243000    302.37364    -1162.247    6482.1664    11779.668    1890.7196 
  243100    297.96699   -1164.1837    6418.6788    11620.103     1967.699 
  243200    301.67707   -1164.9366    6394.4328    11674.364    1954.8456 
  243300    300.73818   -1162.3628    6499.8399    11762.287    1967.3571 
  243400    301.02602   -1163.9134    6331.6506    11598.696    1894.1702 
  243500    297.20552    -1163.554    6436.7007    11622.487    1953.1059 
  243600    299.81416   -1167.1956     6435.803    11673.677    1876.7657 
  243700    298.38408   -1172.5361    6426.1767    11628.159    1858.6191 
  243800    301.78742   -1166.9451    6497.9348    11778.215    1921.2291 
  243900    296.86642   -1167.1821    6483.7699    11658.683    1865.5463 
  244000    304.90909    -1169.758    6273.9887    11618.146    1829.7379 
  244100    297.56485   -1160.2356    6362.4472    11559.228    1885.6863 
  244200    303.98298   -1159.0649    6557.7669    11892.832    1948.2892 
  244300    300.55677   -1159.8443    6447.1868    11708.277    1894.5093 
  244400     301.0402   -1156.0261    6333.4137     11608.65    1963.3493 
  244500    299.58928   -1164.2957     6441.873    11677.843    1959.6593 
  244600    301.78626   -1163.8577    6429.6279    11712.971    1890.7624 
  244700     299.8444   -1161.8826    6557.2899    11801.123    1948.9737 
  244800    298.40869    -1166.514    6388.5871    11597.117    1868.6836 
  244900    298.53667   -1164.3694    6341.4066    11554.815    1852.7545 
  245000    303.35613   -1162.5069    6528.6017    11846.833     1966.395 
  245100    302.42154   -1159.3764    6491.2519    11792.648    1960.0042 
  245200    297.21328   -1165.2495    6399.2245    11583.481    1927.7936 
  245300    302.20896   -1161.7786    6276.0627    11570.515    1963.0243 
  245400    300.84944   -1167.2819    6351.8536    11611.758    2008.8863 
  245500    294.70045   -1166.6295    6486.7043    11615.898     1951.859 
  245600    297.68042   -1163.9617    6362.2073    11557.731    1936.5263 
  245700    302.02259   -1172.7749    6391.7302    11671.205    1904.1728 
  245800    298.13833   -1164.9168    6404.0485      11608.4     1885.781 
  245900    298.93372   -1168.0985    6356.0258    11574.187     1856.102 
  246000    298.57939   -1162.6793    6458.3433    11674.355    1911.0861 
  246100    301.34306   -1161.7072    6439.1101    11715.135    1945.8936 
  246200    297.45468   -1169.5337    6347.5629    11532.692      1874.12 
  246300    302.48727   -1166.4478    6372.4486    11668.177    1940.0853 
  246400    299.24919   -1160.7683    6422.8845    11655.116    1949.0816 
  246500    298.65275   -1163.2837    6348.7111    11565.685    1805.3953 
  246600    296.85944    -1168.667    6408.1919    11581.471    1842.0046 
  246700    306.47674   -1162.6746    6522.2206    11906.951    1988.5457 
  246800    299.72856   -1171.2219    6428.6143    11660.633    1914.0603 
  246900    299.54062   -1167.3709    6334.7187    11566.573    1901.7221 
  247000     302.1224   -1164.2151    6389.8157    11679.982    1889.8302 
  247100    300.62567   -1157.3103    6393.8606    11658.957    1899.2706 
  247200    297.92423   -1159.6084     6428.698    11633.784    1886.9786 
  247300    299.10406    -1159.452    6520.4447    11750.892    1966.9119 
  247400    300.87541    -1160.503    6449.9219     11717.16    1938.9404 
  247500    300.30513   -1161.5513    6493.3738    11747.381    1957.3247 
  247600     299.5758   -1165.0652    6281.2753    11516.187    1899.9116 
  247700    300.00135   -1160.3298    6384.4004    11633.139    1884.3104 
  247800    297.78907   -1160.3185    6464.1738    11665.662    1871.6284 
  247900    300.37624   -1157.9178    6476.3846    11735.544    1911.7323 
  248000    301.52953   -1159.3172    6490.8661    11773.265    1925.4116 
  248100    303.28713   -1160.7858     6388.229    11706.707    1845.3996 
  248200    302.07345   -1165.3909    6269.3549      11557.3    1859.4939 
  248300    302.52982    -1162.237     6491.699    11792.547    1973.4159 
  248400    296.37518   -1159.1373    6480.2343    11652.698     1963.863 
  248500    305.39717   -1164.4184    6224.7487    11584.672    1873.7573 
  248600    298.32824   -1168.5223       6532.2    11737.003    1947.2679 
  248700    302.91959   -1171.5682    6515.9715    11815.816    1922.7423 
  248800      296.229   -1163.1868    6354.4302    11519.721      1879.91 
  248900    302.72981   -1170.3979    6342.3762    11639.336    1954.5787 
  249000    300.64329   -1167.3967    6397.8681    11653.254    1867.7704 
  249100    301.78199   -1168.4357    6489.3055    11767.979    1862.6246 
  249200    301.14442   -1168.2705     6453.847    11719.065    1863.6797 
  249300    296.38372    -1167.205    6388.0277    11552.606    1864.2821 
  249400    297.01052   -1171.6823    6300.5321    11474.024    1872.7786 
  249500     300.9366   -1166.0355     6406.155    11669.168    1899.1079 
  249600    297.31403   -1167.3062    6501.7155    11686.067    1936.9511 
  249700     304.0086   -1169.6734    6451.0279    11776.032    1966.2495 
  249800    296.07541   -1166.0784    6364.8377    11523.956    2005.7149 
  249900    300.16437   -1163.4318    6304.8172    11553.937    1977.7382 
  250000    302.90264   -1165.6093    6385.5344    11690.975     1951.212 
  250100    293.65712   -1163.0882    6408.5165    11518.962    1895.0027 
  250200    298.46672   -1160.3152     6370.857    11586.825     1890.179 
  250300    299.19548   -1159.9428    6484.2854    11716.195    1907.5923 
  250400    300.08009   -1163.7603    6428.6788    11675.669    1867.2072 
  250500    303.67817   -1164.2138    6463.4239    11786.828     1983.625 
  250600     302.4075   -1160.9054    6404.6477    11704.214    1923.4954 
  250700    296.17867   -1162.8701    6353.9625    11518.495    1862.6096 
  250800    307.91917   -1164.7613    6499.5448    11913.004    1971.5607 
  250900    299.07797   -1160.9481    6434.0477    11662.441     1897.368 
  251000     299.4964   -1159.9477    6410.5456    11648.879    1929.6144 
  251100    301.72979   -1160.4144    6455.0957    11740.675    1990.1103 
  251200    292.73016   -1153.6881    6404.2186    11504.261    1965.9603 
  251300    300.75287   -1155.1013    6366.4931    11636.515    1988.4204 
  251400    299.65855    -1157.095    6458.9422    11703.592    1978.4077 
  251500    299.35488   -1161.3359    6473.2301    11707.152    1959.9158 
  251600    304.06165   -1166.8307    6488.9475    11817.927    1998.6233 
  251700    300.69318   -1158.2754    6340.5749    11606.148     1907.295 
  251800    299.55705   -1156.8535    6356.4899    11599.213    1921.5105 
  251900    298.87675   -1166.2984    6450.9603    11669.705      1944.95 
  252000    298.60868   -1161.9921    6377.9017    11595.226    1964.1157 
  252100    302.37626   -1164.8664    6288.0165    11582.955    1958.3577 
  252200     298.0946   -1159.7498    6587.1698    11795.754    2025.1778 
  252300    299.75335   -1161.7492    6488.5272    11730.548    1927.3949 
  252400    300.76534   -1165.3404    6465.6966    11725.746    1946.5931 
  252500    299.98798   -1172.1726    6333.2187    11569.829    1934.4105 
  252600     301.0081   -1173.9517    6356.3769    11613.001    1993.4325 
  252700     303.8019   -1170.3847      6533.48    11853.357    2041.7483 
  252800    298.06745    -1170.678    6470.5037    11667.579    1977.1466 
  252900    299.13729   -1167.7345    6385.5725    11608.447    1910.2417 
  253000     305.4703   -1169.7218    6295.3736    11651.556    1943.6829 
  253100    298.64606   -1165.2125    6445.8388    11660.741    1909.0506 
  253200    297.97403   -1158.0761     6470.272    11677.954    1875.6851 
  253300    301.97793   -1170.4832    6405.4056    11686.218     1944.543 
  253400     298.1755    -1173.994    6440.2504    11636.318    1941.0047 
  253500    297.97847   -1172.6699    6409.4534    11602.636     1889.411 
  253600    301.37879   -1169.6023    6497.4856    11766.379    1937.4236 
  253700    296.07443   -1167.9994    6430.7163    11587.893    1860.5345 
  253800    301.55728   -1163.8273    6429.2416    11707.723    1940.8846 
  253900    296.16943   -1159.9232    6455.3338    11622.616    1947.5577 
  254000    300.64685   -1160.0139    6415.6743    11678.519    1922.4051 
  254100    296.49795   -1158.6834    6440.5034    11616.044    1984.0724 
  254200    304.46145   -1160.1918     6356.118    11700.278    1946.4999 
  254300    298.19055    -1162.823    6423.6854    11631.246    1935.3931 
  254400    298.56287   -1157.9138    6444.0255    11664.449    1917.3639 
  254500    305.07209   -1163.3303     6450.474    11804.541    1884.3841 
  254600    298.26283   -1162.3118    6470.8857    11680.502    1874.1996 
  254700    299.37109   -1163.9808    6388.4455    11620.069    1870.6155 
  254800    299.15208   -1155.7881     6449.227    11684.364    1883.4895 
  254900    300.86367    -1154.281    6431.5754    11704.785    1893.0175 
  255000    302.66311   -1160.6907    6426.8558    11732.098    1922.0196 
  255100    296.81028   -1156.6268    6338.4239    11522.693    1879.3029 
  255200    303.98571   -1161.3461    6415.5555    11748.398    1930.6433 
  255300      298.847   -1157.1528    6506.6547    11733.909    1915.7829 
  255400    300.04964   -1166.0729    6375.7585    11619.786    1866.4453 
  255500    302.75538   -1167.4581    6294.8268    11595.273     1898.583 
  255600     298.9686   -1172.8898    6445.7512    11659.867    1879.3797 
  255700    296.37555   -1162.8899    6487.0196    11655.739    1854.5545 
  255800    304.89829   -1162.8471    6462.3865    11813.223    1895.3484 
  255900    298.95114   -1157.0479     6492.918    11722.503    1922.0452 
  256000    301.36774   -1159.1778    6306.8722    11585.954    1895.0152 
  256100    301.94879   -1166.9397    6325.9433    11609.676       1943.5 
  256200    302.59455   -1161.8666    6552.5833    11855.185    1974.0057 
  256300    299.70408   -1165.7506    6406.9382    11643.905    1883.4572 
  256400    292.42396   -1161.9891    6443.1039    11528.304    1871.1128 
  256500    299.31994   -1170.8987     6410.329    11633.942    1877.5365 
  256600    299.21898   -1166.8771    6500.1741    11725.651    1907.9647 
  256700    301.92995   -1161.3796    6508.1963    11797.087    1943.1829 
  256800    297.20833   -1160.9334    6414.7248    11603.191    1908.3723 
  256900    301.14363   -1163.6039    6354.6007    11624.468    1941.8617 
  257000    295.10799   -1162.9646    6401.7793    11543.344    1942.4404 
  257100    301.59979   -1160.4844    6497.4524    11780.185    1961.8005 
  257200    301.01333   -1160.0724    6338.5067    11609.122    1857.2519 
  257300    299.22411   -1164.3662    6461.6062    11689.704     1937.363 
  257400    297.81354   -1161.1093     6488.315    11689.535    1938.9543 
  257500    303.21034   -1159.6665    6452.9618    11770.919    1899.3211 
  257600    296.62417   -1165.1715    6365.5887    11537.337    1831.4573 
  257700    298.73525   -1163.6208    6385.4726    11603.872    1914.5521 
  257800    305.32619   -1161.8556    6500.0792    11861.049    2007.9209 
  257900     299.1241   -1163.8494    6438.4959    11664.974    1939.2592 
  258000    295.42348   -1158.8983         6506    11658.371    1937.0518 
  258100    302.61995    -1159.985    6462.7225    11767.748    1848.0654 
  258200     296.4695   -1159.3118    6436.7831    11611.087    1901.1638 
  258300    303.59794   -1161.9946     6285.353    11609.263    1884.0559 
  258400     299.3076   -1169.6937    6501.3556    11725.909    2006.0448 
  258500    300.70996   -1160.7893    6529.3614    11792.779    1943.1556 
  258600    298.32386   -1166.2227    6484.5943    11691.603    1920.6798 
  258700    302.29351   -1171.2028    6392.1398    11678.974    1833.4523 
  258800    302.82507    -1171.676    6506.2951    11804.012    1896.2717 
  258900    295.86887   -1165.4079    6362.6444    11518.021    1863.2311 
  259000    302.33438   -1163.1242    6460.3042     11756.09    1968.4915 
  259100    301.38007   -1171.9695    6354.4417    11620.995    1990.1159 
  259200    301.19115   -1163.9051    6388.1245    11658.706    1978.3674 
  259300    300.45245   -1159.5185     6480.052    11739.239     1860.573 
  259400    296.47702   -1163.1714    6478.3005    11648.906    1876.7911 
  259500    300.78215   -1178.3277    6403.4587     11650.88    1906.6238 
  259600    298.97699   -1181.5325    6344.7089    11550.361    1865.0896 
  259700    296.59318   -1171.6651    6430.6096    11595.203    1811.0645 
  259800    292.95439   -1170.7453    6401.3003    11489.076    1780.3225 
  259900    293.59023   -1167.4157     6440.174    11544.863    1850.1562 
  260000     299.4545   -1166.1673     6387.207    11618.426    1809.3281 
  260100    303.39344   -1160.2223    6416.6513    11737.964    1940.5461 
  260200    295.39033   -1161.5434    6446.2215    11595.239    1937.8346 
  260300    296.73481   -1163.6499    6409.0204    11584.654    1878.1343 
  260400    305.93812   -1164.5976    6386.4032    11757.704    1903.8636 
  260500     299.5128   -1159.7883    6471.5881    11710.431    1960.9122 
  260600    298.50193   -1162.5201    6445.0715    11659.587    1877.2458 
  260700    300.63301   -1166.0872    6425.5125    11681.988    1833.3806 
  260800     297.1727   -1160.5742    6425.2016    11613.266    1874.6592 
  260900    298.83084   -1159.4406     6430.834    11655.456    1872.7449 
  261000    299.02376   -1157.1511     6425.316    11656.349    1878.1177 
  261100    299.73063   -1157.1143    6402.5441    11648.715    1903.3396 
  261200    302.82852   -1158.3299    6453.0366    11764.173    1933.9902 
  261300    296.95983   -1156.0776    6374.2944    11562.308    1892.7853 
  261400     304.4657   -1161.7445    6411.9507    11754.649    1852.9527 
  261500    295.95442   -1161.3616    6558.6037    11719.854    1870.2354 
  261600    298.50373    -1161.578    6486.5232    11702.019     1871.729 
  261700    299.62388   -1162.5303    6399.0749    11637.549    1831.3319 
  261800    302.27777   -1159.8109    6430.8132    11728.703    1902.4762 
  261900    295.97136   -1159.0213    6408.6493    11572.602    1902.7505 
  262000    303.42787   -1161.8693    6344.1727    11664.574    1821.4137 
  262100    296.74568   -1160.0208    6516.9399    11696.435    1993.9335 
  262200    303.07143   -1164.8313     6420.433    11730.258    1929.3704 
  262300    303.51676    -1162.932    6372.1619      11693.4    1869.3106 
  262400    300.94116    -1164.056    6369.6481    11634.738     1883.299 
  262500    300.21699    -1168.348    6508.5789    11753.906    1964.2679 
  262600    294.55614   -1163.8183    6470.6203    11599.542    1916.1799 
  262700    300.03096   -1163.5869    6342.9045    11589.019    1825.4766 
  262800    299.31652   -1165.8405    6421.4603    11650.058    1938.7884 
  262900     298.5499   -1163.8628    6458.6354    11672.833    1950.2363 
  263000     300.6297   -1166.5278    6434.5047    11690.469     1832.457 
  263100    303.78455   -1164.6924    6457.6828    11782.881     1903.433 
  263200    300.68431   -1163.2675    6341.9844    11602.376    1851.8156 
  263300    295.39797   -1164.7993    6467.3761    11613.301    1914.4707 
  263400    300.10086   -1163.3744    6474.1867    11722.007    1908.4344 
  263500      304.263   -1162.4663    6331.3824    11669.028       1867.9 
  263600    298.00049    -1164.176    6506.5565    11708.704    1939.2641 
  263700    300.28736    -1158.735    6395.5927    11652.036    1828.9368 
  263800    301.59184   -1160.3982    6394.0454    11676.694    1850.0469 
  263900    295.54913   -1163.9183    6381.3268    11531.362     1825.873 
  264000    296.89056   -1159.5217    6421.9116    11605.001    1833.1351 
  264100    300.12127   -1163.5253    6414.7556    11662.861    1836.1527 
  264200    301.11522     -1160.41    6453.1188    11725.573    1871.3241 
  264300    301.51926   -1165.2276    6387.7621    11664.031    1867.6561 
  264400    298.17013   -1162.4676    6351.3196    11558.799    1903.8589 
  264500    305.44972   -1160.1375    6445.1193    11810.446    1899.8033 
  264600    297.77844   -1160.7865    6498.0002    11698.793    1927.3929 
  264700    298.92315   -1156.7333    6473.3844    11702.685    1997.1624 
  264800    301.99541   -1156.8864    6421.6367    11716.419    1910.4401 
  264900    302.55316    -1160.324    6437.2922    11740.552    1900.1352 
  265000    299.57039   -1162.2957     6453.323    11690.889    1913.9541 
  265100    297.40741   -1163.6922    6402.2787    11592.239    1905.1542 
  265200    299.56362   -1162.0906    6393.9201    11631.547    1895.3618 
  265300    300.26372   -1164.4912    6423.6582    11673.841    1876.1357 
  265400    306.99517   -1165.2301    6420.2479    11813.498    1966.0783 
  265500    298.31827   -1161.3215    6470.0114    11681.802    1950.4638 
  265600     299.3765    -1158.692    6392.0508    11629.078    1891.2182 
  265700    299.45867   -1162.7988    6316.3897    11551.066    1874.0508 
  265800    298.20572   -1161.8705    6365.1698    11574.007     1872.592 
  265900    299.68155   -1161.1108    6495.3396    11736.465    1943.1658 
  266000    299.63199   -1163.0281    6433.1079    11671.257    1951.5694 
  266100    299.08309   -1163.5534     6271.759    11497.657    1864.8004 
  266200    301.95088   -1164.2763    6404.9122    11691.353    1925.6243 
  266300    296.90991   -1166.4879     6390.238    11566.775    1913.6616 
  266400    298.12369   -1165.5062    6415.6253    11619.074    1908.1595 
  266500    290.60684   -1166.3703     6476.971     11518.97    1910.6571 
  266600    300.51669   -1165.0188    6402.2425    11657.302     1911.321 
  266700    300.15743   -1163.5994    6358.8285    11607.632     1914.694 
  266800    297.02398   -1162.7802     6459.068    11641.749    1918.3263 
  266900     299.2564    -1167.395     6447.733    11673.492    1936.1963 
  267000    300.27771   -1159.6585    6474.0961     11729.41    1951.3131 
  267100    299.47827   -1165.4101    6381.0907    11613.574     1909.904 
  267200     299.3514   -1163.8294    6389.9519    11621.306    1886.4904 
  267300    298.05103   -1163.3699    6501.4179    11705.451    1926.0561 
  267400    301.55371   -1163.7717     6358.889     11637.35    1911.6133 
  267500     302.1836    -1165.011    6333.8598    11624.538    1897.0229 
  267600    300.47309   -1160.1365    6521.1061    11780.116    1872.9325 
  267700    300.76324   -1167.1082    6484.2352    11742.472    1941.1474 
  267800     302.7339   -1164.3746    6312.8641    11615.935    1870.2688 
  267900    298.62693   -1162.7659    6517.4886    11734.429    1943.0287 
  268000    307.47748   -1158.9223    6466.0879     11875.95    1946.7416 
  268100    303.19556   -1162.9681    6313.2673    11627.607    1965.3833 
  268200    296.44266   -1160.6235    6399.8658    11572.285     1912.245 
  268300    303.04199   -1157.6614    6474.1154    11790.481    1945.7345 
  268400     295.6109   -1160.1218    6285.1158    11440.267    1896.7516 
  268500    303.89941   -1170.0792    6384.6421    11706.907    1911.0482 
  268600    299.99513   -1165.9924    6559.5842    11802.528    1942.4791 
  268700    301.68705   -1168.0402    6356.7583    11633.799    1821.5832 
  268800    302.11667   -1164.8256    6377.1215    11666.555    1915.1803 
  268900    295.30282   -1162.8775    6483.4164    11629.231     1985.437 
  269000    300.56857   -1162.7835    6381.0094    11639.412    1921.5387 
  269100    302.82676    -1163.847    6357.5313    11663.113    1840.7146 
  269200    300.86402   -1158.6755     6546.526    11815.349    1950.9859 
  269300    301.10464   -1161.3266    6404.6973    11676.009    1887.9873 
  269400     297.4445   -1168.2423    6452.0947    11638.298    1951.6435 
  269500    299.03712   -1165.8287    6424.2785    11646.919    1889.0627 
  269600    300.97073   -1163.8392    6413.4969    11679.436    1892.4453 
  269700    295.95657   -1161.2496    6440.7381    11602.147    1892.7478 
  269800    301.11655   -1163.4469    6409.8679    11679.314    1895.1228 
  269900     301.1787   -1161.1315    6340.1808     11613.27    1841.9563 
  270000     300.4311   -1164.4365    6404.1871        11658    1939.8859 
  270100    297.95265   -1165.2681    6457.7416    11657.775    1885.9998 
  270200     298.5333   -1160.9909    6432.0474    11648.762    1908.3786 
  270300    302.06926   -1165.3331    6356.9808    11644.894    1926.4042 
  270400    299.25254   -1162.9726    6437.1536    11667.252    1876.4852 
  270500    300.12149   -1166.8178    6503.5247    11748.342    1871.8115 
  270600    298.78541   -1170.6703    6401.3877    11613.809    1873.3611 
  270700    298.97905   -1166.0816    6463.9233     11685.07    1861.6456 
  270800    303.48544   -1164.0329    6445.8098    11765.278    1868.4073 
  270900    300.08057   -1159.6542    6352.0949    11603.202    1947.4343 
  271000    298.09288   -1164.4388    6396.2901    11600.148    1942.4749 
  271100    302.56841   -1162.9842    6409.5773    11710.503    1924.9842 
  271200    301.28224   -1161.6868    6452.4998    11727.246    1956.5445 
  271300    300.64146   -1164.7684    6428.9409    11686.916    1904.5342 
  271400    295.59587   -1165.5848    6499.0631     11648.43     1943.056 
  271500    303.54773   -1166.7468    6342.9259    11661.011    1914.6693 
  271600    303.94306   -1168.5477    6422.1529    11746.882    1897.1904 
  271700    299.85239   -1165.6046    6506.8392    11747.121    1844.3252 
  271800    298.71486   -1163.6991    6516.7091    11734.595    1830.0007 
  271900    303.59312   -1162.9514    6355.4563    11678.306    1866.0951 
  272000    299.87974   -1163.0991    6273.5957    11516.967    1856.9947 
  272100    302.30564   -1163.2493    6425.8644    11720.911    1908.1478 
  272200    300.61063   -1165.3955    6522.6439    11779.333    1943.5395 
  272300    300.38051    -1153.966     6440.797        11704     1938.308 
  272400    298.86198   -1163.7457    6358.2544    11579.236    1882.0802 
  272500    306.59627   -1166.2639    6408.3913    11792.086    1991.6542 
  272600    297.24934   -1165.8115     6437.759    11622.223    1964.9301 
  272700    304.46031    -1157.767    6402.0395      11748.6     1854.708 
  272800    296.74952   -1163.4435    6486.2822    11662.437    1900.1923 
  272900     305.1157   -1162.5831    6392.4817    11748.227    1938.4225 
  273000    299.33167   -1166.2958    6412.5581    11641.024    1897.1864 
  273100    304.05937   -1162.6282    6464.1374    11797.271    1934.7283 
  273200    294.23819   -1165.7873     6426.829    11546.989    1971.2958 
  273300    301.50958   -1162.2363    6364.9392    11643.992    1902.7102 
  273400    304.48975   -1164.6227    6449.2927    11789.626    1949.8171 
  273500    298.30841   -1166.8485    6489.9889    11696.042    1978.8866 
  273600    301.99189   -1171.1174    6412.9039     11693.38    1915.3325 
  273700    295.79861   -1166.8118    6440.6347    11593.106    1867.9525 
  273800    303.72311   -1163.3242    6395.8997    11721.154     1938.116 
  273900    301.06083   -1161.9644      6281.72    11551.458    1849.3026 
  274000    292.99708   -1164.4514    6529.4303    11624.412    1927.5035 
  274100    298.63085   -1167.0409    6441.9603    11654.709    1912.1865 
  274200    296.17207   -1160.9453    6433.9104    11600.227    1931.3235 
  274300    298.10068   -1168.6429    6350.9714    11550.792    1830.3935 
  274400    304.98706   -1168.8892    6423.2317    11769.923    1941.9358 
  274500    298.17539   -1164.3361    6410.9019    11616.625    1901.8139 
  274600    297.14599   -1168.4952     6423.535    11603.108    1837.3863 
  274700    306.08324   -1171.2536    6464.0142    11831.759    1920.3631 
  274800    297.43996   -1170.4295    6437.8233    11621.742    1899.1593 
  274900    302.21619   -1163.0251    6365.0291    11658.389    1865.4052 
  275000    306.47105   -1164.7222    6432.1242    11814.686    1926.3557 
  275100    301.55575    -1155.078    6502.3275    11789.525    1932.7014 
  275200    300.27513   -1164.0762    6405.3967    11656.238    1896.2324 
  275300    300.72946   -1163.7375    6373.0589    11633.945    1913.5691 
  275400    305.43271   -1166.0834    6347.6668    11706.685    1917.1409 
  275500    296.91188   -1165.8794    6499.2495    11676.437    1878.9318 
  275600    298.58025    -1166.414     6484.067    11696.362    1873.5806 
  275700    298.53438   -1163.9824    6383.0497    11596.796    1921.9551 
  275800    305.22029   -1158.7492      6433.14    11794.954    1938.2642 
  275900    302.90373   -1157.5082    6412.4309    11725.996    1836.0613 
  276000    299.63013   -1155.3657    6434.6636    11680.436    1956.6015 
  276100    300.86126   -1162.3838    6380.4546     11645.51    1913.1805 
  276200    295.64455   -1166.8383    6384.2277    11533.382    1830.1882 
  276300    304.41714   -1161.5793    6524.3574    11866.183    1932.0117 
  276400    296.25193   -1166.0843    6542.7812    11705.665     1913.867 
  276500    294.94057   -1167.7032     6376.146    11509.396    1755.9531 
  276600    301.54223   -1166.6145    6434.0621    11709.435    1874.0164 
  276700    294.58218   -1162.9618    6306.0903    11436.425    1812.2134 
  276800    302.54396   -1159.9968    6433.5888     11736.98    1883.5952 
  276900    300.65368   -1158.5275    6447.1984    11711.676    1900.5083 
  277000    298.48818   -1164.0518    6367.3375    11580.028    1867.1571 
  277100     300.6683   -1156.1718    6393.8248     11660.97    1870.8336 
  277200    298.63378    -1163.359    6331.7605    11548.254    1812.0177 
  277300     306.4628    -1168.874    6470.4169     11848.65    1904.1753 
  277400    300.41036   -1169.9025    6441.3716    11689.275    1817.8205 
  277500    298.03433   -1164.8227    6387.4461     11589.67      1804.43 
  277600    302.71491   -1164.4845    6458.2298    11760.785    1837.1803 
  277700    301.01245   -1165.1208    6443.4392    11708.988    1834.3023 
  277800    308.09926   -1158.0503    6436.6877    11860.705    1898.6278 
  277900     299.3618   -1163.1216    6451.2893    11683.573    1909.4817 
  278000    301.60288   -1158.0468    6535.2788    11820.515    1912.9935 
  278100    300.35241   -1159.0173    6385.0308    11642.582    1826.7878 
  278200    298.59833   -1162.4727    6379.2665    11595.889    1903.4704 
  278300    301.75567   -1159.0471    6483.2271    11770.727    1901.5579 
  278400    300.35822   -1158.5179    6441.9422    11700.117    1883.0544 
  278500    300.45806   -1166.7267    6314.1578    11566.256    1801.4799 
  278600    299.59853   -1160.8002    6595.6542    11835.317    1872.3303 
  278700      301.708   -1164.0743      6502.29    11783.744    1833.1674 
  278800    302.14341   -1161.4852    6499.8843     11793.23    1984.8474 
  278900    295.76758   -1158.6299    6370.0977    11530.088    1910.8798 
  279000    303.33417   -1161.6758    6393.0703    11711.664    1840.0136 
  279100    302.35685   -1161.7783    6450.7761    11748.388    1843.1811 
  279200    299.97878   -1163.9074    6478.7492    11723.428    1846.5545 
  279300    299.50175   -1165.9547    6520.1545    11752.595    1876.5397 
  279400    300.10236   -1167.4023     6418.347    11662.171    1820.5065 
  279500    300.24883   -1166.1859    6330.1683    11578.338    1840.3712 
  279600    304.29922   -1167.1287    6441.2661    11775.023     1944.529 
  279700    297.06755   -1165.7235    6411.2936    11591.962    1825.6947 
  279800    302.78743   -1163.3456    6432.6203    11737.864     1848.305 
  279900    302.81458   -1161.7341    6453.7593    11761.194    1946.1811 
  280000    299.12107   -1161.6349    6298.7236    11527.351    1866.7063 
  280100    303.74826   -1169.2323     6403.497     11723.38    1893.0765 
  280200    300.71036   -1167.0371    6353.6372    11610.816    1885.4923 
  280300    296.11351   -1164.1825    6522.4479    11684.276    1930.6487 
  280400     300.1259   -1170.1668    6475.9629    11717.525    1957.0456 
  280500    300.86014   -1170.2272    6377.3525    11634.541    1912.9756 
  280600    297.70588   -1166.2623    6372.8416    11566.609    1891.6176 
  280700    295.13896   -1164.4656     6385.095     11525.82     1868.712 
  280800    301.98631    -1163.789    6484.0423    11771.728    1926.8277 
  280900    302.36796    -1158.985    6404.1768    11704.819    1910.6724 
  281000    300.43856   -1159.2573    6328.1844    11587.336    1920.8268 
  281100    299.57356   -1162.8858    6377.8692    11614.913    1877.7102 
  281200    297.70847   -1157.9888    6428.1571    11630.253    1907.5408 
  281300    302.57473   -1163.0053    6507.2205     11808.26    1948.4241 
  281400    300.65631   -1163.5657    6476.6176    11736.113    1831.4054 
  281500    299.35404    -1159.785    6333.9463    11569.401    1795.7437 
  281600    301.72656   -1161.3076    6473.7264    11758.344    1915.0535 
  281700    299.21247   -1161.4854    6400.7485    11631.478    1878.8321 
  281800     301.8075   -1157.5307    6381.0172    11671.141    1885.9437 
  281900    298.71759   -1149.8603    6458.1967    11689.979    1880.9932 
  282000    300.40051    -1158.264    6447.3451    11706.677    1826.0285 
  282100    306.98352   -1160.9541    6447.6455    11844.923    1925.4227 
  282200    294.72576   -1162.5203    6330.3507    11464.194    1887.9674 
  282300    304.57393   -1159.6364    6412.4471    11759.566    1882.5612 
  282400    298.48201   -1162.2427    6554.5164    11768.884    1952.9366 
  282500    299.36314   -1160.2522    6380.3465    11615.528    1883.9458 
  282600    295.06513   -1157.4411    6394.2676     11540.44    1851.0409 
  282700    304.21768     -1156.52    6419.2804    11761.904    1846.0789 
  282800    302.11872   -1153.7943    6489.0144    11789.523    1921.3719 
  282900    296.10183   -1165.9341    6376.4165    11536.244    1861.5271 
  283000    301.35904   -1166.8174    6378.2191    11649.475      1865.14 
  283100    299.95639   -1171.2928    6432.3845      11669.2    1855.6963 
  283200    297.91036    -1162.624    6523.3139    11725.088    1834.9006 
  283300    302.26262   -1173.8786    6377.9853    11661.484    1883.7784 
  283400     294.9245   -1171.5737    6388.8976    11517.933    1891.9462 
  283500    301.65658   -1164.4903    6442.2821    11722.222    1915.8329 
  283600     300.6657   -1172.0156    6387.3545      11638.6    1868.5342 
  283700    303.18236   -1174.4485    6403.9687    11706.546    1915.9445 
  283800     298.9596   -1170.5468    6475.0366    11691.303    1882.4167 
  283900     300.3695   -1169.7746    6326.5211     11573.68    1873.2513 
  284000    295.82597   -1173.8108    6341.5378    11487.595    1884.2556 
  284100    301.48041    -1172.004    6464.4303    11733.093    1946.6691 
  284200    303.11687   -1170.6105    6462.7008    11767.717    1927.0089 
  284300    296.27357   -1165.1119    6506.2726    11670.591    1833.2551 
  284400    300.97224   -1169.8009    6413.3958    11673.405    1874.1921 
  284500      298.172   -1171.0546     6407.798    11606.731    1916.7414 
  284600    306.18899   -1165.6032    6354.0329    11729.688    1860.0935 
  284700    299.72236   -1162.9856    6583.8123    11823.935    1951.6956 
  284800    298.79371   -1165.1448    6394.9992    11613.123    1910.3185 
  284900    306.45227   -1160.6476    6310.2973    11696.532    1899.3265 
  285000    296.49626   -1161.3875    6432.4112    11605.211     1870.379 
  285100    301.45419   -1161.9937    6546.9916    11825.104    1876.1993 
  285200    301.93416   -1163.9127     6449.194    11735.641    1849.0094 
  285300    299.16699   -1166.1082    6234.2623    11459.398    1778.9951 
  285400    295.81112   -1159.2246    6429.4831    11589.809    1823.9089 
  285500    301.43794   -1158.3821    6587.1444    11868.521     1864.515 
  285600    297.38675   -1162.6513    6418.8307    11609.391    1766.9123 
  285700    305.69711   -1156.5165    6461.2026    11835.436     1859.812 
  285800    298.05195   -1160.0744    6411.4064    11618.755    1877.1663 
  285900    299.71007   -1156.9435      6336.99    11582.892     1850.926 
  286000    300.08592   -1158.7211    6499.1283    11751.282    1875.7344 
  286100    306.69623   -1156.4447    6487.8242    11883.474    1860.3283 
  286200    296.91088   -1161.7304    6433.6483    11614.963    1811.7783 
  286300    299.70207   -1167.0035    6328.0117    11563.683    1842.2867 
  286400    304.48226   -1165.3108    6308.8549     11648.34    1829.9359 
  286500    300.66383   -1167.6559    6462.9917    11718.557    1866.3985 
  286600    300.37791   -1163.7926    6454.6629    11707.983    1860.8781 
  286700    302.35477   -1169.6706    6413.4983    11703.173    1899.5502 
  286800    299.92801   -1167.8776    6332.0523    11571.677    1887.8958 
  286900    303.88808   -1166.4655    6368.6101    11694.247    1865.4614 
  287000    295.84639   -1163.6501     6451.492    11608.146    1857.2573 
  287100      302.443   -1172.2328    6460.1345    11749.132     1828.527 
  287200    297.96376   -1165.9002    6515.1709    11714.809    1823.6946 
  287300     297.5761   -1173.0014    6372.3209    11556.576    1825.6736 
  287400    303.39932   -1173.8684    6385.3428    11693.135     1851.898 
  287500    302.20613   -1166.6055    6373.4154     11662.98    1827.0199 
  287600     298.3928    -1169.046    6450.0574    11655.716    1929.3621 
  287700    306.55515   -1160.8263     6439.262    11827.516    1856.6669 
  287800    301.56493    -1160.459    6329.0312    11611.044    1900.3339 
  287900    298.94294   -1167.5127    6397.3665    11616.311    1898.8622 
  288000    300.68562   -1169.2497    6429.4381    11683.875    1895.5728 
  288100    294.79438    -1173.533     6467.876    11592.173    1898.4708 
  288200    300.77617   -1164.6979    6447.1713    11708.095    1930.7297 
  288300     300.4194   -1160.4367    6415.6311    11673.194    1924.1383 
  288400    296.66325   -1162.2999    6370.7027    11546.158    1861.5532 
  288500    302.88877   -1156.8187      6429.25    11743.185    1904.3581 
  288600     300.4889   -1158.2749    6388.6141    11649.823    1913.0751 
  288700    299.95026   -1162.6723    6482.1972    11727.502    1929.3059 
  288800    299.42423   -1155.2955    6470.5372    11711.981    1909.4792 
  288900    303.00283   -1154.9879    6423.6585    11741.861    1895.0217 
  289000    292.49064   -1161.0121    6433.5059    11521.107    1858.1347 
  289100    303.60854   -1157.7358     6517.403    11845.798    1907.0069 
  289200    297.65522   -1155.5812     6411.185    11614.551    1872.6407 
  289300    303.77172   -1157.3059    6354.3872    11686.698    1871.4652 
  289400     302.2299   -1158.1714    6372.4982    11671.005    1884.7479 
  289500    298.89589   -1158.6651    6489.5039    11716.291    1916.9363 
  289600    294.57885   -1161.1288    6472.0435     11604.14    1865.9754 
  289700    307.53024   -1166.2303    6390.9371    11794.618    1952.1045 
  289800    297.51091   -1168.5323    6347.9355    11535.267    1931.7839 
  289900    300.99179   -1160.0365    6486.1143    11756.306    1912.1693 
  290000    299.94216   -1158.3685    6454.8199    11704.255    1850.9172 
  290100    300.52044   -1169.5178    6403.2942    11653.935    1914.2246 
  290200    295.78357   -1164.4624    6422.2218    11576.722    1837.3508 
  290300    305.89331   -1159.3584     6457.514    11833.097    1840.4122 
  290400    299.29037   -1162.9521    6453.9664    11684.894    1898.4329 
  290500    303.26739   -1167.0344    6387.9762    11699.784    1824.2208 
  290600     298.5476   -1167.8847    6449.0591    11659.186    1847.7355 
  290700    299.48211   -1168.1893    6374.0516    11603.838    1869.8514 
  290800    297.58255   -1170.4643    6526.9057    11713.836    1949.3906 
  290900    301.04141   -1167.0349    6380.6338    11644.887    1871.5817 
  291000    301.61843   -1166.9784    6320.8565    11597.493    1885.6552 
  291100    296.39613   -1167.6104    6467.0443    11631.483    1867.0078 
  291200    300.26521   -1167.4722    6453.0089    11700.242    1841.3922 
  291300    301.39913   -1166.7774    6392.1001    11664.253    1887.0388 
  291400    301.30725   -1164.1688    6471.4972    11744.296    1939.3945 
  291500    301.32541   -1167.0595    6421.8548     11692.15    1863.4257 
  291600    300.29182    -1167.818     6520.737    11768.193    1958.4572 
  291700    296.75351   -1161.2519    6380.5233    11558.955    1871.2251 
  291800    303.49267   -1164.4827    6343.7305    11662.903    1827.4407 
  291900    296.61207   -1158.7019    6559.7581    11737.718    1912.1433 
  292000    305.26853   -1159.8458    6523.1624     11884.91    1942.7931 
  292100    297.31702   -1159.0993    6387.2428    11579.866    1874.7656 
  292200     297.8998   -1164.5547    6302.9377    11502.555    1791.9472 
  292300    301.45692   -1157.0558    6532.2259    11815.335    1881.5728 
  292400    298.72064   -1163.6155    6433.8889    11651.981    1870.6354 
  292500     306.6496   -1163.5471    6447.1919    11834.743    1869.3019 
  292600    296.74103   -1164.4868    6453.0143    11627.944    1901.1111 
  292700    297.55303   -1162.4483    6340.8294    11535.145    1883.1231 
  292800     299.5184   -1158.5363    6449.1029    11689.318     1915.686 
  292900    293.77819   -1162.1862    6473.6766    11587.611    1874.3533 
  293000    301.63127   -1160.1688    6456.4365    11740.157    1874.1041 
  293100    295.74189   -1165.1411    6414.5786    11567.509    1836.1879 
  293200    300.19161   -1165.6036    6335.6632    11583.193    1829.1923 
  293300    300.88291   -1164.1231    6398.5557    11662.334     1899.337 
  293400    299.45296   -1165.6211    6502.6896    11734.422    1912.9428 
  293500    296.91124   -1167.4918    6408.2314    11583.793    1853.0368 
  293600    300.04413   -1165.6925    6357.6148    11601.905     1846.696 
  293700    300.70616   -1167.1745     6472.768    11729.719    1857.3816 
  293800    297.41548   -1167.1188    6503.6259    11690.332    1835.3621 
  293900    302.99512   -1169.0422    6253.1715    11557.155    1831.1264 
  294000    299.25146   -1164.6462    6449.4382     11677.84    1900.0386 
  294100    300.83059   -1168.3277    6525.5249    11783.981    1839.4405 
  294200    301.72273   -1162.7209    6400.6554    11683.778    1877.2663 
  294300    293.61667   -1165.2753    6380.0962    11487.491    1904.5037 
  294400    295.81893   -1168.1685    6439.7102    11591.259    1871.8382 
  294500    302.14698   -1162.4249    6452.7515    11745.233     1903.934 
  294600    297.53755   -1163.6913    6355.2971    11548.039    1876.2901 
  294700    301.27814   -1158.4049    6446.2421    11724.182    1892.6446 
  294800    303.54721     -1165.95    6403.8721    11722.742    1865.1378 
  294900    301.81226   -1166.0071    6308.6295    11590.378    1808.4866 
  295000    298.19487   -1168.2302    6520.0719    11722.318    1909.2358 
  295100    301.06367   -1167.2643    6449.8874    11714.387    1827.9603 
  295200    294.67737   -1163.4251    6496.0025    11627.907    1872.3654 
  295300     302.2241    -1159.614    6386.3553    11683.295    1927.3235 
  295400    294.34683   -1156.4954    6431.7096    11563.483    1936.5183 
  295500    302.99988   -1161.0218    6466.3566    11778.462    1905.5331 
  295600    298.78985   -1158.6528    6399.1837    11623.718    1911.6074 
  295700    294.71786   -1162.8661    6430.4439    11563.773    1949.2429 
  295800    303.50456   -1167.5771    6408.0171    11724.349    1885.1982 
  295900    296.20018   -1166.5641    6468.4236    11629.722     1873.349 
  296000    301.17332   -1168.2554    6502.5408    11768.391    1898.8142 
  296100    299.64316   -1166.8206    6344.3621    11578.958    1868.1089 
  296200    299.55898   -1163.0693    6506.4208    11742.969     2007.858 
  296300    303.64681    -1164.316    6403.9763    11726.609    1965.6102 
  296400    305.08889   -1161.5399    6342.1365    11698.353    1997.5586 
  296500    297.93478   -1163.1122    6424.4239    11626.231    1959.3098 
  296600    303.94088   -1158.0316    6428.6212     11763.82    1947.7395 
  296700    299.32751   -1168.5668    6411.7104    11637.817    1817.8578 
  296800    298.90312   -1173.2144     6414.399    11626.791    1865.3905 
  296900     297.5177   -1174.9466     6366.193    11547.256     1884.396 
  297000    306.33737   -1171.6446    6407.4736    11780.257    1914.0078 
  297100    299.17418   -1171.6017    6473.3749     11693.17    1912.0398 
  297200    298.81699   -1168.4299    6373.0406    11588.377    1899.6682 
  297300    299.82287    -1166.821    6527.3748     11765.81    1935.9826 
  297400    300.19494   -1165.9109    6445.5339    11692.827    1907.2985 
  297500    304.09253   -1169.1807    6372.8255    11700.115    1920.3271 
  297600    299.41755   -1163.6652    6433.9387     11666.87    1909.3145 
  297700    298.18644   -1168.0094    6495.1769    11697.463    1906.1132 
  297800    302.53819   -1168.8541    6398.9799     11693.39    1846.9625 
  297900    301.33454   -1170.8139    6547.1647    11813.901    1953.0339 
  298000    298.97979   -1170.7403     6429.393    11645.897    1891.8607 
  298100    298.05988   -1170.1907    6312.7074    11510.109    1854.6233 
  298200    300.88552   -1162.8297    6482.2025     11747.33     1974.966 
  298300    297.31379   -1158.0342    6456.2222    11649.841    1921.2247 
  298400    296.98866   -1157.8208    6381.2875    11568.174    1908.9748 
  298500    305.35992   -1154.7159    6376.5401     11745.37     1993.275 
  298600    298.82906   -1159.8986    6297.7867    11521.912    1899.3421 
  298700    299.45131   -1162.1556    6367.1006    11602.263    1885.4092 
  298800    304.87982   -1162.0294    6458.2347    11809.495    1922.6464 
  298900    294.50069   -1161.2657    6455.4146    11585.704    1858.8312 
  299000    298.88523   -1162.3401    6435.1668    11658.051    1836.2215 
  299100    302.42449   -1167.4392    6503.5247    11796.921    1948.4167 
  299200    299.53093   -1168.1452    6374.9805    11605.854     1921.086 
  299300    301.10532   -1163.4525    6317.8072    11587.008    1862.8997 
  299400    303.40344   -1157.0988    6418.3177    11742.968    1900.3604 
  299500     299.2538   -1154.4235    6520.4583    11759.133    1937.0114 
  299600    299.58152   -1160.4452    6403.8119    11643.466    1862.9907 
  299700     300.3374   -1165.1404    6357.9822     11609.09    1947.0501 
  299800    298.23734   -1161.7185      6333.62    11543.285    2042.8246 
  299900    303.56587   -1170.0694    6463.3172    11778.467    1940.4668 
  300000    296.74571   -1170.8981    6495.4051    11664.024    1819.3037 
Loop time of 282.036 on 8 procs for 300000 steps with 7168 atoms

Pair  time (%) = 137.653 (48.807)
Bond  time (%) = 80.962 (28.7063)
Neigh time (%) = 19.5748 (6.94054)
Comm  time (%) = 29.1566 (10.3379)
Outpt time (%) = 0.460742 (0.163363)
Other time (%) = 14.2283 (5.04487)

Nlocal:    896 ave 901 max 893 min
Histogram: 1 2 2 0 0 1 0 1 0 1
Nghost:    2842.75 ave 2847 max 2838 min
Histogram: 1 1 0 0 1 1 2 1 0 1
Neighs:    23628.1 ave 24001 max 23343 min
Histogram: 3 0 0 1 0 1 1 1 0 1

Total # of neighbors = 189025
Ave neighs/atom = 26.3707
Ave special neighs/atom = 157.056
Neighbor list builds = 3054
Dangerous builds = 0
unfix           NVT
# −−−−−−−−−−−−−−− Equilibration in nve −−−−−−−−−−−−−−−−−
fix             NVE all nve
run             300000
Memory usage per processor = 11.5453 Mbytes
Step Temp E_pair E_mol TotEng Press 
  300000    296.74571   -1170.8981    6495.4051    11664.024    1819.3037 
  300100    299.68486   -1170.9651    6432.6768    11664.019      1914.77 
  300200     300.3104   -1166.3256      6414.72    11664.065    1895.5707 
  300300    298.40598   -1168.0827    6457.0963    11663.999    1859.1124 
  300400    301.24579   -1160.4988    6388.8044     11663.96     1835.439 
  300500    299.99735   -1162.4562    6417.4872    11664.014    1916.5481 
  300600    301.95789   -1167.5391    6380.6724        11664     1926.443 
  300700    303.33448   -1172.0214    6355.7901    11664.044     1937.048 
  300800    303.08128   -1171.2346    6360.4368    11664.069    1876.6347 
  300900    295.09946   -1168.9024    6528.5977    11664.042    1830.0781 
  301000    299.67546   -1168.7766     6430.676    11664.006     1886.964 
  301100    304.55936   -1167.2475    6324.7952    11663.991    1929.4975 
  301200    294.98789   -1163.5034    6525.5111    11663.971    1914.6925 
  301300     303.4615   -1162.2188    6343.1728    11663.943    1822.2848 
  301400    296.84941   -1158.4789    6480.6435    11663.897    1874.1349 
  301500    300.18213   -1161.6523    6412.5722    11663.851    1875.7968 
  301600    301.12156    -1165.415    6396.2068    11663.792    1822.5639 
  301700    301.93379   -1163.7206    6377.2489     11663.88    1806.5764 
  301800    299.58968   -1161.9119    6425.5135    11663.875    1835.7172 
  301900    301.46643   -1159.7259    6383.1621    11663.804    1792.8652 
  302000    298.36836   -1167.3541    6457.0309    11663.859    1811.3605 
  302100    302.46189   -1164.0233    6366.2253    11663.836    1886.8754 
  302200    297.15577   -1157.2719    6472.8302    11663.835     1947.536 
  302300    304.96347   -1158.7864    6307.5276    11663.818    1896.4277 
  302400    297.49832    -1156.108    6464.3779    11663.865    1940.2415 
  302500    303.29839   -1159.7016    6343.9506    11663.754    1959.1101 
  302600    298.45251    -1164.347    6452.1241    11663.757    2027.4295 
  302700    302.01871   -1165.3993    6377.0253    11663.792     1940.848 
  302800    295.43617   -1157.1394     6509.452    11663.853    1988.6295 
  302900    301.50221   -1160.5435    6383.2336    11663.822    1972.4585 
  303000    298.83005   -1161.4564    6441.1718    11663.761    2036.6374 
  303100     302.1446   -1165.1312    6374.1153     11663.84    1978.5163 
  303200    296.91889   -1162.2344    6482.9007    11663.883    1923.4786 
  303300    302.54689   -1168.2029    6368.6389    11663.886    1878.7414 
  303400    297.04686   -1160.4195    6478.3911    11663.922    1925.2201 
  303500    300.74648    -1165.524    6404.4994    11663.963    1963.9663 
  303600    300.39067   -1167.7547    6414.2038    11663.835    1942.3548 
  303700    297.19746   -1161.1493    6475.9172    11663.936    1921.1111 
  303800    302.37633   -1160.8881    6365.0417     11663.96    1981.8413 
  303900     299.5671   -1164.2456    6428.4002    11663.946    2038.5554 
  304000    300.84386   -1164.3841     6401.293    11663.976    1981.0553 
  304100    299.80457   -1162.4128    6421.3813    11663.833    1911.6271 
  304200    299.56471   -1165.3497    6429.6237    11664.014    1944.9482 
  304300    298.38879   -1161.3039    6450.6333    11663.948    1911.0472 
  304400    297.29191   -1162.7292    6475.5104    11663.967    1846.2541 
  304500    301.61152   -1164.1821    6384.6723    11663.957    1923.8775 
  304600    296.42319   -1166.4421    6497.7223    11663.907    2024.9763 
  304700    298.67033    -1156.545    6439.7332    11663.822    1892.9911 
  304800    301.98799   -1160.6957    6373.0228    11663.837    1944.7331 
  304900    296.57449   -1165.1298    6493.1776    11663.907    1998.1969 
  305000    304.06221   -1163.0405    6331.0612    11663.843    1967.0072 
  305100    299.76211   -1164.5775    6424.5332    11663.913    1945.5455 
  305200    300.38957   -1159.0094    6405.5104    11663.863    1956.7658 
  305300    298.76623   -1161.1166    6442.4197    11663.985    1920.0161 
  305400    297.28745   -1166.8403    6479.5948    11663.845     1879.701 
  305500    300.54697    -1159.844    6402.9534    11663.834    1865.2549 
  305600    297.21656   -1161.9173    6476.2246    11663.883    1856.5467 
  305700    299.91691   -1168.4486    6425.0118    11663.828    1883.6426 
  305800    302.02896   -1165.1864    6376.5582    11663.757     1942.545 
  305900    297.24298   -1158.8452     6472.509    11663.804    1963.5019 
  306000     303.7827   -1155.9129    6329.9518     11663.89    1939.5652 
  306100    296.43323   -1161.0519    6492.0899    11663.879    1946.9608 
  306200    299.54148   -1163.1956    6427.8381    11663.887    1865.1371 
  306300    300.16292   -1163.4976    6414.8277     11663.85    1893.8966 
  306400    298.95173   -1166.8367    6444.1688    11663.977     1872.315 
  306500    301.26719   -1170.1145    6397.9241    11663.921    1826.1548 
  306600    298.72733    -1168.388    6450.4912    11663.954    1911.5759 
  306700    300.64635   -1163.6596    6404.6833    11663.872    1919.9244 
  306800    298.94466   -1164.1199    6441.4584    11663.833     1901.585 
  306900    302.70731    -1158.991    6355.9558    11663.842    1947.6257 
  307000    300.97254   -1154.2321    6388.1495    11663.734     1894.036 
  307100    296.87634   -1159.5138    6480.9628    11663.756     1949.458 
  307200    302.33335   -1160.6753    6365.4879    11663.701    1896.6235 
  307300    301.47194   -1167.9021    6391.1519    11663.735    1902.2501 
  307400    295.70483   -1167.4548    6513.9877    11663.813    1866.4589 
  307500    296.67223   -1164.0112    6489.8753    11663.811    1855.8351 
  307600    301.30502   -1166.5534    6393.4477    11663.814     1906.765 
  307700    298.00945   -1161.3979    6458.6917    11663.808    1922.9223 
  307800    298.76539   -1157.6999    6438.8135    11663.778    1880.6362 
  307900    298.82948   -1160.6148    6440.3261    11663.745    1928.6667 
  308000     298.7073   -1157.2648    6439.5139    11663.672    1918.6155 
  308100    300.43075   -1157.3194    6402.8123    11663.735    1933.3374 
  308200    301.66722    -1157.534    6376.7084    11663.832    1960.6453 
  308300    297.01549    -1163.082    6481.6571    11663.855    1943.1722 
  308400    302.13605   -1167.8623    6377.1434    11663.954    1891.6329 
  308500    296.18251   -1168.7104     6505.136    11663.911    1951.9718 
  308600    302.62332   -1162.9088    6361.7523    11663.926    1909.1811 
  308700    297.29368   -1162.5002    6475.1661    11663.889    1939.4114 
  308800    301.61279   -1160.1986    6380.6736    11663.969    1950.4564 
  308900    297.88203   -1160.0184    6460.2375    11664.012    1978.1431 
  309000      302.067   -1158.8458    6369.5696    11663.922    1933.8349 
  309100    299.05663    -1161.753     6436.693    11663.826     1907.401 
  309200    301.45998     -1165.86    6389.5995     11663.97     1897.596 
  309300    297.89099   -1170.6255    6470.6393    11663.998    1872.0414 
  309400    302.37308    -1167.566    6371.8016    11663.973    1813.9045 
  309500     303.7754    -1166.445     6340.708    11663.958    1892.5559 
  309600    291.41705   -1161.4601    6599.7823        11664    1939.0227 
  309700    305.51927   -1162.8949    6299.9096    11663.965    1872.5112 
  309800    299.60585   -1163.0528    6426.3492    11663.916    1913.0822 
  309900    294.95495   -1164.4845    6527.1828    11663.958    1941.9098 
  310000     303.1973   -1162.7878    6349.3916    11663.949    1973.1412 
  310100    298.78581   -1158.9842    6439.7744     11663.89    2001.1612 
  310200    299.70632   -1162.7724    6423.8869     11663.88    1928.4023 
  310300    299.77047    -1161.173    6420.8431    11663.806    1943.9124 
  310400    302.52398   -1163.7562     6364.603    11663.807    1866.7762 
  310500    298.03493   -1165.4633    6462.2858    11663.881    1803.8145 
  310600    296.76442   -1161.3293      6485.23    11663.817    1835.4056 
  310700    301.62585   -1163.2976    6383.3464    11663.822    1889.1257 
  310800    301.28195   -1159.8425     6387.301    11663.885    1946.3857 
  310900     299.7632   -1160.9187     6420.733    11663.795    1909.7329 
  311000     297.0677   -1156.7379    6474.1268    11663.785    1877.5296 
  311100    301.72398   -1156.1008     6374.039    11663.808    1890.2086 
  311200    297.51815   -1163.8071     6471.634    11663.846    1984.1812 
  311300    301.67774   -1164.1075    6383.0469    11663.821    1877.0469 
  311400    300.50967   -1163.9311    6407.8332     11663.83    1856.0085 
  311500    297.90677   -1162.4593    6462.0667    11663.928    1838.6906 
  311600    299.78685   -1165.9246    6425.3902    11663.952    1846.0012 
  311700    300.65311   -1167.3932    6408.3244    11663.923    1892.1498 
  311800    297.88024   -1163.4173    6463.5565    11663.893    1933.8907 
  311900    303.68166   -1163.0928    6339.3349    11663.935    1915.0142 
  312000    299.18413   -1164.2416     6436.579    11663.947    1911.8254 
  312100    300.24019   -1163.2804    6413.0416    11663.932    1891.6793 
  312200    297.79637   -1152.4747    6454.4912    11663.979    1899.9174 
  312300    303.61354   -1168.3872    6346.1553    11664.005    1893.2249 
  312400    298.52375   -1160.7394    6447.1987    11663.961     1905.872 
  312500    302.57854   -1167.0808    6366.9568    11664.002    1916.8274 
  312600    298.48834   -1166.0038      6453.27    11664.012    1896.2293 
  312700    297.56453   -1166.0437    6473.0132    11663.979    1886.4463 
  312800    301.12069   -1168.3648     6399.275    11663.892    1823.7826 
  312900     299.1393   -1166.7439    6439.9845    11663.893    1918.5253 
  313000    302.21255   -1156.9535    6364.5194    11663.873    1912.7939 
  313100    299.72663   -1158.8991    6419.5428    11663.843    1886.4788 
  313200    296.52184   -1162.7581    6491.7766    11663.753    1954.4195 
  313300    299.82844   -1156.5496     6414.957    11663.782    1897.6588 
  313400    299.29372    -1161.798    6431.6287    11663.782    1890.8108 
  313500    297.69717   -1165.4084    6469.4345    11663.869    1921.2677 
  313600    301.54036   -1163.1901    6385.0005    11663.758    1829.4872 
  313700    298.46428    -1162.829    6450.3007    11663.703    1887.5657 
  313800    299.30585   -1160.3299    6429.8068    11663.687    1896.3547 
  313900    301.70556   -1157.7497    6376.0073    11663.734    1878.6831 
  314000      303.009   -1156.4521      6346.79     11663.66    1904.2184 
  314100    299.62066   -1157.3308    6420.1007    11663.705    1906.2211 
  314200    300.63011    -1155.521    6396.7746    11663.754    1940.8745 
  314300    295.59324   -1157.4494    6506.3419    11663.789    1967.3151 
  314400    301.65078   -1163.5753    6383.1975    11663.928    1890.4902 
  314500    305.50105   -1167.8451    6305.2629    11663.979    1878.9858 
  314600     297.1888   -1162.9593     6477.929    11663.952     1919.179 
  314700    301.34464   -1162.5605    6388.6948      11663.9    1837.6337 
  314800     298.3236   -1161.4484    6452.1186    11663.896    1925.5001 
  314900    301.42689   -1162.1023    6386.4886    11663.909    1901.1668 
  315000    299.24122   -1162.0783    6433.1714    11663.923    1936.8125 
  315100    297.86988   -1161.7495    6462.0619    11663.845    1914.6205 
  315200      300.764   -1158.5906    6397.1305    11663.901    1892.8832 
  315300    303.87301   -1165.3523    6337.4783    11663.907    1864.6883 
  315400    297.47966   -1167.5548    6476.2719    11663.914    1926.8379 
  315500    303.21958   -1166.9012    6353.0175    11663.937    1953.1553 
  315600    300.61803   -1169.2699    6410.9133    11663.886     1914.372 
  315700    300.04191   -1163.3851    6417.3541    11663.904    1866.7894 
  315800    299.54953   -1168.8654    6433.4208    11663.971    1863.9762 
  315900    295.02214   -1166.5873    6527.8422     11663.95    1873.2047 
  316000    302.35539   -1158.1537    6362.6691    11663.874    1894.9641 
  316100    297.75057   -1162.0914    6465.0234    11663.916    1950.7746 
  316200    299.50526   -1163.7663    6429.1775    11663.882    1902.7399 
  316300    302.09691   -1158.5127    6368.5018    11663.826    1878.3127 
  316400    298.19806   -1164.0923    6457.3668    11663.818    1925.8301 
  316500    299.75458   -1167.3626    6427.4904    11663.925    1911.3826 
  316600    297.79022   -1158.8637    6460.9732    11663.941    1887.4999 
  316700    300.08124   -1163.9183    6416.9977    11663.855     1936.707 
  316800    299.72647   -1162.6636    6423.3128    11663.845    1975.6442 
  316900    299.56488   -1160.8405     6424.972    11663.876    1923.2064 
  317000    296.80784   -1161.3828     6484.464    11663.925    1907.4775 
  317100    300.28196    -1154.591    6403.3608    11663.833    1875.7381 
  317200    302.43474   -1158.2474    6360.9856    11663.792    1905.3775 
  317300    301.34236   -1162.1949    6388.3202    11663.843    1958.8987 
  317400    300.96195   -1160.6337     6394.867    11663.824      1885.98 
  317500    299.67511   -1157.8297     6419.479    11663.748    1849.5395 
  317600    299.31589   -1163.7222    6433.1277     11663.83    1888.6879 
  317700    297.41827   -1166.5667    6476.5868    11663.905    1903.4967 
  317800    298.31592   -1166.5021    6457.3793    11663.939    1895.5101 
  317900    301.75942   -1159.4843    6376.6978     11663.84     1881.685 
  318000    294.75851   -1159.7568    6526.6027    11663.909    1963.7865 
  318100    301.27023    -1161.599    6389.3359    11663.913    1925.5663 
  318200    300.39326   -1161.8903    6408.3978    11663.948    1932.4452 
  318300    299.10503   -1162.1363    6436.1134    11663.897    1918.0526 
  318400    299.34507   -1170.4414    6439.3441    11663.951     1964.567 
  318500    303.76498   -1167.4764    6342.0423    11664.039    1895.5103 
  318600    294.30123   -1169.5629      6546.36    11664.091    1896.4837 
  318700    303.88964    -1168.338    6340.1187    11663.917    1842.5862 
  318800    297.51355   -1163.4697    6471.5518    11664.003    1918.1646 
  318900    300.12243   -1166.2577    6418.6294    11664.027    1877.6958 
  319000    301.36287   -1166.4303    6392.2122    11663.937    1893.6364 
  319100    298.42132   -1161.8245    6450.4117    11663.901    1872.4352 
  319200     302.2874   -1164.0621    6370.0172    11663.862    1851.1412 
  319300    300.24556   -1161.0364    6410.5856    11663.835     1865.759 
  319400    301.80209   -1162.8189    6379.1327    11663.852    1873.2474 
  319500    297.09521   -1163.1179    6479.9833    11663.849    1907.7696 
  319600    297.84532   -1160.4982    6461.4054    11663.915    1909.2646 
  319700    301.31066   -1165.1531     6392.016    11663.903    1895.7245 
  319800    302.52213   -1168.7577    6369.6965     11663.86    1966.1566 
  319900    298.56668   -1163.5993    6449.0941    11663.914    1918.7413 
  320000    298.26205   -1161.6426    6453.6507    11663.919    1935.9826 
  320100    300.41057   -1164.1907    6410.2026    11663.823     1931.484 
  320200      298.828   -1159.2094    6439.0577     11663.85    1948.9008 
  320300    299.98115   -1155.8232    6411.0603    11663.874    1946.1382 
  320400    297.36992   -1160.6799     6471.698     11663.87    1969.5672 
  320500    300.02217   -1164.3727    6418.7236    11663.864    1886.4119 
  320600    300.08774   -1162.8202     6415.692    11663.786     1892.199 
  320700    296.57536   -1165.5876    6493.6939    11663.984    1951.7643 
  320800    301.13652   -1167.4648    6398.1262    11663.981     1940.994 
  320900    300.65443   -1166.6613    6407.6124    11663.972    1934.6655 
  321000    302.28689   -1167.4944    6373.5369    11663.938    1927.5221 
  321100    298.34354    -1172.006    6462.3662    11664.012     1980.765 
  321200    297.58452   -1163.3086    6469.8282    11663.956    1926.4469 
  321300    303.07693   -1157.4342    6346.5747    11663.914    1920.6212 
  321400    299.87435   -1168.5989    6426.1759    11663.932    1941.2431 
  321500    297.42929    -1159.484    6469.3749    11664.011    1983.8967 
  321600     305.1796   -1175.1089    6319.4288    11664.014    1946.2429 
  321700    297.57784   -1174.6333    6481.4194     11664.08    1877.2419 
  321800    300.04734   -1175.3295    6429.4057    11664.127     1856.131 
  321900    298.28108    -1175.218    6467.0535    11664.153    1852.4714 
  322000    301.91629   -1176.4634    6390.5797    11664.095    1825.2115 
  322100    302.42089   -1171.6608    6375.0268    11664.124    1901.4161 
  322200    299.29941   -1170.0347    6440.0184    11664.056    1899.8042 
  322300    299.92843   -1163.0051     6419.532    11664.038    1862.4768 
  322400    301.75392   -1162.7745    6380.3736    11664.108    1952.1219 
  322500    300.86248    -1170.639    6407.1585    11663.985    1987.5909 
  322600    298.83731   -1163.7687    6443.5896    11664.021    1986.9721 
  322700    298.74465   -1168.1224     6449.912    11664.011    1950.4558 
  322800     302.5991   -1172.2971    6371.7777    11664.046    1921.7486 
  322900     300.7115   -1172.8236    6412.6049    11664.021    1909.1043 
  323000    295.81335   -1164.7509    6509.1536    11664.001    1967.5594 
  323100    299.15491   -1168.5552     6441.536    11663.966    1944.3819 
  323200    300.22817   -1161.0045    6410.8595    11663.769    1924.1992 
  323300    298.61418   -1154.5783    6438.9233    11663.779    1944.5985 
  323400    301.95329   -1157.0825    6370.0467    11663.733    1938.8952 
  323500    298.63996      -1158.8    6442.6117    11663.796    1959.0359 
  323600    299.04471   -1156.1945    6431.3031     11663.74    1920.5876 
  323700    296.62244    -1156.333    6483.2642    11663.814    1962.6796 
  323800    303.58341   -1164.9255    6343.1131    11663.781    1878.2547 
  323900    298.12405   -1162.7277    6457.5627    11663.798    1883.3321 
  324000    298.15654   -1164.5011    6458.6288    11663.785    1891.4425 
  324100    301.06929   -1163.1241    6394.9609     11663.72     1924.954 
  324200    299.28628   -1159.9334    6429.9054    11663.764    1900.3676 
  324300    296.65061   -1157.4452    6483.7816    11663.822    1936.2248 
  324400    300.45122   -1158.0991    6403.2843    11663.865    1887.8361 
  324500    300.80694   -1163.0674    6400.6854    11663.897    1874.7925 
  324600    300.61211   -1166.1986    6407.9826    11663.901    1866.6189 
  324700     300.9459   -1164.4594    6399.2121        11664    1829.1646 
  324800    296.20804   -1171.9228    6507.9026     11664.01     1892.008 
  324900    302.38208   -1174.7461    6378.8858    11664.069    1877.5082 
  325000    297.59771   -1168.7273    6475.1196    11664.111    1934.7035 
  325100    302.85927   -1171.3762    6365.3335    11664.081    1910.7355 
  325200    299.06728   -1164.2939    6439.2356    11664.055    1954.9349 
  325300    301.64652    -1165.116    6385.0091    11664.108    1960.6532 
  325400    302.08673   -1165.3541    6375.7983    11664.064    1939.6149 
  325500    295.72655   -1168.4859    6514.8127    11664.071    1953.8103 
  325600    302.13353   -1164.4572    6373.9717    11664.134    1924.9692 
  325700    298.66952   -1172.9126    6456.4327    11664.136    1954.3976 
  325800    298.70319   -1171.3755    6454.1999     11664.16    1980.5697 
  325900    302.51617   -1169.8149    6371.0304    11664.009    1922.7058 
  326000    300.55758   -1169.4046    6412.4455    11663.992    1961.3578 
  326100    297.40406   -1162.2579    6472.7037    11664.027    1952.2458 
  326200     298.5031   -1160.5515    6447.5253    11664.034    1935.4058 
  326300    299.58667   -1161.8708    6425.6235    11663.962    1920.9221 
  326400    301.80273   -1163.6832    6380.1203    11663.989    2002.4333 
  326500    301.48278   -1162.8616    6385.9871    11663.842    1950.0783 
  326600    300.32782   -1156.6445    6404.5325    11663.931    1920.1036 
  326700    300.86272   -1160.2691    6396.5769    11663.778    1931.4877 
  326800    297.63616    -1161.813    6467.0486    11663.775    1904.6377 
  326900    300.78315   -1160.2451    6398.2347     11663.76    1867.3007 
  327000    297.53381   -1154.1825    6461.6426    11663.813    1923.3835 
  327100    297.40917    -1154.165    6464.2727    11663.798    1889.9028 
  327200    298.96588    -1151.067    6427.8714    11663.752    1852.8968 
  327300    297.94032   -1152.0193    6450.7425    11663.761    1965.8776 
  327400    298.42716   -1151.5813    6439.8212    11663.678    2008.6784 
  327500    299.01644   -1152.9528    6428.5989    11663.674    1958.5738 
  327600    300.36202   -1155.3238    6402.1841    11663.634    1863.2869 
  327700    300.69966   -1158.3269    6398.0369    11663.697    1849.2587 
  327800    297.51832   -1158.3898    6466.0996    11663.732    1837.8744 
  327900    300.30266   -1162.8413     6411.112    11663.776       1849.9 
  328000    299.75144   -1158.8119    6418.9601    11663.878    1889.3146 
  328100    298.16033   -1162.7768    6456.8593     11663.82    1878.3361 
  328200    299.27289   -1157.8144    6428.1003    11663.792     1889.863 
  328300    302.59063   -1162.7079    6362.2156    11663.892    1870.4951 
  328400    300.15426   -1162.9488    6414.5386    11663.925    1906.4137 
  328500    302.96514   -1164.0749    6355.7067    11664.017    1925.6712 
  328600    301.17211   -1163.9532    6393.9462    11664.073    1952.4617 
  328700    296.93714   -1161.0424    6481.5642    11664.128    1866.6721 
  328800    302.06386   -1165.2287    6376.2417    11664.144    1838.3474 
  328900     300.3092   -1167.9592    6416.3742     11664.06    1933.0614 
  329000    299.08035     -1161.93    6436.5662    11664.029    1935.0187 
  329100    304.11444   -1167.2903     6334.443    11664.091    1844.7369 
  329200    296.07609   -1166.4777      6505.44    11664.174    1926.8207 
  329300    300.39184   -1165.0736    6411.8323     11664.17    1905.2509 
  329400    299.50471   -1161.0832    6426.7012    11664.077    1909.2948 
  329500    301.31428   -1168.6723    6395.4758    11663.921    1896.7254 
  329600    300.33458   -1169.7376    6417.5732    11664.023    2001.9521 
  329700    302.45552   -1165.4792    6367.8472    11663.866    1919.9458 
  329800    298.63953   -1165.8225     6449.812    11663.965    1894.1386 
  329900    299.75607   -1166.4157    6426.5383    11663.951     1887.444 
  330000    299.81158   -1165.7474    6424.5552    11663.822    1842.9683 
  330100    298.49434   -1162.1967    6449.1859    11663.863    1875.4761 
  330200    297.44537   -1161.2511    6470.6253    11663.838    1959.4857 
  330300    299.60349   -1164.3545    6427.6275    11663.842    1973.3582 
  330400    299.52969   -1155.2634    6420.0903    11663.819    1904.7243 
  330500    299.52943   -1162.6298    6427.4411    11663.798    1932.2155 
  330600    299.85389   -1160.9433      6418.84    11663.815     1932.779 
  330700    300.55463   -1157.9954    6400.8954    11663.789    1901.3474 
  330800    298.31911   -1157.0962    6447.7483    11663.782    1920.9786 
  330900    297.88259   -1163.2186     6463.335    11663.921    1919.0671 
  331000    301.44072   -1160.4159    6384.5062    11663.909    1933.7668 
  331100     300.3376   -1160.0905    6407.7466    11663.908     1976.084 
  331200    302.81185   -1161.8061    6356.6571    11663.962      1922.23 
  331300    295.30983    -1157.316    6512.3871    11663.912    1907.6288 
  331400    300.42502   -1156.9419    6402.7302    11663.908    1862.1896 
  331500    303.43172   -1165.5622    6347.1044    11663.895    1967.1205 
  331600    300.90012   -1165.1011    6400.7079    11663.876    1991.4748 
  331700     299.7309   -1171.7922    6432.4222    11663.921    1969.2797 
  331800    301.89238   -1170.9649    6385.4814    11663.984    1935.3186 
  331900    300.27339   -1171.7033    6420.8242    11664.001    1968.3186 
  332000    302.84471   -1170.6162    6364.8415    11664.038    1908.6452 
  332100     297.9645   -1164.1446    6462.6561    11664.066    1981.2122 
  332200    295.48754   -1167.1007    6518.4929     11664.03    2030.8741 
  332300    299.81903   -1166.0518    6424.9141    11664.036    1960.5074 
  332400    301.74478   -1167.6763    6385.4635    11664.101    1940.9817 
  332500    300.13568   -1165.8062    6417.9221    11664.054    1955.5597 
  332600    302.78268   -1164.6623    6360.1617    11663.987    1927.8098 
  332700    296.97517   -1169.6614     6489.312    11664.069    1924.1092 
  332800    297.79067   -1168.2142    6470.4671    11664.094    1929.5546 
  332900    300.11146    -1175.374    6428.0414    11664.088    1949.5282 
  333000    301.97481   -1167.3383    6380.2177    11664.108    1938.3451 
  333100    300.71642   -1167.0987    6406.8461    11664.092    1935.5892 
  333200    295.85431   -1164.5794    6508.1039    11663.998    1994.1158 
  333300    303.53123   -1162.5271    6342.0432    11663.995    1934.0541 
  333400     297.8001   -1161.7896    6463.6837    11663.936    1907.4308 
  333500    302.44194    -1165.155    6367.9204    11663.973    1871.1122 
  333600     302.3731   -1171.1236    6375.2883    11663.902    1850.3159 
  333700    299.42891   -1165.1824    6432.2138    11663.871    1825.5794 
  333800    301.79967   -1167.0047    6383.3282     11663.81    1927.4553 
  333900    297.53918   -1168.7795    6476.2991    11663.988    1885.2294 
  334000    298.62926   -1160.6526     6444.779    11663.882    1842.5002 
  334100    301.21251   -1162.7318    6391.6758    11663.887    1904.4215 
  334200    297.55578   -1163.8668    6470.8751    11663.831    1876.7795 
  334300    299.84693   -1157.6038     6415.729    11663.895    1873.4761 
  334400    300.32657   -1162.5748    6410.4447    11663.886    1944.9828 
  334500    297.31872   -1159.3544    6471.5042    11663.908    1945.3079 
  334600    298.11305   -1161.5015    6456.7034     11663.93    1903.8647 
  334700    303.97342    -1164.979    6334.9323    11663.879    1878.2754 
  334800    299.05755   -1165.3219      6440.38    11663.964     1972.933 
  334900      298.606   -1165.8447    6450.6078    11664.022       1915.4 
  335000    300.25486   -1169.4961    6418.9299    11663.918    1853.5298 
  335100    300.32414   -1162.7881     6410.856    11664.032    1879.6302 
  335200    301.32996   -1166.4358    6393.0787    11664.095    1881.9273 
  335300    296.93733   -1167.9382    6488.2741    11663.946    1889.3234 
  335400    301.34652   -1162.3538    6388.5794    11664.032     1863.446 
  335500    303.70536   -1161.8637    6337.7003    11664.036    1895.5789 
  335600    301.71407   -1166.9864    6385.3043    11663.976    1902.2929 
  335700    302.27672   -1162.9972    6369.2393     11663.92    1869.7601 
  335800    297.12431   -1165.2659    6481.6581    11663.997    1859.0342 
  335900     301.5555   -1167.2589    6388.9826    11663.994    1822.7929 
  336000    298.83812    -1158.991    6438.7339    11663.961    1889.1504 
  336100    299.55865   -1172.5308    6436.8595     11663.94    1876.5671 
  336200    301.96755   -1167.0914    6380.0971    11664.079    1856.4538 
  336300      297.402   -1165.4869    6475.9954    11664.046    1914.0053 
  336400    299.29954   -1169.1915    6439.0809    11663.965    1946.5374 
  336500    300.74186   -1160.4692    6399.4514    11663.871    1839.4034 
  336600    300.11211   -1162.0534    6414.5674    11663.949     1834.583 
  336700    299.41137   -1164.8327    6432.2515    11663.883     1912.603 
  336800    304.38876   -1169.0205    6330.1208    11663.899    1869.2006 
  336900    297.11678   -1161.9155    6478.4172    11663.946    1900.3476 
  337000    304.37636   -1165.5243    6326.9064    11663.916    1857.2333 
  337100    302.18384   -1164.6859    6372.8349    11663.843    1829.7507 
  337200    297.34959   -1164.4233     6475.986    11663.981    1880.9659 
  337300    300.80782    -1164.771     6402.445    11663.971    1846.2086 
  337400    300.54498   -1163.8529    6407.1145    11663.944    1939.7897 
  337500    302.64042   -1162.6149    6361.1406    11663.974    1878.5315 
  337600    297.20187   -1155.1097    6469.8258    11663.978    1897.1006 
  337700    300.89754   -1160.2886    6395.9227    11663.848    1887.3217 
  337800    299.66621   -1163.0972    6425.0886      11663.9     1907.113 
  337900    302.61239   -1161.6654    6360.7176    11663.902    1898.7343 
  338000    301.37784   -1164.1819     6389.663    11663.956    1849.2857 
  338100    301.58304   -1163.1844    6384.3614    11664.036     1855.305 
  338200    297.68897   -1163.4305    6467.6995    11663.937    1863.3619 
  338300    304.39741    -1169.704    6330.7246    11664.004    1877.5406 
  338400    299.15442   -1164.9457    6437.9397    11663.969    1927.2083 
  338500    302.38181   -1161.1939    6365.1811    11663.911    1874.9196 
  338600    300.74121   -1159.6505    6398.7542    11663.978    1942.7384 
  338700    298.19211   -1162.3675    6455.9337    11663.983    1926.7495 
  338800     299.5766   -1160.3322     6424.306    11663.968     1938.228 
  338900    304.31421   -1161.9379    6324.6322    11663.901    1899.4612 
  339000    299.25639   -1167.0085    6437.8107    11663.956    1892.5224 
  339100    299.76407   -1155.5163    6415.5222    11664.005    1862.9256 
  339200    301.23163    -1157.838     6386.333    11663.847    1826.5717 
  339300    297.90173   -1166.7361     6466.395    11663.872    1787.3263 
  339400    299.67444   -1161.9062    6423.7676    11663.946    1828.1883 
  339500    298.32055   -1161.3896    6452.2094    11663.981    1845.5695 
  339600    300.13462   -1160.8531    6412.8039    11663.866    1743.6531 
  339700    297.78706   -1162.2587     6464.411    11663.916    1843.9746 
  339800     301.7398   -1163.0414    6380.7335      11663.9    1833.0394 
  339900    300.24548   -1158.5017    6408.0771    11663.859    1802.4319 
  340000    300.85819   -1160.7913    6397.1565    11663.739    1823.2012 
  340100    297.78787   -1157.5308     6459.556    11663.806    1810.6567 
  340200    302.16759   -1160.6378    6369.1768    11663.886    1756.2436 
  340300    298.93487   -1160.5409      6438.08    11663.824    1844.6389 
  340400    300.93335   -1158.1232    6392.9876    11663.844     1806.756 
  340500    299.58594   -1158.0642    6421.7673    11663.897    1761.9648 
  340600    299.98727   -1159.4574    6414.6059    11663.916    1789.3302 
  340700    299.04955   -1166.9414    6442.1126    11663.906     1888.152 
  340800     302.1268    -1155.078    6364.5427     11663.94    1891.9077 
  340900    300.45044   -1161.7075    6406.9987    11663.954    1883.1798 
  341000    299.23633   -1159.9291    6431.1021    11663.898    1896.5833 
  341100    301.15258    -1155.306    6385.5025    11663.859     1872.507 
  341200    298.88092   -1155.0757    6433.8039     11663.86    1903.9724 
  341300    302.95084   -1164.2648    6356.1117    11663.927    1854.8818 
  341400    297.57732   -1160.9335    6467.6077    11663.957    1947.4668 
  341500    304.83163    -1163.538    6315.2141    11663.936    1806.2326 
  341600    296.58327   -1167.0764    6494.9779    11663.948    1854.1825 
  341700    301.25065   -1168.9531    6397.0909    11663.896    1785.5431 
  341800    296.76859   -1161.1736    6485.0227    11663.855    1860.9021 
  341900    298.21491   -1166.9409    6459.9327    11663.896    1921.8814 
  342000    300.95523   -1165.0688    6399.5438    11663.922    1847.9554 
  342100    298.52628   -1158.0095    6444.4125    11663.959    1812.1385 
  342200    299.63056   -1164.5402    6427.3614    11663.968    1867.7541 
  342300    300.03285   -1165.9465     6420.217    11664.012    1851.7686 
  342400    298.67345    -1166.034    6449.3575    11664.023    1828.5241 
  342500    299.44882   -1170.6472    6437.4188    11664.036    1825.3877 
  342600    302.11243   -1166.7483    6376.5875    11664.008    1776.4024 
  342700    301.74525   -1165.7869    6383.4762    11664.014    1807.5501 
  342800    297.63831   -1165.3403    6470.7292    11663.975    1872.0824 
  342900    301.88469   -1160.6062    6375.1969    11663.894    1862.5188 
  343000    296.85652   -1163.0766    6485.1653    11663.973    1937.1449 
  343100    300.22895   -1158.4071    6408.4164     11663.94    1930.8611 
  343200    300.40441   -1155.8846    6402.1197    11663.914    1839.0726 
  343300    299.14619   -1162.8509    6435.9696    11663.918    1831.6776 
  343400    302.42047   -1164.5477    6367.7336    11663.935    1824.6074 
  343500    294.88211     -1166.33    6530.6396    11664.013    1909.3158 
  343600    302.61973   -1162.8888     6361.725    11663.842    1795.9392 
  343700    297.82712    -1158.977    6460.1416    11663.784    1812.6345 
  343800    301.77558   -1157.2804    6374.2052    11663.897    1841.1142 
  343900    298.61052   -1161.7463    6446.2808     11663.89    1905.8516 
  344000    299.93019   -1163.7957    6419.9437    11663.696     1869.766 
  344100     301.3698   -1162.7543    6388.1896    11663.739    1845.1221 
  344200    302.26958   -1159.8903    6366.1148     11663.75    1794.6512 
  344300    299.73662    -1161.471     6421.886    11663.828    1837.0857 
  344400    298.70316    -1160.703    6443.2068    11663.839    1871.8983 
  344500    299.52694   -1163.1157    6428.0389    11663.857    1832.4896 
  344600     298.9832   -1168.0755    6444.6852    11663.927    1925.2179 
  344700    300.78895   -1163.7931    6401.7662    11663.867    1835.8985 
  344800    299.04391   -1164.0234     6439.358    11663.949    1871.8669 
  344900     297.9373   -1165.4111    6464.4031    11663.965    1906.9693 
  345000    299.79095   -1163.7653     6423.179    11663.987    1932.6885 
  345100    303.16397   -1161.9383    6349.1993    11663.894    1836.2005 
  345200    297.31472   -1161.9838    6474.2443    11663.933    1875.9382 
  345300    299.28548   -1168.1919    6438.4325    11664.016    1951.8609 
  345400    296.59716   -1164.1394    6491.7496    11663.953    1848.3178 
  345500    301.55308   -1168.2224    6389.9973    11663.994    1814.0917 
  345600    302.17168   -1165.4196    6373.9152     11663.93    1867.3745 
  345700     299.1066   -1160.6792    6434.7655     11664.04    1813.6809 
  345800    300.92542    -1167.127    6402.3267    11664.009    1829.6423 
  345900    301.36306   -1165.9873    6391.7448    11663.917    1867.7217 
  346000    297.85447   -1165.7251    6466.4524    11663.931    1787.5846 
  346100    298.23789   -1169.6687    6462.2062    11663.932    1764.6429 
  346200    301.45596   -1166.0038    6389.7045    11663.845    1822.9759 
  346300    300.69045   -1164.1037    6404.1747    11663.861    1824.2982 
  346400    297.21775    -1164.393     6478.672     11663.88    1830.5569 
  346500    298.76008   -1162.3412    6443.7251    11663.935    1860.3349 
  346600     299.8524   -1169.7362    6427.7201     11663.87    1842.0163 
  346700     301.8379   -1161.6938    6377.2145    11663.824     1783.047 
  346800    296.45276   -1165.9994    6496.5743    11663.833    1905.6112 
  346900    301.26296   -1157.4885    6385.3679      11663.9    1909.3369 
  347000    302.97776   -1162.9665     6354.183    11663.871    1927.9606 
  347100    299.35886   -1159.5988    6428.1396    11663.884    1924.8783 
  347200    298.14212   -1162.7478    6457.2154    11663.817    1900.0736 
  347300     299.9979   -1161.5903    6416.5059     11663.91    1900.8548 
  347400    300.71266   -1165.4332    6405.0881    11663.919    1895.5473 
  347500    299.77669   -1167.3295    6426.9952    11663.935    1851.8729 
  347600    300.37712   -1167.4564    6414.2373    11663.877     1866.677 
  347700    300.97984   -1163.5416    6397.3797    11663.811    1839.4872 
  347800     298.2355   -1163.5415    6456.0981    11663.901     1825.089 
  347900    303.03725   -1162.4037    6352.3258    11663.848    1835.4936 
  348000    298.92713    -1165.883    6443.7108    11663.947    1859.6489 
  348100    300.32507   -1166.8272    6414.7687    11663.926    1824.8252 
  348200    297.40388   -1166.7473    6477.1424    11663.973    1840.5877 
  348300     298.2204   -1168.0566    6461.0694    11664.034    1851.4498 
  348400    299.42129   -1167.6284    6434.9553    11664.003    1790.4359 
  348500    302.37475   -1165.8807    6369.9854    11663.877     1826.395 
  348600    297.52947   -1164.3406    6471.9848    11663.905    1810.2799 
  348700    299.47903   -1161.0931    6427.2494    11664.066    1858.7211 
  348800    300.48846   -1166.9116    6411.3648    11663.928      1834.72 
  348900    298.50852   -1162.5804    6449.3629    11663.959    1847.2939 
  349000    298.18449   -1168.0801    6461.7947    11663.969    1847.8011 
  349100    302.36727   -1167.4881    6371.9103    11664.035    1884.3619 
  349200    300.00581   -1163.4666    6418.3064    11664.004    1908.0164 
  349300     300.6746   -1157.8467    6398.3198    11663.925    1874.2261 
  349400    297.27713   -1160.7841    6473.8562    11663.942    1892.1671 
  349500    299.44399   -1162.2879    6428.9987    11663.872    1959.4104 
  349600    303.44797   -1152.1213    6333.2817    11663.861    1928.6241 
  349700     296.4897   -1156.6309    6486.4651    11663.882    1982.1583 
  349800    298.24642   -1155.7199    6448.0444    11663.902     1997.028 
  349900    300.82421   -1157.9504    6395.1185    11663.816    1833.6127 
  350000    301.41836   -1164.6038    6389.1311    11663.868    1783.7982 
  350100      299.832   -1160.0683    6418.4325    11663.815     1851.186 
  350200     302.0108   -1165.9915    6377.8019    11663.808    1825.9868 
  350300      297.091   -1161.3145    6478.1711     11663.75    1820.3187 
  350400    301.16326   -1161.7388    6391.6573    11663.809    1883.5857 
  350500    297.26297    -1160.982    6474.2168    11663.802    1913.9201 
  350600    298.58292   -1151.7016    6436.6937    11663.758     1837.339 
  350700    300.84742   -1164.3847    6401.0917     11663.85    1913.3243 
  350800    302.09999   -1166.4398    6376.4295    11663.893    1867.4789 
  350900    298.70412   -1160.5666    6443.0698    11663.858    1789.8201 
  351000    296.70448   -1161.8291    6487.0928      11663.9     1797.877 
  351100     299.9424    -1164.453    6420.6309    11663.987    1821.7335 
  351200    301.98903   -1162.2255    6374.6469    11663.954    1790.9184 
  351300     298.1049   -1156.2137    6451.5607    11663.901    1837.2308 
  351400    299.48639   -1163.3371     6429.199    11663.929    1888.6394 
  351500     298.7677   -1160.8104    6442.0904    11663.993     1887.562 
  351600    298.72633   -1162.3868    6444.4848    11663.928    1853.0353 
  351700    302.34053   -1163.1295    6367.9779     11663.89    1855.2536 
  351800     299.2309   -1159.7365    6431.0454    11663.918    1849.2143 
  351900    297.11062   -1168.2757    6484.8398    11663.877    1875.9332 
  352000    302.11518   -1165.9708    6375.5896    11663.846    1884.0834 
  352100    300.90039   -1163.6495    6399.2821    11663.908    1920.6503 
  352200    298.68357   -1165.2652    6448.2938    11663.945    1834.5796 
  352300    296.52419   -1168.4755     6497.672    11663.981    1892.0397 
  352400    303.26357   -1158.1079    6343.2063    11663.859    1910.8086 
  352500    300.16676    -1164.486    6415.7156    11663.832    1892.6916 
  352600    297.75521   -1157.4086    6460.2462    11663.921    1863.0611 
  352700    299.66491   -1165.5021    6427.5004    11663.879    1930.5318 
  352800    300.96257   -1158.2166    6392.5309    11663.918    1858.6617 
  352900    302.17587   -1163.7998    6372.2204    11663.944    1847.6479 
  353000    299.88742   -1160.0577    6417.3729     11663.95    1955.0635 
  353100    303.48472   -1163.4037     6343.866    11663.948     1896.318 
  353200    298.46877   -1160.4759    6448.1253    11663.977    1851.8292 
  353300    299.38941    -1164.393    6432.3568    11663.959    1888.9602 
  353400    302.88598   -1163.6407    6356.8231    11663.877    1905.7944 
  353500    296.78454   -1161.4729    6484.9756    11663.849     1881.398 
  353600    298.22177   -1164.5181    6457.2697    11663.802    1913.7509 
  353700    301.99862   -1159.8969     6372.036    11663.876    1895.3511 
  353800     297.5018   -1163.8138    6471.9796    11663.835    1808.3354 
  353900    299.25468   -1163.3995    6434.1793    11663.897    1789.8693 
  354000    300.56176   -1165.7429    6408.5791    11663.877    1875.2282 
  354100     297.8913    -1163.228    6463.0776     11663.84    1865.1267 
  354200    296.37321   -1159.8312    6492.0747    11663.802    1905.6568 
  354300    303.14387   -1165.0512    6352.6089    11663.761    1864.6096 
  354400    299.97905   -1157.2213    6412.5017    11663.873     1831.042 
  354500    297.81499    -1159.743    6461.1569    11663.774    1799.0371 
  354600    295.89665   -1164.3546    6506.8128    11663.836    1839.0608 
  354700    302.50362   -1163.3013    6364.6582    11663.883    1847.7486 
  354800     298.3857   -1166.0117    6455.3025    11663.843    1862.2264 
  354900    294.75827   -1163.7741    6530.6565    11663.941    1887.1965 
  355000    303.70501   -1166.1599    6341.8899    11663.921    1886.5652 
  355100    298.32331   -1157.4051    6448.0443    11663.859    1934.9918 
  355200    296.66394    -1162.459    6488.5492     11663.86    1951.1515 
  355300    300.28906   -1163.7564    6412.4039    11663.863     1892.216 
  355400    302.62354   -1158.1598    6356.9831    11663.911    1930.3155 
  355500    301.47646    -1162.462    6385.7593    11663.879    1936.4308 
  355600    299.21739   -1162.3458    6433.8401    11663.815    1907.2657 
  355700    298.74106   -1162.4273    6444.1887    11663.906    1902.9675 
  355800    298.54075   -1169.8135    6455.8942    11663.946    1909.0089 
  355900    302.63372   -1167.4375    6366.0618    11663.929    1850.6021 
  356000    299.24651   -1170.7621    6441.8208    11664.001    1933.3413 
  356100    299.71312   -1165.8469    6426.8913    11663.955    1885.4586 
  356200    299.74987   -1161.9075     6422.027    11663.816     1810.967 
  356300    297.49491   -1158.0173    6466.3907    11663.896    1849.4747 
  356400    302.88627   -1165.1912     6358.367    11663.876    1880.1272 
  356500    300.78575   -1163.7398    6401.8472    11663.933    1860.3179 
  356600     299.0461   -1166.1348    6441.4231    11663.949    1802.1012 
  356700    296.19934   -1167.3483    6503.4784    11663.974    1871.5458 
  356800    300.23338   -1168.8571    6418.8803    11664.049    1856.7553 
  356900    301.64297   -1175.1974    6395.1107    11664.052    1798.0466 
  357000    296.09623   -1167.1479    6505.4513    11663.945    1909.2439 
  357100    303.66942    -1167.427    6343.9249    11663.929    1859.0453 
  357200    298.91074   -1161.1834    6439.4091    11663.995    1814.5381 
  357300    297.36432   -1160.1097    6471.3325    11663.955     1827.513 
  357400    298.43899   -1163.4947    6451.7703    11663.967    1861.3962 
  357500    300.99707   -1161.0535    6394.6476    11663.935     1820.157 
  357600    299.69995   -1168.0526    6429.4241    11664.001    1904.7684 
  357700    300.82302    -1168.591    6405.9523    11663.984    1960.3416 
  357800     300.0476   -1162.2418    6416.1273    11663.942    1876.2947 
  357900    299.54294   -1163.0062    6427.6574    11663.927    1893.6276 
  358000     300.7659   -1168.9695    6407.4403    11663.873    1923.2711 
  358100    299.77292   -1156.3874    6416.0745    11663.876    1875.4107 
  358200    297.82845   -1156.0066    6457.2108    11663.852    1879.8429 
  358300    303.12685   -1161.0567    6349.0032    11663.787    1855.4398 
  358400    302.15544   -1162.4624    6371.1723    11663.797    1852.1466 
  358500     298.7405   -1159.7224    6441.5104     11663.92    1859.0567 
  358600    300.45448   -1162.1964    6407.3019    11663.855    1893.0999 
  358700     297.9862   -1163.7259    6461.5823    11663.874    1872.1605 
  358800    300.78239   -1164.8075    6402.9601    11663.907    1777.2313 
  358900    298.72696   -1161.0603    6443.1448    11663.928    1821.5066 
  359000    302.46845   -1162.4179    6364.5724    11663.929    1837.9773 
  359100    300.10813   -1158.6687    6411.2001    11663.881    1863.6388 
  359200    298.82151   -1153.8657    6433.8968    11663.894    1884.8586 
  359300     299.8095   -1152.5501    6411.4696     11663.89    1823.1507 
  359400    298.96015   -1158.2128    6435.2431    11663.855    1849.9219 
  359500    297.08747   -1162.9108     6480.033     11663.94    1842.5631 
  359600    301.86772   -1166.0419    6381.0824    11663.981    1723.0024 
  359700    297.56083   -1166.9248    6473.9362    11663.942    1788.0772 
  359800    296.57265   -1163.3839     6491.487    11663.923    1872.3328 
  359900    300.90202   -1158.3577    6393.9296    11663.882    1867.8305 
  360000    298.35838   -1163.0612    6453.0678    11663.976    1854.4042 
  360100    299.05339    -1158.178     6433.265    11663.904    1848.5098 
  360200    299.45483   -1160.5787    6427.0599    11663.874    1798.5282 
  360300    298.37893   -1161.0887    6450.5849    11663.904    1861.6845 
  360400    300.43178   -1165.2979    6410.9779    11663.944    1865.9091 
  360500    302.48298   -1160.7354    6362.6349    11663.984    1835.1311 
  360600    299.39789   -1164.2252    6431.9233    11663.875      1807.54 
  360700    296.18351   -1167.9109    6504.3139    11663.909    1815.5874 
  360800    301.01186   -1168.2568    6401.5864    11663.986    1865.7146 
  360900    300.57947    -1160.625    6403.1352     11663.93    1841.8543 
  361000    297.13425   -1160.5264    6476.5398    11663.831    1855.4723 
  361100    304.92173    -1163.625    6313.4012    11663.961     1901.148 
  361200    299.91162   -1163.8003    6420.5689     11663.92    1926.5612 
  361300    297.93379   -1161.6881     6460.699    11663.909    1935.1015 
  361400    298.64388   -1159.5164    6443.3564    11663.908    1891.9796 
  361500    298.08232   -1164.1916    6460.1292    11664.009    1914.4064 
  361600    299.42357   -1163.5987    6430.8729    11663.999     1890.574 
  361700    300.19379   -1167.0773    6417.7357    11663.838    1891.0771 
  361800    300.28363   -1167.7118    6416.4102    11663.797    1916.3588 
  361900    300.54679    -1167.929    6411.0218    11663.814    1800.5494 
  362000    298.63676   -1161.3614      6445.22    11663.775    1844.3233 
  362100    299.80683   -1163.5224    6422.5212    11663.912    1845.4366 
  362200    300.28104   -1168.8553    6417.6577    11663.846    1878.5242 
  362300    297.30456   -1170.9408    6483.3978    11663.913    1901.8002 
  362400    297.25911    -1163.674    6477.1391     11663.95    1906.2202 
  362500    300.89507   -1162.5261    6398.2865    11663.922    1886.8556 
  362600    299.65691   -1161.1876    6423.4663    11663.989    1954.8526 
  362700    302.12815   -1163.3746    6372.7934    11663.923    1838.4086 
  362800    296.28436   -1162.5367    6496.7808    11663.905    1783.7543 
  362900    299.99179   -1163.5771    6418.6734    11663.961    1817.8492 
  363000     299.3765   -1163.2107    6431.4635    11663.972    1822.7192 
  363100    301.73697   -1164.1834    6381.9406    11663.905    1782.9626 
  363200    299.15885   -1169.0081    6441.8654    11663.927    1888.2388 
  363300    300.03201   -1163.4313    6417.6469    11663.939    1878.2698 
  363400     300.0518   -1168.1295    6421.8987    11663.916    1864.9583 
  363500    298.99968   -1164.4232    6440.6845    11663.931    1877.7142 
  363600    300.49352   -1159.2055    6403.5389    11663.916    1897.3716 
  363700    301.36437    -1160.674    6386.4096    11663.923    1908.6062 
  363800    300.76642   -1160.8183    6399.3272    11663.922    1906.0851 
  363900    298.94413   -1162.9824    6440.4617    11663.962    1896.4475 
  364000    300.58948   -1161.4985    6403.7684    11663.903    1816.7121 
  364100    299.54413   -1170.8334    6435.3762    11663.843    1835.1352 
  364200    297.96782   -1163.8433    6462.1174    11663.899    1839.4285 
  364300    301.08832   -1164.8642    6396.5524    11663.978    1830.3248 
  364400    301.09259   -1164.7528    6396.3131    11663.941    1879.9782 
  364500    300.33203   -1157.9397    6405.6355    11663.829    1905.2075 
  364600    300.20863   -1156.7816    6407.0576    11663.773    1870.5707 
  364700    300.76542    -1161.946    6400.4337     11663.88    1931.0765 
  364800    297.39829   -1161.4823    6471.9511    11663.927    1929.1208 
  364900    299.20577   -1162.4734    6434.3107     11663.91    1867.9549 
  365000    298.81601   -1164.9008     6445.109    11663.954    1893.8498 
  365100    300.03134   -1166.9316    6421.1282    11663.906    1847.7689 
  365200     298.9945    -1163.255    6439.6387    11663.942     1832.481 
  365300    299.18612   -1168.4203    6440.6434    11663.876    1814.3366 
  365400    302.08744   -1160.9254     6371.287    11663.996    1812.9684 
  365500    299.92261    -1165.678    6422.2119     11663.92    1877.8906 
  365600    301.72515   -1161.3495    6379.3314    11663.877    1889.7581 
  365700    297.90413   -1159.6307    6459.2158     11663.85    1880.8323 
  365800    299.35067   -1160.2402    6428.9505    11663.878    1861.4987 
  365900    301.62919   -1162.2503    6382.2906    11663.885    1871.5573 
  366000    301.29632   -1164.1706    6391.3254    11663.888    1871.3838 
  366100    294.60609   -1159.5701    6529.6849    11663.922    1869.4949 
  366200    304.09022   -1168.0022    6335.5503    11663.969     1846.624 
  366300    300.55168   -1167.2645    6410.4328    11663.994    1956.2216 
  366400    295.49298   -1163.9263    6515.2092    11664.037    1911.3731 
  366500    300.78901   -1169.0433     6407.103    11663.955    1890.6328 
  366600    300.62465   -1167.8547     6409.492    11664.022    1950.8236 
  366700    298.22182   -1159.6893    6452.6439    11664.006    1946.1365 
  366800    300.31783   -1158.3835    6406.4459    11663.892    1947.3541 
  366900    302.75624   -1163.3303    6359.3474     11663.94    1932.2816 
  367000    299.09492   -1164.5049    6438.7556    11663.955    1927.3089 
  367100    301.58199   -1163.9452    6385.0237    11663.915    1927.3767 
  367200    300.41642   -1167.3335    6413.3511    11663.953    1912.7093 
  367300    298.37165   -1166.9649    6456.7488    11664.036    1932.7366 
  367400     303.2637   -1165.6655    6350.8535    11663.951    1908.7264 
  367500    297.41605   -1166.8987    6477.0181    11663.957    1954.9255 
  367600    299.18347   -1162.6994    6434.9926    11663.889     1906.379 
  367700    301.05642   -1161.9544    6394.1272    11663.781    1864.5476 
  367800    298.95539   -1154.3911    6431.4788    11663.811     1978.864 
  367900    299.57399    -1156.155    6420.0149    11663.799    2037.4683 
  368000    301.05988   -1161.4877    6393.6823    11663.877     1998.177 
  368100    298.42358   -1169.4481    6457.9212    11663.835    1888.7923 
  368200    296.31575   -1167.2633    6500.8415    11663.909    1890.4953 
  368300     300.3963   -1169.3368    6415.7081    11663.877    1867.5148 
  368400    301.99153    -1165.477    6377.7971    11663.906    1854.3955 
  368500    298.32545   -1161.4549    6452.0341    11663.845    1963.8305 
  368600    299.40386   -1156.3051    6423.8233    11663.822    1900.8777 
  368700    299.73226   -1153.8875    6414.4258    11663.858    1848.8914 
  368800    299.71732   -1160.7513     6421.751        11664    1921.0216 
  368900    299.16824   -1161.5069    6434.1692    11663.933    1937.3254 
  369000     299.8636   -1157.5323    6415.3393    11663.933    1853.5888 
  369100    298.46125   -1159.2966    6447.0604     11663.93    1959.1959 
  369200    298.53564   -1166.0489    6452.3667    11664.074    1961.9797 
  369300    300.54823   -1163.2023    6406.3982    11663.948    1909.0847 
  369400     301.6173   -1166.1893    6386.4881     11663.89    1883.9849 
  369500    297.81173   -1162.2996    6463.8798    11663.871    1927.5603 
  369600    300.89585   -1164.2857    6400.0507    11663.943    1914.3998 
  369700    301.42308    -1162.334    6386.7654    11663.873    1927.3106 
  369800    300.75078   -1164.1983    6403.0091     11663.89    1909.9193 
  369900    297.92134   -1168.9226     6468.195    11663.905    1912.9151 
  370000    298.69792   -1164.8676    6447.5939    11663.949    1881.9673 
  370100    301.79733    -1169.637    6386.1454    11663.945    1866.5568 
  370200    297.82334   -1159.8841    6461.2716    11663.926    1944.3629 
  370300    304.18665   -1164.8182    6330.2528    11663.916    1901.9823 
  370400    299.94514   -1159.5505    6415.5631     11663.88    1920.1721 
  370500    296.41086   -1153.5353    6485.0976    11663.925    1924.1881 
  370600    298.96715   -1164.4352    6441.3998    11663.939    1917.2768 
  370700    299.37998   -1166.5753    6434.7218     11663.94    1909.7081 
  370800    296.35665   -1169.4469    6502.1638    11663.922    1862.9028 
  370900    301.30069   -1163.9342    6390.9707    11663.864    1833.6164 
  371000     300.2148    -1165.448    6415.7056    11663.886    1940.9664 
  371100    296.27543   -1165.8806    6500.2948    11663.884    1897.9673 
  371200    302.94689    -1161.562     6353.447    11663.881    1859.5753 
  371300    299.91446   -1159.2818    6415.9074    11663.838     1878.808 
  371400    301.42498   -1166.2287    6390.6576    11663.911    1876.6081 
  371500    298.26111   -1160.5557    6452.6147     11663.95    1875.8995 
  371600    301.51353   -1166.2541    6388.7025    11663.822    1860.4516 
  371700    300.96212   -1169.5626     6403.759     11663.79    1844.0511 
  371800    295.87698   -1167.7406    6510.6606    11663.878    1858.7875 
  371900    299.41241   -1168.6689     6436.087    11663.905    1873.5714 
  372000    300.74917   -1166.5409    6405.3079    11663.811    1898.9352 
  372100    298.53411   -1159.5988    6445.7616    11663.886    1938.5395 
  372200    302.43524   -1160.8729    6363.6451    11663.837    1821.3121 
  372300    298.15685   -1156.2097    6450.3883    11663.842    1889.2846 
  372400    300.81895   -1159.0699    6396.3541    11663.819       1867.1 
  372500    296.01732   -1166.7886    6506.7772    11663.944    1850.6863 
  372600    302.45409   -1166.0354    6368.4713    11663.903    1856.6629 
  372700    301.81423   -1167.7602    6383.8934    11663.931    1865.6106 
  372800    296.03751   -1163.6121    6503.1779    11663.953    1871.6855 
  372900    304.95589    -1165.621    6314.5295    11663.823    1876.5782 
  373000    296.91029   -1159.9626    6480.8098     11663.88    1952.2178 
  373100    300.37336   -1161.8267    6408.6863    11663.876    1921.2043 
  373200     298.7688   -1158.7886    6440.0011     11663.95    1898.8144 
  373300    299.60396   -1159.4142    6422.7891    11663.954    1949.2223 
  373400    302.53174   -1162.8502    6363.5547    11663.831    1923.5989 
  373500    298.90591   -1164.0759     6442.246    11663.836    1897.3063 
  373600    300.01556   -1163.5379     6418.131    11663.965    1854.2337 
  373700    298.82468   -1154.7898    6434.7333    11663.874    1831.2474 
  373800     297.8237    -1160.867    6462.2053    11663.885    1878.2657 
  373900    298.94203   -1160.7793    6438.2438    11663.902    1864.3115 
  374000    300.32437    -1167.511    6415.3485    11663.807    1848.9734 
  374100    297.65555   -1164.0882    6468.9652    11663.831    1876.7306 
  374200      300.374   -1158.3154    6405.1244    11663.839    1899.0184 
  374300    298.13409   -1152.3157    6446.9457    11663.807    1908.3507 
  374400     301.8197   -1156.7881    6372.7153    11663.842    1848.2874 
  374500     299.0767   -1161.2939    6435.8396     11663.86    1842.7275 
  374600     298.9517    -1167.065    6444.2992    11663.879    1801.5107 
  374700    300.64215   -1167.0536    6408.2775    11663.982    1836.8961 
  374800    301.25717   -1168.5241    6396.6024    11663.975    1838.1353 
  374900    297.54571   -1161.2249    6468.4283    11663.811    1864.5216 
  375000    298.01023   -1158.9523    6456.2717    11663.851      1925.86 
  375100    299.03021   -1157.8529    6433.3997    11663.868    1918.7007 
  375200    300.44163    -1160.081    6405.5027    11663.896    1900.7473 
  375300    298.88576   -1163.1386    6441.8681    11663.965    1907.3077 
  375400    301.59165   -1160.2367    6381.1323    11663.938    1832.3676 
  375500    298.55058   -1168.1906    6454.1241    11664.009    1925.8963 
  375600     303.1963     -1167.79    6354.4897    11664.023    1966.7425 
  375700     297.0494   -1162.4174    6480.3976    11663.985     1984.129 
  375800    298.70591   -1163.6441    6446.2067    11663.956    1901.6992 
  375900    302.73575   -1171.6501    6368.1803    11664.015    1923.0105 
  376000    297.60408   -1171.7347    6477.8524    11663.972    1936.3284 
  376100    300.79968   -1161.8783    6399.6944     11663.94    1905.8798 
  376200    300.96307   -1160.1198    6394.4688    11663.963    1929.7064 
  376300    298.77037    -1163.644    6444.8451    11663.972    1969.7997 
  376400    301.29996   -1161.5774    6388.7583    11663.992    1929.4855 
  376500    298.97873   -1161.6849    6438.3561    11663.893    1851.3607 
  376600    296.46914   -1165.4128    6495.7588    11663.954    1830.6263 
  376700    301.14292   -1173.6488    6404.1127     11663.92    1764.4678 
  376800     298.9669    -1165.827    6442.7893    11663.931    1813.7137 
  376900    297.15217   -1162.7858    6478.3701    11663.784    1872.6867 
  377000     299.5169   -1163.3222    6428.5092    11663.906    1898.6796 
  377100    301.63336   -1157.0741    6376.9687    11663.829    1834.5375 
  377200    299.24602   -1156.6148    6427.4646    11663.782    1872.4772 
  377300    298.71438   -1154.3992    6436.6618    11663.837    1860.0801 
  377400    300.25173   -1166.0339    6415.5223    11663.906    1919.6396 
  377500    297.70891   -1166.3236    6470.0854    11663.856    1925.5525 
  377600    300.35337    -1163.318    6410.5062    11663.777    1829.6202 
  377700    300.50504   -1163.4318     6407.511    11663.908    1813.6938 
  377800    299.74414   -1162.4298    6422.8347    11663.979    1877.4139 
  377900    298.73185     -1162.16    6444.1442    11663.932    1938.5972 
  378000    297.08228   -1155.8034    6472.9328    11663.836    1937.1991 
  378100    298.70104   -1153.3365    6435.8733    11663.826    1897.6015 
  378200    298.39195   -1156.3025    6445.5054    11663.889    1889.0952 
  378300    300.63116   -1160.0648    6401.4247    11663.883    1892.6978 
  378400     298.6245   -1162.2496    6446.5015    11663.906      1842.46 
  378500    300.69583   -1163.9089     6403.961    11663.957    1914.9446 
  378600    302.02368   -1171.6668    6383.2913    11663.897    1857.6657 
  378700    299.31169   -1162.4076     6431.998    11663.925    1877.4857 
  378800    304.25453   -1168.8303    6332.8822    11663.983    1790.6701 
  378900    297.22392    -1166.854    6481.1534    11664.032    1840.5547 
  379000    300.72605   -1167.6185    6407.0572    11663.989     1859.013 
  379100    302.39217   -1160.1769    6364.0076    11663.975    1839.1454 
  379200    298.68731   -1156.3742    6439.3272    11663.949    1829.9023 
  379300    302.34254   -1164.3301    6369.2286    11663.983    1854.6276 
  379400    296.87064   -1158.9278     6480.773    11664.031    1798.3346 
  379500    301.95213   -1164.9307     6378.112    11663.925    1834.8793 
  379600    300.04881   -1165.7631    6419.5567    11663.876    1903.6859 
  379700    299.11648   -1165.6959    6439.4771    11663.946    1893.3963 
  379800    300.77177   -1168.5782    6406.9697    11663.919    1773.1609 
  379900    297.14928   -1170.4474     6486.194    11663.885    1908.0473 
  380000    301.47275   -1167.5089    6390.8451    11663.839      1827.71 
  380100    298.82929   -1160.5771    6440.3414    11663.794    1837.6777 
  380200    299.34834   -1160.3416     6428.993    11663.769    1892.7283 
  380300    299.88645   -1161.0437    6418.1566    11663.727    1912.2591 
  380400    298.03711   -1155.6348    6452.3177    11663.788    1880.2083 
  380500    303.04608   -1158.6374    6348.1769    11663.654    1844.2234 
  380600    299.90917   -1160.4956    6417.1508    11663.754    1807.5313 
  380700    300.95644   -1164.8949    6399.0949    11663.673    1799.1271 
  380800    300.14374   -1164.2369    6415.8831    11663.757    1851.9482 
  380900    301.37931   -1159.9208     6385.117    11663.703    1889.1514 
  381000    302.14473    -1162.451    6371.3323     11663.74    1903.2566 
  381100    299.51035   -1157.1567    6422.4249    11663.847     1929.473 
  381200    301.23272   -1159.5277    6388.0802    11663.927    1918.8702 
  381300    298.94872   -1163.1218    6440.4363    11663.895    1982.0506 
  381400    302.98125   -1165.7195     6356.932    11663.942    1963.6225 
  381500    300.60785   -1161.2385    6403.1349    11663.922    1926.4529 
  381600    300.20468   -1164.0533    6414.4899    11663.849    1840.2863 
  381700    298.57692   -1164.5398    6449.8426    11663.941    1915.6514 
  381800    297.17657   -1167.2216    6482.5419    11664.042    1927.9045 
  381900    300.59929   -1169.9605    6412.1525    11664.035    1884.9446 
  382000    301.04076   -1167.6618    6400.3887    11664.001    1820.3024 
  382100    305.28356   -1167.8462    6309.9817     11664.05    1842.5562 
  382200    296.99724   -1172.0927    6491.2842    11664.082    1887.0348 
  382300    302.17669   -1167.3645     6375.897    11664.074    1825.8305 
  382400    297.65423    -1168.248    6473.4374    11664.115    1888.3294 
  382500    300.68215   -1166.2304    6406.6259    11664.008    1900.9265 
  382600     301.6445   -1166.7498    6386.6008    11664.023    1924.4836 
  382700    298.92885   -1170.5674    6448.4694    11664.058     1899.052 
  382800    300.86138   -1162.5024    6399.1504     11664.09    1909.3314 
  382900    299.20168   -1161.3635     6433.343    11663.964    1910.2934 
  383000    299.17035   -1165.7106    6438.3979    11664.003    1876.7422 
  383100    302.32964    -1164.857    6370.0983     11664.05    1825.5477 
  383200    299.87506   -1163.4888    6421.0867    11663.968    1857.8418 
  383300     302.4209   -1154.9899    6358.1623    11663.931    1809.0428 
  383400    298.71556   -1165.6803    6447.9835    11663.903    1868.2259 
  383500    299.41298   -1164.5345    6432.0087    11663.973    1856.3771 
  383600    299.59436   -1162.1471    6425.5893    11663.816    1851.0167 
  383700    300.02394   -1156.5583    6410.8535    11663.846    1838.7906 
  383800    297.02136   -1163.9851    6482.4755    11663.896    1865.5511 
  383900     302.0676   -1163.5605    6374.1384    11663.789    1827.4442 
  384000     299.4241   -1157.6312    6424.6758    11663.781    1811.5033 
  384100     300.5992   -1161.2683    6403.3247    11663.897    1868.3218 
  384200    299.09285   -1162.3952    6436.5835    11663.848     1878.169 
  384300    299.48174   -1157.2173    6423.0417    11663.792    1861.1609 
  384400    301.59443   -1158.6299    6379.4295    11663.902    1929.6623 
  384500    298.59227   -1165.6592    6450.5924    11663.899    1899.6903 
  384600    299.08802   -1162.3089    6436.6453    11663.893    1853.1467 
  384700    302.73536   -1166.5416    6362.9435    11663.878    1838.2135 
  384800    297.95981   -1168.1436    6466.6151    11663.926    1907.8443 
  384900    298.53224   -1165.3108    6451.5514    11663.924    1886.9199 
  385000     300.2152   -1164.0889    6414.3503    11663.898    1870.3238 
  385100    301.46104   -1170.2338    6393.9653    11663.984    1907.7267 
  385200    297.33578   -1165.3371    6477.1352    11663.921    1904.1504 
  385300    302.11401   -1161.1953    6370.9165    11663.923    1849.0999 
  385400    300.49788   -1161.5525    6405.7936    11663.917    1928.7584 
  385500    299.79672   -1164.0175    6423.4129    11664.092    1909.3824 
  385600    300.89669   -1168.8268    6404.7069    11664.076    1885.8408 
  385700    301.15904   -1169.0383    6399.2518    11664.014    1895.8301 
  385800    300.55477   -1167.9873    6411.1276    11664.032    1847.2568 
  385900    300.08573   -1174.0891    6427.2225    11664.005    1844.5425 
  386000    298.29238   -1164.8123     6456.238    11663.985    1874.7639 
  386100     298.5296   -1160.1684     6446.457    11663.915    1932.0322 
  386200    301.66098   -1165.0915    6384.4421    11663.875    1959.5205 
  386300    300.08257   -1164.6124    6417.7578    11663.949     1912.863 
  386400    299.09527   -1164.9424    6439.2054    11663.974    1849.9759 
  386500     300.3668    -1165.716    6412.7331    11663.893    1825.1304 
  386600    298.50507   -1165.2154    6451.9615    11663.849    1838.0368 
  386700    301.31863   -1169.7395    6396.4997     11663.97    1902.5101 
  386800    296.33648   -1169.9199    6503.0711    11663.925    1880.1088 
  386900    300.43363   -1164.5296    6410.0765    11663.851    1926.3763 
  387000    302.31915   -1165.8052    6371.1034    11663.883    1970.8004 
  387100    298.09425   -1160.7051    6456.2262    11663.847    1910.9982 
  387200    297.93186   -1162.8854    6461.9102    11663.882    1976.8475 
  387300    302.14996   -1161.3755    6370.2215    11663.816    1984.8218 
  387400    297.47366   -1162.5466    6471.4041    11663.926    2008.5916 
  387500    299.91633   -1167.6064    6424.3172    11663.963    1939.8728 
  387600    299.93421   -1163.1671    6419.4853    11663.953    1900.8958 
  387700    302.21451   -1171.0679    6378.6521    11663.933    1853.4566 
  387800    294.12329    -1167.678    6548.2385    11664.053    1873.5681 
  387900    301.05485   -1171.5183    6403.8927    11663.949    1887.2015 
  388000    300.40951   -1170.1097    6416.2606    11663.939    1824.3468 
  388100    301.13576   -1166.3938    6397.0064    11663.916     1839.769 
  388200    298.29773   -1168.2569    6459.6435     11664.06    1932.3208 
  388300    297.69576   -1171.4319    6475.5828    11663.964    1877.2158 
  388400    302.32904   -1166.7524    6371.8648    11663.908    1870.3004 
  388500    302.65096   -1170.1291    6368.4449    11663.989    1872.1701 
  388600    296.28804   -1166.1783    6500.5344    11664.095    1899.0285 
  388700    300.64713   -1170.5574    6411.7288    11664.036      1911.13 
  388800    301.58614   -1168.2556    6389.3123    11663.982     1913.261 
  388900    300.93973   -1172.1793    6407.1192    11664.055    1896.2013 
  389000    296.83201    -1169.263     6491.964    11664.061    1918.2132 
  389100    300.61319   -1171.7564    6413.5898    11663.973    1890.4371 
  389200    303.33312   -1168.2506    6351.9567    11663.953    1825.0711 
  389300     297.2617   -1159.3977     6472.793    11663.935    1855.2103 
  389400     299.6005   -1163.6062    6427.0627    11663.961    1903.3018 
  389500    299.49988   -1161.1835    6426.7816    11663.954    1882.1365 
  389600    301.35285   -1164.6423    6390.5902    11663.889    1857.9808 
  389700    301.80739   -1165.6696     6381.971    11663.953    1892.0246 
  389800    297.54573   -1165.2125    6472.5418    11663.937    1900.4855 
  389900    300.62895   -1158.1089    6399.4478    11663.815    1857.3376 
  390000     301.0994   -1160.0273    6391.3581    11663.857    1949.5923 
  390100    297.61374    -1159.941    6465.6752    11663.795    1967.3039 
  390200    299.61307   -1161.1448    6424.1441    11663.773     1921.543 
  390300    301.74296   -1160.7316    6378.3665     11663.91    1939.5868 
  390400    299.02908   -1162.0833    6437.6937    11663.908    1906.9017 
  390500    298.46214   -1168.6415    6456.3669    11663.911    1863.7104 
  390600    297.19291   -1162.0685    6476.8255    11663.827    1823.2384 
  390700    298.39428   -1166.7093    6455.8742    11663.901    1800.7142 
  390800    300.14394   -1166.0428    6417.8338    11663.906    1822.5899 
  390900    300.27341   -1160.1512    6409.2212    11663.951    1866.2969 
  391000    300.81272   -1160.4882    6398.0134    11663.927     1919.807 
  391100    301.52137   -1166.2618    6388.6488    11663.928     1875.911 
  391200    294.00453   -1164.2428    6547.1682    11663.881    1905.7999 
  391300    303.12258   -1167.8997    6356.0812     11663.93    1915.1779 
  391400    299.49099   -1167.1252    6432.8932    11663.933    1981.5179 
  391500    301.38028   -1166.3871     6391.864    11664.004     1899.031 
  391600    297.68405   -1170.9356    6475.3684    11663.996    1917.2624 
  391700    301.02943    -1170.445    6403.4625    11664.049    1917.9619 
  391800    298.43151   -1171.1156    6459.5922    11664.008    1883.6319 
  391900     299.2531   -1166.6055    6437.5526     11664.03    1867.8553 
  392000    298.50169   -1167.5657    6454.6068    11664.072    1914.5061 
  392100    300.01301     -1167.04    6421.6835    11663.961    1891.9567 
  392200    301.15602   -1166.1328    6396.4577    11664.061    1900.0965 
  392300    300.43363   -1169.1511    6414.9159    11664.068    1884.6829 
  392400     299.2512   -1159.8607     6430.857    11664.039    1840.1172 
  392500    301.97369   -1163.4495    6376.2148     11663.97    1905.9055 
  392600    304.13146   -1164.1567     6330.819    11663.964    1905.9026 
  392700    299.13069   -1165.4351    6439.0425    11664.076    1898.9819 
  392800    296.96779   -1163.7077    6483.4034    11663.957    1864.6116 
  392900    300.47802   -1160.2864    6404.9418    11663.907    1928.7988 
  393000    296.55481   -1165.4934    6494.0451     11663.99    1917.2493 
  393100    303.70727   -1164.8251    6340.4538    11663.869    1884.8341 
  393200     301.2205   -1158.1508    6386.9466     11663.91    1943.7766 
  393300    296.47397   -1159.5178    6489.6408    11663.834    1898.3843 
  393400    299.42131   -1159.6095    6426.7221    11663.789    1813.6647 
  393500    300.76984   -1158.9009    6397.2528    11663.838      1841.17 
  393600    296.47981   -1158.1173    6488.1502    11663.869    1910.4423 
  393700    302.32766   -1160.8667    6366.0038    11663.904    1856.2331 
  393800    298.07924   -1156.7867    6452.6479    11663.867    1868.2236 
  393900     296.9409   -1162.1788    6482.3159    11663.824    1904.6894 
  394000    303.06717   -1163.5937    6352.8797    11663.851    1807.9774 
  394100    297.71876   -1162.2869    6465.8682    11663.886     1829.048 
  394200    301.88719   -1165.1301     6379.771    11663.997    1850.4863 
  394300    299.21725   -1164.2056     6435.793    11663.905    1894.2007 
  394400    301.48033   -1158.8205    6382.1081    11663.952    1870.6877 
  394500     299.9688   -1158.8119    6414.3193    11663.881    1921.2927 
  394600    299.40907   -1160.5965    6428.1476    11663.966    1926.6009 
  394700    299.68192   -1164.1709    6425.9198    11663.993    1939.9912 
  394800    302.32326   -1165.9152    6371.2256    11663.983    1847.0294 
  394900    296.55241   -1168.9879    6497.6568    11664.056    1858.1611 
  395000    301.93764   -1168.1243    6381.6543    11663.964    1841.9787 
  395100    301.05483    -1169.822    6402.3202    11664.073    1822.2567 
  395200    298.77659   -1169.6358    6450.7803    11664.048    1808.4615 
  395300    301.91461   -1170.8991    6384.9893    11664.033    1849.6289 
  395400    300.61947   -1165.4932    6407.2409    11664.021    1946.6906 
  395500    298.27889   -1165.4577    6457.3279    11664.141    1925.0618 
  395600    296.30173   -1165.7121    6499.6619    11663.982    1891.8843 
  395700    296.54973   -1166.9349    6495.6886    11664.084    1957.4224 
  395800    302.64412   -1168.4109     6366.915    11664.031    1962.6436 
  395900    300.63553   -1169.6564    6411.0772    11664.038    1923.9099 
  396000    299.61777   -1169.2371    6432.4305    11664.067    1890.0513 
  396100     297.4183   -1171.3507     6481.471    11664.006    1898.7177 
  396200    297.43121   -1168.2194    6478.0271    11663.969    1939.2087 
  396300    304.00129   -1159.6073    6329.0614    11663.975    1941.6479 
  396400    304.08894   -1163.0173    6330.4835     11663.86    1920.2476 
  396500    300.72731   -1165.4598    6404.7886    11663.906     1903.929 
  396600    296.24328   -1167.7547    6502.9391    11663.967    1904.4258 
  396700     298.9248    -1168.297    6446.2608    11664.034    1921.5859 
  396800    298.53518   -1164.7053    6450.8592      11663.9    1923.5945 
  396900     301.1101   -1165.5608    6396.6929    11663.887    1935.7347 
  397000    299.01098   -1164.1759    6440.1324    11663.867    1898.4248 
  397100     299.9611   -1166.5682    6422.2613    11663.902    1872.5292 
  397200    296.90884   -1167.4123    6488.3221    11663.912    1897.6143 
  397300    301.92948   -1170.9859    6384.6712    11663.945    1840.6327 
  397400    297.33954   -1167.3358    6479.0622    11663.929    1877.7342 
  397500    302.33288   -1170.7893    6375.8199    11663.909    1922.6629 
  397600    299.29344   -1163.7732    6433.7744    11663.946    1921.7745 
  397700    298.54479   -1157.0769    6443.1044    11663.979    1879.6566 
  397800     299.3882   -1166.0648    6434.0971    11664.002    1978.1029 
  397900    305.02862   -1165.8509      6313.36    11663.978    1890.7845 
  398000    297.35758    -1167.755    6479.1619    11663.995    1831.4986 
  398100    301.09685     -1173.48    6405.0163    11664.009     1871.375 
  398200    298.68127   -1169.3896    6452.4745    11663.952    1904.3316 
  398300    303.59046   -1164.2955    6342.5383    11663.987    1842.6093 
  398400    296.74345   -1166.6833    6491.1819    11663.967    1965.0438 
  398500    300.93393   -1162.0227    6397.0165    11663.986    1958.8367 
  398600    300.50161   -1165.3218     6409.484    11663.918    1970.5919 
  398700    299.52097   -1162.1528    6427.2976    11663.951    1992.3215 
  398800    296.78041   -1171.8122    6495.5212    11663.967    1962.6975 
  398900    297.54262   -1166.7895    6474.3123    11664.064    1914.1937 
  399000    303.26842   -1164.8633    6349.8895    11663.891    1847.1527 
  399100    297.67254   -1166.4654    6471.0842    11663.936    1935.0063 
  399200    300.89091    -1163.667    6399.4938    11663.899    1919.7167 
  399300    300.97882   -1161.7723    6395.6732    11663.852    1887.6233 
  399400    299.13498   -1163.9976    6437.2826    11663.845    1890.7118 
  399500    300.63952   -1158.8641      6400.04    11663.878    1903.2421 
  399600    299.94925   -1156.9141    6412.8078    11663.849    1896.3928 
  399700    294.98075   -1164.7701    6526.8174    11663.858    1889.3484 
  399800    298.97734   -1166.2541    6442.9669    11663.905    1927.9729 
  399900    302.78033   -1167.2335    6362.6662     11663.87    1929.9957 
  400000    297.60457   -1170.3257    6476.4312     11663.97    1970.6866 
  400100    298.99733   -1160.1588    6436.4386    11663.899    1911.5639 
  400200    297.60889   -1160.6528    6466.4773    11663.782    1930.7057 
  400300    302.06454   -1164.8472    6375.6147    11663.913    1953.9714 
  400400    301.88137   -1162.0712    6376.7893     11663.95     1894.986 
  400500    299.19549   -1158.5241    6430.5549    11663.883    1903.0903 
  400600    299.09443   -1162.4306    6436.7141    11663.977    1896.6672 
  400700    301.19334   -1166.2074    6395.6756    11664.002    1872.2045 
  400800    298.06438   -1163.7956    6460.1621    11664.055    1876.7266 
  400900     299.1929   -1170.5189     6442.799    11664.077    1961.5277 
  401000    299.45553   -1166.2649    6432.9739    11664.117    1981.2566 
  401100    300.08819   -1172.5504    6425.7216    11664.095    1942.2416 
  401200    299.64098   -1155.1487    6417.8329    11664.054    1853.8607 
  401300    296.86805   -1167.3109    6489.2448    11664.064    1894.1618 
  401400    298.12857   -1169.6309    6464.6246    11664.053    1977.4456 
  401500    302.47437   -1163.0231     6365.055    11663.933    1874.2937 
  401600    299.42387   -1163.8318    6431.0572    11663.957    1891.4512 
  401700     299.9969   -1163.4835    6418.4748    11663.965    1904.1008 
  401800    297.41809   -1165.0753    6475.2842     11664.09     1883.816 
  401900    301.63491   -1165.2373    6385.2746    11664.004    1810.1035 
  402000    300.79156   -1167.4497    6405.4701    11663.971    1826.2584 
  402100    301.45244   -1163.3011    6387.1966    11663.964    1827.7038 
  402200    302.03226   -1164.2873    6375.7853    11663.954    1854.9183 
  402300    299.06925   -1164.1256    6438.8581    11663.888    1950.5566 
  402400    298.32748    -1156.694    6447.2209    11663.836    1896.7719 
  402500    300.63437   -1158.4699    6399.7364    11663.858    1885.9109 
  402600    298.37185    -1162.422    6452.0286    11663.863    1939.0095 
  402700    300.99413   -1157.6473       6391.2    11663.831    1897.2215 
  402800    300.37382   -1156.7973    6403.5838    11663.812    1884.6307 
  402900    298.88899   -1159.8645    6438.3605    11663.801    1902.0458 
  403000    299.36785   -1161.8271    6430.1312    11663.839      1871.35 
  403100     296.3361   -1161.2299    6494.2627    11663.799    1878.4629 
  403200    301.36193   -1161.1683    6386.9275    11663.894     1913.781 
  403300    295.68589   -1159.7551    6506.7385    11663.859    1927.3774 
  403400    301.26881   -1157.0677    6384.6724    11663.751     1852.275 
  403500    300.71137   -1159.7788    6399.3239    11663.782    1896.0671 
  403600    299.01988   -1159.1168    6434.7996    11663.784    1901.1691 
  403700    298.60695   -1160.8179    6445.3857    11663.847    1881.1348 
  403800    297.82098   -1168.2932    6469.7204    11663.916    1945.7058 
  403900    300.69318   -1164.6412    6404.7566    11663.964    1876.6773 
  404000    297.55529   -1167.8874    6475.0417    11663.966    1854.4098 
  404100    303.83675   -1163.6431    6336.6038    11663.967      1867.97 
  404200    300.44214   -1166.7214    6412.1557     11663.92    1915.4479 
  404300    300.13619   -1166.2202    6418.2922    11664.021    1971.1029 
  404400    297.74854   -1164.5934    6467.7594    11664.107      1908.93 
  404500    303.39908    -1171.665    6353.9552    11663.946    1858.0492 
  404600    297.27637   -1162.8061     6476.056    11664.103    1881.4732 
  404700    300.92119   -1168.7895    6404.1154    11664.046    1881.3047 
  404800    299.10716   -1169.7157    6443.8196     11664.07    1935.9903 
  404900    300.51565   -1167.1672    6411.1406    11664.029    1882.8931 
  405000    303.91568   -1172.6146    6343.9388    11664.016     1864.844 
  405100    300.22679   -1171.7714    6421.9658    11664.079    1917.4232 
  405200    297.52318   -1167.3223    6475.2467    11664.051    1877.2661 
  405300    301.44931    -1167.264    6391.2229    11663.961    1826.0219 
  405400    299.68761   -1172.5228    6434.1847    11664.028    1887.4708 
  405500    302.47697    -1163.879    6365.8531     11663.93    1825.9387 
  405600    299.33434   -1167.1663    6436.2893    11663.942    1835.4302 
  405700     298.9003   -1169.2705    6447.6591    11663.935    1913.8333 
  405800     299.5305    -1166.154     6431.064     11663.92    1922.6865 
  405900    299.20282   -1162.8595    6434.7483    11663.898    1890.4467 
  406000    299.49987   -1162.9475    6428.5107    11663.919    1898.4698 
  406100    298.60023   -1161.7647    6446.5902    11663.961    1950.7353 
  406200    302.38903   -1162.2745    6366.1779    11663.981    1900.9919 
  406300     296.5187   -1159.8421     6489.073    11663.898    1939.8378 
  406400    295.85062   -1161.5931    6505.0664    11663.868    1930.0117 
  406500    300.13184   -1166.3316    6418.4413    11663.966    1851.7925 
  406600    296.86422   -1163.6849     6485.484    11663.848     1844.707 
  406700    303.98489   -1162.1127    6331.8053    11663.863    1827.7368 
  406800     296.1755   -1159.2292    6495.7109    11663.817     1856.054 
  406900    297.68338   -1162.3282    6466.6017    11663.822    1845.6468 
  407000    297.93628   -1165.6048    6464.4765    11663.823    1867.8388 
  407100    305.28678   -1163.2168    6305.1333      11663.9    1942.6016 
  407200    297.58603    -1163.239    6469.7199     11663.95    1911.5834 
  407300    297.16659   -1166.2737    6481.6874    11663.922    1845.2161 
  407400    303.93819   -1156.5765    6327.2481    11663.845    1857.4735 
  407500    298.09832     -1162.54    6458.0797    11663.953    1885.6468 
  407600    302.06279   -1168.8441    6379.6512    11663.915    1853.5913 
  407700    296.05971   -1165.0973    6504.2062     11663.97      1971.61 
  407800    299.84878   -1165.7215    6423.8661    11663.954     1927.061 
  407900    302.09948   -1162.3123    6372.3322    11663.912    1821.5984 
  408000    298.83005   -1169.7808    6449.7211    11663.986    1908.4188 
  408100    298.15211   -1167.2716    6461.7231    11664.014     1922.374 
  408200    299.91233   -1169.5933    6426.4522    11664.026    1869.1569 
  408300    301.13161   -1168.8484    6399.7591    11664.125    1829.3259 
  408400    297.46428   -1168.4202    6477.6904    11664.138    1927.7095 
  408500    301.28308   -1173.3185    6400.9426    11664.075    1888.4312 
  408600    301.17586    -1164.313    6394.1433     11663.99    1841.6641 
  408700    301.41169   -1165.2752    6390.0542    11663.977    1903.0389 
  408800    300.63986   -1167.9959    6409.3172    11664.031    1889.1426 
  408900    301.81391   -1167.3107    6383.4057    11663.886    1815.7488 
  409000    299.88381   -1165.6337    6423.0972    11664.021    1871.4378 
  409100    301.77116   -1165.3593    6382.4201    11663.939    1929.0655 
  409200    299.40778    -1164.181    6431.7682    11663.975    1928.4878 
  409300    298.91558   -1160.5503    6438.5602    11663.883    1851.8606 
  409400    299.67126   -1165.8753     6427.791    11663.933    1914.0102 
  409500    298.15915   -1166.4241    6460.6701    11663.959    1853.8844 
  409600    301.41734    -1156.765     6381.329    11663.883    1798.4866 
  409700    300.07122   -1163.5658    6416.7469    11663.742    1893.5461 
  409800    301.38938   -1159.6789    6384.7958    11663.839    1845.7436 
  409900    296.69875   -1159.6032    6484.8465    11663.757    1847.8097 
  410000    299.41162   -1165.4486    6432.7431    11663.764    1905.5752 
  410100    299.43075   -1163.2277    6430.2011    11663.852    1927.5938 
  410200    297.49647   -1161.3796    6469.6067    11663.783     1903.805 
  410300    300.21893   -1165.4332    6415.4617    11663.745    1849.9807 
  410400    299.30852   -1157.1317    6426.6743     11663.81    1921.5435 
  410500     298.8686   -1157.7906    6436.7408    11663.819    1893.9497 
  410600    301.03842   -1167.3074    6399.9454    11663.862    1870.6038 
  410700    300.71989   -1160.1078    6399.5747    11663.886    1933.2687 
  410800    301.26856   -1161.5932    6389.3808    11663.928     1928.689 
  410900    299.57451   -1162.8464    6426.8243    11663.928    1860.4732 
  411000    298.19012   -1165.6284    6459.1574    11663.903    1866.3415 
  411100    297.49189   -1162.9447    6471.4608    11663.974    1856.0116 
  411200     305.1375   -1168.1409    6313.2332    11663.887    1784.4079 
  411300    300.72692   -1165.3365    6404.7367    11663.969     1830.286 
  411400    296.87565   -1157.0881    6478.7978    11664.002    1859.8961 
  411500     300.4366   -1170.4207    6415.9841     11663.93    1858.4168 
  411600    297.86219    -1166.737    6467.2853    11663.917    1899.7698 
  411700    303.70313   -1170.1532    6346.0236    11664.022    1908.0208 
  411800    299.83595   -1166.9903    6425.4093    11663.954    1893.5231 
  411900    297.17872   -1164.1308    6479.2771    11663.914    1841.3638 
  412000    300.58053   -1163.4235    6405.8137    11663.832    1929.3018 
  412100    299.19686   -1169.2362    6441.3256    11663.971    1916.2666 
  412200    300.91387   -1165.3771    6400.7289    11663.915    1889.5847 
  412300    303.56331   -1167.8511    6346.5599    11663.873    1831.4138 
  412400    295.68438   -1172.6503    6519.7859    11663.979    1882.5213 
  412500    302.33381   -1166.5037    6371.5351    11663.929    1827.3073 
  412600    299.16625    -1162.746    6435.4059    11663.888    1904.4305 
  412700     300.7072   -1164.1958    6403.9409    11663.893    1855.9912 
  412800    300.22199   -1161.1356     6411.304    11663.951    1820.0547 
  412900    303.16281   -1163.7101    6351.0672    11663.965    1856.9433 
  413000    299.93732   -1163.3701    6419.5248    11663.855    1882.6294 
  413100    295.63238    -1160.024    6508.1775    11663.886    1894.5228 
  413200    304.80613   -1164.6061    6316.7737    11663.883    1842.9076 
  413300    296.30962    -1160.971    6494.6635    11663.893    1876.2289 
  413400     299.8112   -1162.0448    6420.8636    11663.825    1818.3342 
  413500    298.58388   -1153.3574    6438.4081    11663.837    1785.9432 
  413600    298.70236   -1161.5211    6444.0173    11663.814    1803.9317 
  413700    302.82882   -1163.8552    6358.0955    11663.713    1812.6879 
  413800    297.28147   -1158.7985    6471.6143    11663.778    1839.7602 
  413900    295.68523   -1167.0495    6513.9542    11663.766    1770.5292 
  414000    298.14953   -1164.2439    6458.4972    11663.761    1810.7708 
  414100    307.51863   -1162.0572    6256.0789    11663.685    1811.2645 
  414200    295.92819   -1158.0974    6499.7579    11663.712    1864.1557 
  414300    299.85903   -1163.1659    6420.8907    11663.753    1901.1912 
  414400    297.87947   -1161.4836    6461.5088    11663.763    1895.3858 
  414500    300.90678   -1159.5597    6394.8563    11663.708     1820.332 
  414600    298.66251   -1156.9543    6440.2827    11663.795    1906.5559 
  414700    301.52974   -1157.8747    6379.9998    11663.845    1942.8488 
  414800    300.71042   -1166.0564    6405.6359    11663.796    1912.9987 
  414900    298.72011   -1166.2787    6448.3545    11663.773    1845.8848 
  415000    301.91673   -1165.3072    6379.1746    11663.855    1879.7328 
  415100    298.88166   -1167.0609    6445.8182    11663.906    1871.7518 
  415200    300.01785   -1161.4411    6415.9368    11663.917    1871.0825 
  415300    299.42831   -1166.7599    6433.7911    11663.858    1933.0396 
  415400    300.83764    -1160.067    6396.9808    11663.848    1905.6942 
  415500    298.20904   -1163.1902    6456.2133    11663.802    1889.5744 
  415600    300.32052   -1167.3852    6415.4005    11663.902    1920.9887 
  415700    299.26018   -1161.5088    6432.2002    11663.926    1861.4734 
  415800    298.73465   -1167.1668    6449.1259    11663.966    1851.4932 
  415900    302.54681   -1164.6879    6365.1469    11663.907    1847.7835 
  416000    299.39174   -1168.1216    6435.9538    11663.877    1902.4596 
  416100    297.02929   -1166.5938     6484.977    11663.958    1856.1366 
  416200     304.1067   -1167.8772    6335.0051    11663.901    1827.6866 
  416300    300.01639   -1159.7971     6414.384    11663.977    1846.4784 
  416400    299.09924   -1166.3816    6440.4952     11663.91    1864.0189 
  416500    302.02019   -1170.1967    6381.9575    11663.959    1876.0614 
  416600    294.88578   -1162.0132    6526.1605    11663.929    1871.6029 
  416700    299.66199   -1164.3588    6426.4502     11663.91    1841.2075 
  416800    303.95614   -1161.2044     6331.605    11663.957    1890.1709 
  416900    298.23114    -1159.266    6451.9452     11663.93    1865.0218 
  417000    302.30659   -1166.5858    6372.1258    11663.856    1892.1139 
  417100    298.93103   -1165.2364    6442.9235     11663.89     1946.742 
  417200    297.93213   -1165.2396    6464.1996    11663.823    1905.7477 
  417300     298.9919   -1163.8456    6440.2986    11663.956    1919.4322 
  417400    300.40765   -1165.6583     6411.806    11663.896    1941.5858 
  417500    301.69671   -1159.6299    6378.2218    11663.879    1907.8655 
  417600    297.74998   -1155.2002    6458.1579    11663.929    1875.3063 
  417700    300.26955   -1162.3984    6411.3907     11663.79    1909.6003 
  417800    294.43881    -1161.421    6534.9947    11663.807    1855.1844 
  417900    304.15824   -1166.2813    6332.2773     11663.87    1886.2691 
  418000     300.5449   -1164.6855    6407.9199    11663.915    1923.9176 
  418100    299.29296   -1164.0267    6433.9303    11663.838    1853.2023 
  418200    302.80486    -1165.123     6360.039    11663.877    1801.1015 
  418300    295.24584   -1169.8363    6526.2877    11663.926    1871.9354 
  418400    301.70622   -1167.3729    6385.7222     11663.84    1842.9071 
  418500    299.99688   -1168.3926    6423.3698     11663.95    1869.1537 
  418600    301.82163   -1160.3887    6376.3133    11663.881    1851.7404 
  418700    295.21873   -1162.5717    6519.6144    11663.938    1849.0641 
  418800    299.47353   -1166.0708    6432.1938    11663.915    1856.0824 
  418900    301.86086   -1163.7615    6378.8948    11663.927    1922.4274 
  419000     297.4036   -1167.0858     6477.551    11664.037    1868.7303 
  419100    303.80905   -1170.4315    6343.9969     11663.98    1811.2751 
  419200    297.83889   -1171.5673    6472.6246    11663.928    1885.3142 
  419300      301.611   -1172.5065    6392.9632    11663.913    1865.1165 
  419400    298.65174   -1166.2449    6449.9264    11663.918    1885.8431 
  419500    298.43826   -1160.0481    6448.3671    11663.994     1900.123 
  419600    298.45862   -1161.2036    6449.0456    11663.952    1895.0049 
  419700    299.98922   -1159.3989    6414.5295     11663.94    1807.0302 
  419800    299.55172   -1169.2207    6433.6968    11663.939    1861.8343 
  419900    301.73272   -1167.6447    6385.5607    11663.973    1874.1907 
  420000    300.43598   -1160.5598    6406.1547    11663.949    1850.8541 
  420100    300.35613   -1169.7342    6417.0624    11663.976    1849.4495 
  420200    302.76257   -1164.4859    6360.4111    11663.983    1851.3021 
  420300    293.15576   -1161.9115    6562.9926    11663.904    1882.1067 
  420400    304.45649   -1159.7891     6319.303     11663.76    1811.2892 
  420500    297.52143   -1161.4098    6469.1369    11663.816    1981.5861 
  420600    297.14812   -1158.0276    6473.7319    11663.818     1977.539 
  420700    303.11179   -1159.3302     6347.642     11663.83    1947.7652 
  420800    298.18652   -1159.6149     6453.177     11663.86    2005.4202 
  420900    297.21443    -1167.115    6481.4233    11663.839    1916.2451 
  421000    299.36137   -1166.8752    6435.2928    11663.814    1867.6052 
  421100    299.90962   -1160.4566    6417.1685    11663.821    1933.8457 
  421200    303.83437   -1161.6195    6334.4984    11663.834    1930.1948 
  421300    298.78008   -1163.1716    6443.9486    11663.755    1806.9744 
  421400    302.48326   -1159.5281       6361.2    11663.763     1807.003 
  421500    297.56862   -1155.6996    6462.4491    11663.846    1857.2615 
  421600     304.2902   -1158.5007    6321.5347    11663.727    1812.8616 
  421700    298.09718    -1161.256    6456.6364    11663.769    1836.5059 
  421800    302.18864   -1165.2885    6373.3015     11663.81    1777.7138 
  421900    295.44542   -1165.1479    6517.2463    11663.837    1789.0311 
  422000     299.5892   -1164.1319    6427.7232    11663.855    1796.6374 
  422100    299.33033   -1160.8397     6429.922    11663.816    1889.7664 
  422200    299.03618   -1157.3059     6432.617     11663.76    1869.6343 
  422300    303.24466   -1166.4186    6351.8452    11663.783    1844.2742 
  422400     299.7069   -1155.9697    6417.0162    11663.825    1879.9723 
  422500    299.63239   -1162.4847    6425.1158    11663.817    1825.7659 
  422600    300.36151   -1162.8984    6409.9849    11663.849    1801.8947 
  422700    298.14941   -1159.6979    6453.9857    11663.793    1910.3571 
  422800    300.62474   -1158.9479    6400.3473    11663.786    1891.4037 
  422900     301.5437   -1164.1969    6385.9335    11663.755    1833.1153 
  423000    297.37853   -1159.9592    6470.7021    11663.779    1940.8712 
  423100    302.43539    -1159.836    6362.5552    11663.787    1925.6336 
  423200    300.79326   -1160.7748    6398.6174    11663.829    1894.8151 
  423300    300.93798   -1158.9122     6393.583    11663.749    1894.6198 
  423400    300.94956   -1163.4186    6397.8751    11663.782    1827.1551 
  423500    296.81234   -1164.4098    6487.3864    11663.917    1839.2611 
  423600    305.18883   -1166.6075    6310.5441    11663.828    1817.2266 
  423700    300.69642   -1167.4214    6407.3657    11663.862    1858.9996 
  423800    299.64933   -1169.4455    6431.8259    11663.929    1896.1334 
  423900    298.36875   -1162.3483    6452.0872    11663.929    1912.2804 
  424000    299.98603   -1156.2267    6411.3101    11663.825    1865.8779 
  424100    299.45708    -1155.012    6421.4433    11663.872    1870.3579 
  424200    300.99266   -1162.1116    6395.7397    11663.874    1863.1816 
  424300    298.94162    -1167.182    6444.6367    11663.884    1879.2097 
  424400    299.99481   -1168.0072    6422.9723    11663.894    1859.5368 
  424500    301.76772   -1164.2802    6381.3725    11663.897     1831.702 
  424600     298.2248   -1172.6224    6465.4622    11663.955    1831.9691 
  424700    300.40231   -1163.7934    6410.0689     11663.91    1872.7626 
  424800    299.65826    -1164.649    6426.7824    11663.872    1928.2597 
  424900    300.66894   -1165.6576    6406.2644    11663.937    1904.6925 
  425000     299.2028    -1163.045    6434.9991    11663.963    1842.1416 
  425100    300.60516   -1160.7614     6402.663     11663.87    1878.8636 
  425200    298.08734   -1162.1836    6457.8616    11663.857    1898.2271 
  425300    302.17547   -1159.8462    6368.1627    11663.832    1829.2572 
  425400     298.5861   -1160.9506    6446.0466     11663.93    1888.1459 
  425500     299.8787   -1166.3846    6423.7836    11663.847    1890.8678 
  425600     301.0789    -1168.672    6400.2897    11663.707    1832.0897 
  425700     297.9462   -1159.5098    6458.2553    11663.909    1834.4056 
  425800    301.44996   -1167.7042    6391.4963    11663.808    1822.4094 
  425900     298.4545     -1160.93    6448.5983    11663.691    1864.8013 
  426000    300.08154   -1155.5094    6408.5642    11663.837    1925.2944 
  426100     300.5377   -1158.8124    6402.0698    11663.784    1903.0078 
  426200     297.8734   -1160.5191    6460.6879    11663.777    1834.5437 
  426300    301.16464   -1160.1323    6389.9478    11663.736    1862.1022 
  426400    299.89105   -1163.6883    6420.8022    11663.826    1928.0596 
  426500    298.93839   -1166.7135     6444.208    11663.855    1900.1845 
  426600    299.34981   -1163.3433    6432.0489    11663.855    1882.8304 
  426700    300.20969   -1162.1834    6412.5463    11663.882    1861.5605 
  426800    298.90312   -1162.5194    6440.8041    11663.891    1846.4064 
  426900    297.47144   -1160.0333    6468.8303    11663.818    1913.3543 
  427000    303.73723   -1160.8822    6335.7987    11663.796    1819.2625 
  427100    299.68154   -1161.0158    6422.6048    11663.825    1872.2822 
  427200    304.44862   -1163.1483    6322.9477    11663.877    1836.0916 
  427300    298.07375   -1167.2591    6463.2795    11663.909    1926.2472 
  427400    299.09675     -1165.26    6439.4244    11663.908     1970.733 
  427500    300.85028   -1166.3683    6403.1188    11663.955    1897.5863 
  427600    297.46738   -1169.3392    6478.4092    11664.004    1895.0704 
  427700    300.54393   -1172.8265    6416.0633    11663.897    1862.1009 
  427800    297.27292   -1170.0465    6483.2393    11663.973    1951.4832 
  427900    298.95629   -1166.4101    6443.5438    11663.876    1890.2858 
  428000    300.28612   -1162.7019    6411.4413    11663.892    1949.1506 
  428100    302.47333   -1163.5126    6365.5173    11663.883    1880.6069 
  428200    296.98618   -1168.6888    6487.9708    11663.936    1921.5458 
  428300    300.85022    -1167.395    6404.1165    11663.925    1837.9824 
  428400    300.03384   -1169.7132    6423.8619    11663.911    1854.0068 
  428500    299.08775   -1169.1862    6443.4989    11663.864    1856.2933 
  428600    297.43429   -1160.3535    6470.0251    11663.899    1921.8126 
  428700    301.03206   -1165.2246    6398.0084    11663.872    1876.2235 
  428800    299.85812     -1165.39    6423.2161    11663.835    1875.7306 
  428900    301.12693   -1166.1578    6396.8852    11663.842    1964.4049 
  429000    299.79607   -1159.8048    6418.7555    11663.634    1958.6256 
  429100     301.7633   -1159.4917    6376.5177    11663.736    1988.5164 
  429200    297.75421   -1160.4792    6463.2155    11663.798    2029.9686 
  429300    299.50557   -1159.6057    6424.8777    11663.749    1925.1718 
  429400    300.25009   -1160.9882    6410.4008    11663.795    1913.0049 
  429500    299.08712   -1159.8437    6434.0997    11663.793     1930.048 
  429600    301.60383   -1163.0825    6383.5971    11663.818    1867.1391 
  429700     294.4035    -1164.094    6538.5047     11663.89     1881.313 
  429800    302.93021   -1166.6185    6358.8588    11663.879    1825.4186 
  429900    298.84749   -1164.1462    6443.5223    11663.794    1802.4415 
  430000    295.20937   -1160.4356    6517.5426    11663.802    1850.8979 
  430100    300.77586   -1157.8068    6396.0239    11663.832    1901.3849 
  430200    302.45559   -1154.9383    6357.2433    11663.805    1923.3536 
  430300    301.38947   -1163.2501    6388.4716    11663.945    1939.5306 
  430400    297.60918   -1160.9012     6466.954    11664.016    1936.0164 
  430500    302.44543   -1168.5474    6371.2226    11663.958    1882.2719 
  430600     298.3197   -1166.4103    6457.2319    11663.964    1923.2705 
  430700     301.1148   -1165.1786    6396.3051    11663.982     1923.694 
  430800    299.54343   -1170.5651    6435.3639    11664.085     1889.024 
  430900    299.06013    -1163.924    6439.0521    11664.089    1885.3956 
  431000    301.81208   -1163.4357    6379.6825    11663.999    1866.1468 
  431100     301.1342   -1168.5419    6399.3377    11664.066    1915.6542 
  431200    296.43046   -1167.6499    6498.9418    11664.074    1917.1441 
  431300      301.552    -1168.418    6390.2392    11664.017    1830.4191 
  431400    297.81514   -1163.9691    6465.6137    11664.008    1928.4515 
  431500    301.11051   -1161.3913    6392.6068     11663.98    1850.5666 
  431600    298.31304   -1165.9521    6456.9054    11663.954    1912.5119 
  431700    302.09471   -1164.7979    6374.9624    11663.955    1975.5538 
  431800    299.04237   -1160.2194    6435.6006    11663.963    1943.9762 
  431900    300.83772    -1166.337    6403.3314    11663.931    1882.1156 
  432000    301.40649   -1164.9869    6389.8581    11663.958    1896.6077 
  432100    296.84891   -1158.1375    6480.3714    11663.955     1891.164 
  432200    300.70777   -1168.2926    6407.9863    11663.854     1861.101 
  432300    298.05546    -1165.628    6462.0029    11663.872    1878.2285 
  432400    300.01037   -1158.2305    6412.7124    11663.743    1872.1189 
  432500    300.66147   -1159.6205    6400.2613    11663.812    1900.6606 
  432600    300.12264   -1161.4955    6413.6391    11663.803    1918.1622 
  432700    297.13946   -1161.9029    6477.7803    11663.806    1931.3934 
  432800    299.22589   -1162.0787    6433.4154    11663.839    1932.8394 
  432900    294.85986   -1160.9686    6525.4641    11663.724    1874.5394 
  433000     298.4419   -1162.3022      6450.32    11663.771    1853.8774 
  433100     301.3298   -1156.7547     6383.145    11663.839    1845.8947 
  433200     301.2294   -1158.7311    6387.2162    11663.789     1822.448 
  433300    303.04704     -1164.36    6354.0158    11663.791    1943.4362 
  433400    298.71188   -1162.6983    6444.9802    11663.803    1866.3094 
  433500    300.92668   -1165.1315    6400.1509    11663.856    1847.3775 
  433600    299.66062   -1166.9239    6429.0005    11663.866    1923.4298 
  433700    299.92542   -1168.5825    6425.0997    11663.964    1876.6869 
  433800    298.69884   -1166.5679    6449.2658     11663.94    1914.8472 
  433900    299.38732   -1167.8256    6435.7566    11663.882    1907.6784 
  434000    301.47641   -1165.2158    6388.5687    11663.934    1837.3974 
  434100    300.73629   -1166.2706    6405.4775    11663.976    1843.8655 
  434200    299.90592   -1167.5471    6424.6364    11664.119    1942.3936 
  434300    298.79103   -1163.3944    6444.2963    11664.114    1948.8816 
  434400    303.97902   -1170.4761    6340.5187    11664.088    1903.8212 
  434500    301.27508   -1171.1952    6399.0196    11664.104    1877.9534 
  434600    298.85394   -1173.1546    6452.6846    11664.086     1890.879 
  434700    298.72039   -1173.2018    6455.5607    11664.062    1872.7636 
  434800    304.42337   -1171.7034    6332.2713    11664.106    1946.4483 
  434900    299.50959   -1169.0577    6434.5896    11664.095    1982.6288 
  435000    299.13886    -1163.127      6436.43    11663.946    1941.6009 
  435100    299.76748   -1166.9011    6426.9029    11664.074    1952.9784 
  435200    301.46283   -1169.1067    6392.8468    11664.031    1959.8305 
  435300    300.14143   -1161.5749    6413.4721    11663.958    1926.3526 
  435400    297.68735   -1166.1965    6470.5862    11664.023    1892.1033 
  435500    301.21617   -1163.3121    6392.2687    11663.978    1862.1447 
  435600    300.32306   -1170.4928    6418.5359    11663.984    1843.2312 
  435700    296.86567   -1165.3979    6487.2877    11663.969      1809.04 
  435800    300.70241   -1163.8882    6403.7482    11663.906    1883.7042 
  435900    301.19377   -1162.0618    6391.3908    11663.872    1892.9075 
  436000    302.12592   -1161.6088    6370.9932    11663.841    1881.8634 
  436100    297.60059   -1159.8192    6465.7896     11663.75    1899.3876 
  436200    298.87982   -1156.0363    6434.6025    11663.675    1845.5632 
  436300    299.89992    -1160.031    6416.9889    11663.859    1873.9091 
  436400     300.6326   -1161.9001    6403.1366    11663.791     1916.621 
  436500    299.02627   -1163.0415    6438.6378    11663.834    1874.5679 
  436600    300.25052   -1166.7212    6416.1391     11663.81    1871.6894 
  436700    298.58406   -1161.6536    6446.6969    11663.834    1843.9555 
  436800    298.82977   -1159.7532    6439.5411    11663.827      1853.82 
  436900    297.56213   -1156.8719    6463.8284    11663.915    1870.0997 
  437000    299.75039   -1159.5535    6419.7816    11663.935    1899.1326 
  437100     300.8142   -1164.8267    6402.2691    11663.876    1943.0003 
  437200    301.30172   -1156.2967    6383.3033    11663.856    1894.6321 
  437300    298.68725   -1164.6506    6447.5594    11663.903    1873.0974 
  437400    299.24181    -1163.608    6434.8067    11664.041    1912.9579 
  437500    299.04215   -1167.1584    6442.6057    11664.024    1866.8302 
  437600     300.9932    -1163.877    6397.6372    11664.018    1907.9958 
  437700    299.28956   -1167.5585    6437.8101    11664.114    1959.7011 
  437800    297.21595   -1168.6539    6483.2259    11664.135    1967.2072 
  437900    301.69283   -1162.9816    6381.8076     11664.03    1882.8977 
  438000    296.82676    -1165.118    6487.9623    11664.093    1974.6875 
  438100    301.54099   -1162.3018    6384.3509     11664.01    1912.6656 
  438200    301.08022   -1166.2624    6398.1774    11664.032    1932.0679 
  438300    297.84384   -1164.6911    6465.7826    11664.068    1945.5104 
  438400    299.37922    -1167.502    6435.8054    11664.081    1840.3744 
  438500    301.43984    -1168.754    6392.9996    11664.045    1861.2819 
  438600    302.52746   -1167.0761    6368.0299    11663.989    1922.8177 
  438700    300.92017     -1162.52    6397.6665    11663.844    1842.3463 
  438800    296.70323   -1160.3838    6485.6444     11663.87    1848.2438 
  438900    302.13808   -1158.4692    6367.6592    11663.906    1832.5745 
  439000    299.32502   -1166.6632    6435.9121    11663.869     1858.788 
  439100    298.10372   -1164.0934    6459.4665    11663.902    1867.4681 
  439200    301.13595    -1164.416    6394.9605    11663.852    1867.8057 
  439300    300.48429   -1167.9337    6412.4593    11663.911    1945.6653 
  439400    301.00497   -1163.8752    6397.2656      11663.9    1866.8037 
  439500    299.77088   -1168.2082    6427.9161    11663.853    1853.8844 
  439600    301.88948   -1162.8495    6377.2174    11663.773    1889.6861 
  439700    300.06123   -1156.5262    6409.9775    11663.799     1896.373 
  439800    301.02936    -1156.072    6388.8733    11663.832    1886.7648 
  439900    301.01451   -1156.2393    6389.4886    11663.962    1853.4031 
  440000    297.69758   -1158.1486    6462.2103    11663.914    1969.8297 
  440100    300.72555   -1162.0359    6401.4444    11663.948    1925.6581 
  440200    298.39966   -1161.9381    6451.0395    11663.952    1926.9676 
  440300    299.38608   -1170.5525    6438.6457    11664.017    1942.0321 
  440400    301.38945   -1165.3932    6390.5305    11663.861    1889.4307 
  440500    298.15062   -1159.2632    6453.6131     11663.88    1929.3059 
  440600    297.06737    -1163.689    6481.2328    11663.932    1973.0943 
  440700    299.03568   -1162.9422    6438.4724    11663.969     1918.569 
  440800    299.58122   -1160.7924    6424.6247    11663.925    1909.4446 
  440900     303.7839   -1166.7257    6340.8755    11664.027    1885.6934 
  441000    299.28568    -1168.574    6438.7643     11663.97    1901.5556 
  441100    299.56346   -1170.8463    6435.1812    11664.049    1866.1085 
  441200    300.41104   -1172.9959    6419.2439    11664.069    1871.9413 
  441300    300.46455   -1173.7131    6418.7804    11664.031    1860.7884 
  441400    301.20849   -1169.2236    6398.4375    11664.071    1855.4464 
  441500    296.69982   -1165.2137    6490.8061    11664.129    1890.0096 
  441600    299.85169   -1163.5378    6421.6799    11664.013    1886.5272 
  441700    300.63701   -1166.0067    6407.3872    11664.029    1910.6127 
  441800    299.81076    -1160.444       6419.5    11664.053    1913.3216 
  441900    301.49806   -1162.8528    6385.8935    11664.084    1910.1468 
  442000    297.70661   -1169.3021     6473.329    11664.072    1902.2058 
  442100    299.40758   -1165.8619    6433.5107    11664.032    1841.6138 
  442200    300.57493   -1174.0006    6416.7188     11664.04    1844.9494 
  442300    298.40629   -1165.1411    6454.2093    11664.061      1902.19 
  442400    299.26149   -1160.8009     6431.516    11663.978    1874.8249 
  442500     302.1123   -1157.8624     6367.629    11663.932    1863.1452 
  442600     300.4706   -1162.0564    6406.9035     11663.94    1883.7245 
  442700    298.95448   -1164.1633    6441.3993     11663.94    1924.5701 
  442800    296.67477   -1164.1036     6489.985    11663.883    1885.5582 
  442900    299.44898   -1163.8889    6430.5113     11663.89     1932.857 
  443000    297.80125   -1162.0848     6463.926    11663.908    1938.9278 
  443100    301.64577   -1161.9074    6381.5507    11663.842    1850.9719 
  443200    298.85627   -1165.3343    6444.5055    11663.777    1906.3096 
  443300    298.76565   -1165.6567    6446.8831    11663.896    1925.4203 
  443400    299.14755     -1158.25    6431.2634    11663.842    1865.3692 
  443500    303.41046   -1167.4114    6349.3029     11663.79    1882.4395 
  443600    296.83146   -1161.9706    6484.4691    11663.847    1914.7333 
  443700    300.81887    -1160.202    6397.5256    11663.857    1847.3635 
  443800    299.33891    -1168.616    6437.5509    11663.851    1953.5051 
  443900    300.08651   -1165.7111    6418.7146    11663.891     1951.593 
  444000    300.71794   -1167.5602    6407.1137    11663.931      1925.18 
  444100    300.48122   -1169.9659    6414.6309    11663.985    1935.5276 
  444200    300.75361   -1173.6348    6412.5627    11664.067    1979.9029 
  444300    301.28766   -1168.5421    6395.9568    11663.963    1956.0927 
  444400    294.83005   -1163.6389    6529.0383    11663.991    2009.3253 
  444500    303.65273   -1168.9482    6345.8482    11663.975    1965.9029 
  444600    300.15843   -1158.9785    6410.5965    11664.042    1929.3626 
  444700    298.98503     -1164.27    6440.9365    11664.023    1919.8517 
  444800    298.42602   -1168.7179    6457.4349    11664.131    1913.6367 
  444900    299.86442   -1164.9928     6423.033    11664.183    1914.4189 
  445000    299.65392   -1170.9759    6433.3487    11664.019    1884.5318 
  445100    296.86819    -1167.945    6489.8972    11664.086    1941.0092 
  445200    302.28323    -1170.185     6376.451    11664.083    1913.2045 
  445300     298.9867   -1167.7473    6444.4268    11664.072    1920.2007 
  445400    302.86445   -1163.4921    6357.2524    11663.995    1850.8758 
  445500    299.41695   -1156.1248    6423.5266    11663.986    1922.9672 
  445600     300.1744   -1160.3064    6411.4934    11663.953    1909.2539 
  445700    300.81844   -1165.3437    6402.7199    11663.901    1968.9269 
  445800    301.71511   -1160.0558    6378.2436    11663.868    1891.5252 
  445900    300.48141   -1161.1254    6405.6431    11663.842    1859.1347 
  446000     297.2112   -1163.3713    6477.8293    11663.919    1894.9526 
  446100    298.40733   -1155.6316    6444.3943    11663.778    1884.7996 
  446200     299.7772   -1162.8553    6422.3386    11663.763    1930.0846 
  446300    301.59418    -1156.082    6376.7253     11663.74    1877.9979 
  446400    299.94359   -1153.8937    6409.7988     11663.74    1870.1515 
  446500    298.46309   -1157.3104    6444.8857    11663.781    1917.6611 
  446600     302.3651   -1155.0974    6359.2809     11663.75    1938.9432 
  446700    297.50824   -1158.7983    6466.8848    11663.893    1869.7966 
  446800    297.71143   -1158.9307    6462.5951    11663.812    1900.1572 
  446900      298.506   -1159.6627    6446.3695    11663.829    1948.2659 
  447000    300.82268   -1164.2787    6401.5766    11663.913    1909.4018 
  447100     300.6891   -1162.0717    6402.1873    11663.877    1872.1807 
  447200    301.66145   -1162.0833     6381.392    11663.843    1917.7109 
  447300    294.65885    -1161.135    6530.1237    11663.923    1896.0855 
  447400      299.999   -1170.3701    6425.3187    11663.967    1878.7729 
  447500    303.54833   -1167.1474    6346.2586    11663.955    1939.3601 
  447600    298.80155   -1168.5547    6449.1278     11664.01    1940.6625 
  447700    301.47182   -1163.9913    6387.5812    11664.073    1861.2792 
  447800    300.80798   -1169.3844    6407.1753    11664.092    1820.8942 
  447900     300.4397   -1169.4733    6415.1882    11664.148    1851.1498 
  448000    302.32566   -1171.1762    6376.5671    11664.115    1797.2572 
  448100    301.47622   -1163.2053    6386.7115    11664.083    1869.6561 
  448200    301.70654   -1165.1122       6383.7    11664.085    1915.7074 
  448300    300.74496   -1164.6389    6403.7018    11664.018    1912.3157 
  448400    298.55765   -1166.4322    6452.2363     11664.03    1857.4468 
  448500    296.31541    -1164.832    6498.4877     11663.98    1885.6296 
  448600    297.91988   -1169.7481    6469.1581    11664.011    1921.1111 
  448700    303.58351   -1171.2678     6349.711    11664.039    1885.9997 
  448800    298.77262   -1172.0064    6453.2277     11664.04    1924.0461 
  448900     296.6053   -1170.8328    6498.2703    11663.955      1918.18 
  449000    301.05967   -1168.5583    6400.8507     11663.97    1841.9585 
  449100    297.03828   -1165.4469    6483.5939    11663.914     1898.002 
  449200    304.99864   -1160.3226    6308.3631    11663.868    1907.5015 
  449300    299.37465   -1157.5765    6425.6572    11663.761     1932.772 
  449400    301.60097   -1160.2225    6380.7618    11663.781    1906.8041 
  449500    297.58063   -1161.6374    6468.1276    11663.844    1902.7491 
  449600    300.53877   -1166.1309    6409.4066    11663.826    1836.2444 
  449700    299.00392   -1161.7809    6437.8271    11663.806    1881.2687 
  449800    299.38973   -1169.7579     6437.553    11663.797     1888.335 
  449900     301.8424   -1167.4867    6382.9044    11663.817    1901.1424 
  450000     298.0707   -1165.2747    6461.1826    11663.731    1889.5627 
  450100    299.23478    -1161.628    6432.6923    11663.756    1906.1635 
  450200    301.11279   -1163.6496     6394.632    11663.795     1899.652 
  450300    298.99496   -1160.7502    6437.0484    11663.867     1978.157 
  450400    302.72892   -1161.5456    6357.9414    11663.735    1928.4657 
  450500    303.06117   -1155.7426    6345.0433    11663.738    1923.4518 
  450600    300.19504   -1160.6357    6411.2549    11663.826    1924.3324 
  450700     297.6043   -1162.1364    6468.0759    11663.799    1958.7222 
  450800    301.50871   -1167.1468    6389.6755      11663.8     1878.512 
  450900    301.78255   -1169.0906    6385.8181    11663.849    1873.9426 
  451000    297.17731   -1166.5924    6481.7228    11663.868    1799.9873 
  451100    295.67555   -1169.9403    6517.1352    11663.849    1872.6453 
  451200    303.85091    -1162.663    6335.2417    11663.887    1950.7126 
  451300    298.96932   -1158.0004    6434.7961    11663.817    2013.2637 
  451400    303.68066    -1159.458    6335.5722    11663.786    1901.6879 
  451500    298.94389   -1155.6922    6433.0387    11663.824    1966.2172 
  451600     298.7311   -1161.9465    6443.9709    11663.956    1938.4396 
  451700    300.61427    -1162.452    6404.1662    11663.877     1955.648 
  451800    301.32263   -1165.3663    6391.9634    11663.893     1944.446 
  451900    297.66142    -1168.922     6473.829    11663.987    1910.4736 
  452000    299.49821   -1163.0527    6428.5996    11663.867    1887.9849 
  452100    304.24141   -1165.3006    6329.5485    11663.899    1864.3952 
  452200    298.95349   -1164.4625    6441.6168    11663.837     1903.164 
  452300    301.20032   -1161.1914    6390.4024    11663.894    1925.4791 
  452400    297.70535   -1158.9693    6462.7397    11663.788    1909.5824 
  452500    298.16197   -1162.1737    6456.2497    11663.849    1941.6031 
  452600     302.4694   -1160.3392    6362.4475    11663.903    1917.5463 
  452700    298.31601   -1163.6032    6454.4078    11663.868    1947.8015 
  452800    302.11533   -1162.6244    6372.2421    11663.848     1900.222 
  452900    297.29099   -1161.2835    6474.0119    11663.894    1870.8587 
  453000    301.68363   -1169.3961    6388.3781     11663.99    1858.9305 
  453100     298.9859    -1162.223    6438.7786    11663.931    1888.6251 
  453200    299.99066   -1162.3244    6417.4029    11663.919    1941.4079 
  453300     299.4721   -1158.3062    6424.4361    11663.892    1893.8627 
  453400    299.73236    -1162.666    6423.2841     11663.94    1879.5001 
  453500    303.98184   -1163.6725    6333.4957    11663.929    1918.4193 
  453600    299.89048   -1161.9958     6419.236     11663.94    1938.5545 
  453700    301.23269   -1164.4399    6392.9682    11663.903    1852.2181 
  453800    298.10251   -1164.3733    6459.7929    11663.922    1923.8557 
  453900    302.12187   -1165.7447    6375.2933    11663.919    1906.4926 
  454000    303.41135   -1165.4459    6347.4749    11663.947    1904.5238 
  454100    295.29104   -1166.3633    6521.8424    11663.919    1980.9097 
  454200    301.06075   -1164.7655     6396.966    11663.901     1972.208 
  454300    300.49413   -1166.1408    6410.4191    11663.874    1922.9502 
  454400    300.46994   -1168.4155    6413.2111    11663.875    1959.0661 
  454500    298.62695   -1164.1721    6448.3036    11663.838     1977.945 
  454600    298.05076   -1160.9592    6457.5039    11663.942      1947.56 
  454700    300.31145   -1158.8307    6407.0339    11663.896    1910.0745 
  454800    299.28355   -1167.8679    6438.1325    11663.998    2029.1046 
  454900    301.89974   -1162.8879    6377.1885    11663.925    1999.6801 
  455000    298.90249   -1165.9983    6444.3332    11663.928    1969.1055 
  455100    301.69117   -1168.8689    6387.6199     11663.92    1944.6488 
  455200    300.13061   -1163.2603    6415.3448    11663.914     1920.091 
  455300    298.28459   -1166.1289    6457.7135    11663.977    1891.7821 
  455400    303.77198   -1163.2654    6337.5625    11663.919    1905.9401 
  455500    298.23622    -1162.031    6454.7191    11664.047    1993.6129 
  455600    299.59579   -1165.1886    6428.7469    11663.963    1917.7461 
  455700    298.13526   -1162.9725    6457.7485    11663.978    1916.2495 
  455800    300.12157   -1156.7067    6409.0075    11663.938    1925.6942 
  455900     301.1847   -1163.9422    6393.5046    11663.911    1924.0786 
  456000    295.09284   -1168.7366    6528.4041    11663.873    1944.0717 
  456100    300.24088   -1164.3561    6414.1195    11663.949     1918.951 
  456200    299.47581   -1162.4435    6428.4486    11663.846    1850.8705 
  456300    299.45999   -1161.7882    6428.1655     11663.88    1896.9518 
  456400    300.65927   -1165.1505    6405.9533    11663.927    1973.7901 
  456500    301.39647   -1161.9959    6386.9725     11663.85    1891.4986 
  456600    297.82735   -1163.6036    6464.8715    11663.892    1906.5229 
  456700    299.55798   -1158.0517    6422.3569    11663.902    1943.4653 
  456800    300.73699   -1163.1195    6402.1485    11663.813    1886.9774 
  456900    300.15686   -1161.7691    6413.2426    11663.864    1856.3153 
  457000    302.15622   -1160.8403    6369.7153    11663.979    1915.8656 
  457100    299.31169   -1167.7844    6437.3595     11663.91    1907.1261 
  457200    299.93341   -1166.1772    6422.4123    11663.852    1886.5059 
  457300    299.94404   -1165.3712    6421.4521    11663.925    1906.5229 
  457400    299.08388   -1159.4604    6433.9296    11663.937    1884.7569 
  457500    298.18941   -1161.0999    6454.6522    11663.912    1877.8013 
  457600    302.16769   -1159.4481    6367.9565    11663.857    1939.6446 
  457700     300.5254   -1163.5271    6407.1831     11663.92    1916.0592 
  457800     297.6802   -1161.8559    6466.2877    11663.913    1937.7321 
  457900    301.25868   -1165.9852    6393.9618    11663.906    1930.9896 
  458000    299.80335   -1161.2914    6420.3662    11663.913    1923.1401 
  458100    298.03745   -1166.2812     6463.142    11663.974    1882.9964 
  458200    300.68941   -1165.6871    6405.8317    11663.912    1931.8426 
  458300    300.99645   -1159.9536    6393.5304    11663.904    1951.7983 
  458400    300.36634   -1156.0499    6403.0628    11663.879     1909.098 
  458500    297.08363   -1155.6842    6472.8066    11663.858    1961.5836 
  458600    300.62795   -1161.8408    6403.3033    11663.917    1902.1807 
  458700    300.90244   -1157.4763    6392.9708    11663.813    1844.1262 
  458800    302.37456   -1160.9118    6365.0172    11663.874    1853.3286 
  458900     298.6555   -1167.2655    6450.8476    11663.898    1858.9946 
  459000     298.3734   -1160.8269    6450.4899    11663.953    1871.8114 
  459100    301.26874   -1165.0338    6392.7219    11663.832    1952.9595 
  459200    299.63729   -1160.9024    6423.4147    11663.803    1960.9852 
  459300    298.53134   -1159.2368     6445.486    11663.913    2004.6322 
  459400    297.59682   -1157.1451    6463.2811    11663.835    1974.7227 
  459500     299.7186   -1161.3596      6422.13    11663.798    1928.7702 
  459600    299.45381   -1161.8812    6428.3103      11663.8    1886.9233 
  459700    301.99835   -1159.1179    6371.1428    11663.756    1888.4144 
  459800    302.93072   -1160.8257    6353.0026    11663.827    1932.8185 
  459900    297.31571    -1161.607    6473.7929     11663.88    1961.9685 
  460000    297.71871   -1158.7995    6462.4304    11663.934    1975.8183 
  460100    301.67586   -1162.8979    6381.9566      11663.9    1911.5901 
  460200      299.117   -1163.7127    6437.4534    11663.917    1904.7612 
  460300    300.55923   -1156.7456    6399.5492     11663.79    1902.2466 
  460400    299.08541   -1163.1787    6437.5638    11663.886    1883.2842 
  460500    299.93162   -1160.4598    6416.6994    11663.819    1896.2099 
  460600    304.91624     -1159.06    6308.7994    11663.807    1870.5342 
  460700    298.94215   -1162.8236    6440.1586    11663.775    1887.3929 
  460800    301.52654   -1165.8282    6388.0147    11663.838    1854.9645 
  460900    298.08884   -1166.1525    6461.8979    11663.956    2009.8934 
  461000    301.19746   -1167.5798    6396.8811    11663.923    1950.2095 
  461100    295.30061   -1164.9954    6520.3101    11663.959    1908.6095 
  461200    299.02545   -1162.5882    6438.3572    11663.989    1951.0747 
  461300    304.41893   -1165.2504    6325.7281    11663.921    1957.6816 
  461400    299.08168   -1162.1022    6436.5547    11663.874    1931.4123 
  461500    302.90659   -1162.4733    6355.2947    11663.956    1875.3744 
  461600    296.58928   -1162.5202    6490.2683    11663.923     1889.008 
  461700    299.02782   -1164.1041    6439.7099    11663.876    1870.2034 
  461800    299.99606   -1166.2273    6421.2262    11663.955    1927.0449 
  461900    301.99189   -1171.7314    6384.1779     11664.04    1970.5175 
  462000    298.51602   -1167.6773    6454.4383    11664.098     1922.656 
  462100    297.44759    -1173.053    6482.5597    11664.018    1990.3068 
  462200    299.68812   -1164.7592    6426.3425     11663.96    1999.5063 
  462300    299.47705   -1164.3112     6430.408    11663.965    1969.3215 
  462400    301.01815   -1161.3495    6394.4652    11663.907    1889.7999 
  462500    300.52277   -1163.3522    6407.0755    11663.931    1922.7512 
  462600    300.12918   -1159.4031    6411.4325    11663.829    1875.9983 
  462700     301.1452   -1166.1693    6396.5768    11663.913     1881.366 
  462800     302.1902   -1172.1557    6380.2629    11663.937    1918.9136 
  462900    300.63115   -1166.1516     6407.557    11663.929     1894.083 
  463000     296.9952   -1166.9964    6486.1281    11663.978    1938.1165 
  463100    301.68396   -1166.2428    6385.1802    11663.952    1910.1342 
  463200    296.52664   -1168.0255    6497.0811    11663.892    1963.3148 
  463300    298.07781   -1170.3105     6466.287    11663.952    2033.5083 
  463400    302.37149   -1165.6093    6369.7892    11663.883    2035.3155 
  463500    300.94977   -1167.3924    6401.8898    11663.828    2004.8649 
  463600      299.067   -1156.1747    6430.8738    11663.807    2032.9485 
  463700    301.00439   -1164.0661    6397.3815    11663.812    1912.7685 
  463800    301.15235   -1164.1056     6394.342    11663.894    1893.9797 
  463900    300.18779   -1169.2253    6420.1032    11663.929    1967.5895 
  464000    297.28774   -1164.4423    6477.2731    11663.927    1999.4518 
  464100    301.76377   -1172.2004    6389.4461    11663.966    1914.1082 
  464200    296.33908   -1163.8439    6496.8953    11663.881    1916.4165 
  464300    301.15132   -1162.1104    6392.3441     11663.87    1905.0449 
  464400    299.89133     -1167.13    6424.2109    11663.799    1910.3837 
  464500    299.44411   -1161.2423    6427.9739    11663.896    1911.5251 
  464600    297.14855   -1161.6334    6477.4027    11663.892     1913.423 
  464700    305.65719   -1161.0637    6295.0052    11663.838    1847.0396 
  464800    295.83479   -1155.0584    6498.8545    11663.853    1891.4069 
  464900    300.80822   -1160.0661    6397.6461    11663.886     1884.203 
  465000    300.16183   -1166.6349    6418.0578     11663.92    1850.3061 
  465100    298.40554   -1157.5939    6446.4201    11663.803    1821.1664 
  465200    298.60497   -1168.3688     6452.936    11663.804    1944.4468 
  465300    299.20342   -1164.1467    6435.9868    11663.862     1896.783 
  465400    294.17152   -1161.8318    6541.1693    11663.861    1945.6605 
  465500    302.32654   -1162.8657     6367.878    11663.755    1909.5362 
  465600    298.04562   -1160.5789     6457.166    11663.874    1875.2858 
  465700    301.36758   -1160.5431    6386.0695    11663.782    1827.8318 
  465800    300.80816   -1162.7742    6400.2537    11663.784    1857.5501 
  465900    297.83221   -1161.1675    6462.2413    11663.802    1908.4912 
  466000    300.90378   -1164.3451     6399.813    11663.815    1875.0206 
  466100    301.98483   -1164.9391     6377.366    11663.869    1908.4861 
  466200    301.13042   -1162.5343    6393.2445      11663.9    1935.1021 
  466300    302.72602   -1163.4143     6360.068    11663.931    1882.0983 
  466400    297.08245   -1164.7397    6481.9255    11663.896     1895.807 
  466500    300.65516   -1163.3248    6404.1921    11663.903    1906.6732 
  466600    300.24212   -1161.0101    6410.6846    11663.887    1929.4149 
  466700    302.86689   -1165.1363    6358.7533    11663.903    1910.3193 
  466800    298.56227   -1166.7136    6452.4095    11664.021    1968.7626 
  466900    301.49475   -1166.5653    6389.6382    11664.046    1903.5884 
  467000    300.59995   -1161.3781    6403.5226    11664.001     1856.701 
  467100    299.88011    -1163.476    6421.0017    11664.004    1868.7116 
  467200    302.17731   -1166.0528    6374.4754    11663.977    1805.9645 
  467300    299.10279   -1167.8539    6442.0301    11664.048    1857.4311 
  467400    301.71557   -1164.0206     6382.351    11664.021    1923.0112 
  467500    303.22466   -1165.8669    6351.8142    11663.877    1934.7009 
  467600    297.28374   -1161.0764    6473.9152     11663.85    1964.5887 
  467700    300.83339   -1160.9212    6397.9703    11663.893    1952.2861 
  467800      298.449   -1162.9738    6450.9728    11663.904    1899.5369 
  467900    296.84908   -1160.3117    6482.5144    11663.928    1924.5206 
  468000    302.03508    -1160.782     6372.038    11663.772    1868.0418 
  468100     300.8044   -1159.6396    6397.2581    11663.843    1839.5572 
  468200    300.22539   -1165.1271    6415.0813    11663.809    1885.7015 
  468300    299.23742   -1168.5235    6439.5725    11663.797    1929.4311 
  468400    298.83876   -1162.3242    6441.8595    11663.767    1857.6981 
  468500    300.19909   -1160.5314    6411.0597    11663.821    1893.4557 
  468600    299.92383   -1164.0936    6420.4669    11663.786    1868.7552 
  468700    302.00183   -1160.5853    6372.5054    11663.726    1881.2552 
  468800    298.48212   -1158.1276    6445.3226    11663.808     1995.261 
  468900    302.01869   -1166.3711      6377.97    11663.765    1885.2516 
  469000    298.08914   -1159.2329    6454.8948    11663.879    1925.7817 
  469100    300.10187   -1166.8656    6419.5597     11663.91    1922.6884 
  469200    296.11659   -1160.3387    6498.2115     11663.95    1922.2098 
  469300    299.14024   -1166.1291    6439.4485    11663.992    1927.1135 
  469400    298.00959   -1166.4698    6463.8932    11663.941    1909.1425 
  469500     301.7832   -1165.6877    6382.5756    11664.023    1855.8981 
  469600    297.27561   -1167.7058    6480.9063    11664.038    1893.5155 
  469700    304.08966   -1169.1439    6336.6979    11663.963    1896.2351 
  469800    296.81521   -1166.3365    6489.3853     11664.05    1894.8759 
  469900    300.46557   -1165.7215    6410.8026    11664.067    1880.3286 
  470000    300.03531   -1171.1616    6425.4674      11664.1    1906.9616 
  470100    301.91874   -1170.4267    6384.4351    11664.039    1883.1524 
  470200     302.1351    -1169.057    6378.3914    11663.987    1834.6834 
  470300    298.45951   -1167.6931     6455.559    11663.995    1903.9971 
  470400    301.21881   -1168.6385    6397.4898    11663.929    1887.7859 
  470500     300.6076   -1165.8238    6407.7879    11663.984    1930.0332 
  470600    297.87932   -1164.3188    6464.6036    11664.019    1936.5932 
  470700    302.35998   -1167.6173    6372.0701     11663.91    1877.2157 
  470800    297.86298   -1159.3506    6459.8726    11663.908    1908.3897 
  470900    299.39698   -1169.8316    6437.6483    11663.974    1896.5839 
  471000    300.25726    -1166.053    6415.4041    11663.887     1886.296 
  471100    299.64412   -1166.9211    6429.3653    11663.881    1884.6863 
  471200    294.93155   -1164.8087    6527.9569    11663.908    1907.0714 
  471300    300.44975   -1159.7279    6404.9297     11663.85    1809.3487 
  471400    302.30805   -1157.7886    6363.2486    11663.808    1903.8424 
  471500    295.85919   -1157.1272    6500.3058    11663.756    1952.9432 
  471600    300.25954   -1156.9242    6406.1552    11663.815    1899.5541 
  471700    299.70464   -1158.0111    6419.1462    11663.865    1871.8409 
  471800    299.00163    -1162.269    6438.4399    11663.882    1959.3151 
  471900    302.03001   -1164.1898    6375.5821      11663.8    1899.9782 
  472000    295.30034   -1166.5845    6521.7899    11663.844    1890.4226 
  472100    300.65924   -1163.0588    6403.6979    11663.762    1890.8212 
  472200     301.8984   -1159.9288    6374.1455    11663.813    1909.8953 
  472300    294.93646   -1158.3694    6521.3307    11663.826    1945.0859 
  472400     302.3894   -1162.3906    6366.1419    11663.837    1969.0612 
  472500    299.11927   -1159.6484    6433.3256    11663.902       1983.6 
  472600    300.80874   -1160.3361     6397.881    11663.862    1909.6601 
  472700    298.01675   -1160.6549    6457.8853    11663.901    1898.8145 
  472800    300.03243   -1162.3686     6416.581    11663.945    1921.7724 
  472900    298.91914   -1165.3669    6443.3775    11663.959    1864.0902 
  473000    300.11206   -1164.7379    6417.2183    11663.914    1880.0663 
  473100    298.61457   -1164.4103    6448.9346    11663.966    1904.6424 
  473200     300.7969   -1163.7056    6401.6252    11663.984    1941.1594 
  473300    299.70334   -1163.8077    6425.0457     11663.94    1951.6731 
  473400    300.29864   -1168.2562    6416.7836    11663.947    1951.9258 
  473500    298.66209   -1166.9653    6450.4834    11663.975    1943.1923 
  473600    301.85456   -1167.7327    6383.0159    11663.943    1862.5474 
  473700    302.02538   -1170.0061    6381.6594    11663.962    1899.1821 
  473800    300.93499   -1162.1487    6397.1729    11664.039    1922.9195 
  473900    297.08919   -1165.9232    6483.0022    11663.934    1904.2952 
  474000    300.97574   -1170.4813    6404.4779    11663.881    1902.1877 
  474100    300.07413    -1160.755     6414.053    11663.921    1856.0572 
  474200    297.98488   -1162.5514    6460.4283    11663.867    1856.3802 
  474300    297.97024   -1160.0622    6458.2035    11663.818    1870.7941 
  474400    302.58009   -1159.2784    6358.9243    11663.805    1909.2111 
  474500    298.91406   -1165.4958     6443.483    11663.827    1934.7074 
  474600    299.98647   -1162.5811    6417.5912    11663.761     1987.426 
  474700      298.188   -1163.3251    6456.7483    11663.752     1995.226 
  474800    297.56321   -1158.4011    6465.1682    11663.749    1882.7983 
  474900     300.3834   -1160.4073    6406.9536    11663.777    1901.4974 
  475000    302.59659   -1164.8903    6364.2438    11663.865    1932.0586 
  475100    300.55119   -1163.4353     6406.439    11663.819    1890.2878 
  475200    295.27771   -1161.6366     6517.241     11663.76    1867.8769 
  475300      305.182   -1160.8708    6304.9158     11663.79    1872.8786 
  475400    295.93306    -1158.056     6499.734    11663.834    1931.1387 
  475500     300.7052   -1158.2989    6397.9353    11663.742    1880.5286 
  475600    303.53192   -1163.5702    6342.9005    11663.824    1939.7329 
  475700    295.23796   -1157.7867    6514.3838    11663.903    2001.7955 
  475800    300.68281   -1158.5954    6398.8267    11663.858    1859.2142 
  475900    300.86211    -1163.042    6399.5131    11663.928    1917.9405 
  476000    301.03805   -1168.0587     6400.876    11664.033    1962.3115 
  476100    299.74512   -1164.7249    6425.0292    11663.899    1914.1347 
  476200      301.431   -1161.7122    6385.9535    11663.852    1873.2263 
  476300    301.34066   -1166.4416    6392.7289    11663.968    1901.4604 
  476400    297.60497   -1159.5807    6465.7124    11664.005    1847.7025 
  476500    300.90129   -1161.9572    6397.6741    11664.011     1828.853 
  476600    298.63086   -1163.3562    6447.5672    11664.001    1934.9056 
  476700    299.01248   -1164.9874    6440.9664    11663.922    1860.1776 
  476800    298.65107   -1166.1061     6449.822    11663.938    1844.5584 
  476900     301.5624   -1163.8418     6385.422    11663.998    1883.3354 
  477000    297.82456   -1164.1337    6465.5689        11664    1992.9842 
  477100    301.64033   -1162.3749    6382.2036    11663.911    1893.0349 
  477200     300.5873   -1160.6648     6403.055    11663.977     1908.209 
  477300    297.77266   -1161.8108    6464.3225    11663.968    1943.9448 
  477400    303.54629   -1163.6189    6342.7114    11663.893     1882.573 
  477500    297.51482   -1164.1558    6472.1986     11663.99    1934.6837 
  477600    301.56097   -1162.7366    6384.1889     11663.84    1895.2903 
  477700    295.10614   -1165.6872    6525.1137    11663.916    1893.3422 
  477800    304.33782   -1165.1817    6327.3903    11663.919    1888.9263 
  477900    300.01007    -1165.175    6419.8043    11663.884    1921.4908 
  478000      298.056   -1160.7358    6457.0493    11663.823    1933.8479 
  478100    302.23663   -1155.5625    6362.5451    11663.804    1845.1123 
  478200    299.87686   -1157.5653    6414.9738    11663.818    1929.0111 
  478300    302.95326   -1160.2691    6352.0178     11663.88    1944.1776 
  478400    297.32179   -1161.4279    6473.5239     11663.92    1876.2551 
  478500    300.43151   -1167.5837    6413.2229    11663.897    1839.2401 
  478600    302.38955   -1166.1804    6369.9932    11663.901    1888.4356 
  478700    296.29855   -1161.2753    6495.2541    11663.943    1919.6598 
  478800    300.45736   -1160.2986    6405.3755    11663.887    1883.2238 
  478900    299.73123   -1157.7288    6418.2905     11663.86    1936.1175 
  479000     301.0608   -1159.5133    6391.6411     11663.83    1926.0412 
  479100    302.91089   -1162.4808    6355.0713    11663.817    1896.4565 
  479200    298.00046   -1164.6145    6462.2528    11663.961    1887.0396 
  479300    303.05399   -1166.0999    6355.7724    11663.956    1888.3765 
  479400    300.81212    -1164.344    6401.8736    11663.919    1923.6731 
  479500    295.48339   -1170.0304    6521.4371    11663.956    1914.6708 
  479600    305.33697   -1165.6815    6306.6427    11664.017    1820.8897 
  479700    295.30942   -1167.1712    6522.2623    11663.924    1951.0997 
  479800     302.4915   -1167.8857    6369.5178    11663.899    1832.5067 
  479900    296.66378   -1164.1904    6490.3292    11663.905    1847.4351 
  480000    301.58258   -1165.2972    6386.4658    11664.018    1895.3731 
  480100    297.83292   -1165.4545    6466.6808     11663.97    1905.8003 
  480200    300.57812   -1170.1413    6412.6659    11663.915    1838.4305 
  480300    298.43536   -1168.9758    6457.4496    11664.087    1910.1931 
  480400    303.10343   -1172.5489    6361.2802    11664.071    1870.0253 
  480500    301.33339   -1161.1353    6387.6125    11664.003    1871.7543 
  480600    295.99967   -1161.5183    6501.8699     11663.93    1930.9877 
  480700    303.03564   -1169.3103    6359.4515    11664.033    1907.8358 
  480800    300.06813   -1163.0481    6416.5461    11663.993    1912.8429 
  480900    300.57433   -1161.0291    6403.6307    11663.911    1962.6257 
  481000    299.85343   -1167.7018    6425.7295    11663.936     1907.894 
  481100    300.88062   -1167.2201    6403.3723    11664.005    1868.3081 
  481200    297.45849   -1166.8215    6476.0641    11663.987      1910.67 
  481300    297.98816   -1161.4432    6459.3134     11663.93     1945.962 
  481400    301.03943   -1162.9961    6395.6596    11663.909    1933.0695 
  481500    300.01425   -1167.9842     6422.537    11663.897    1896.2792 
  481600    300.34982   -1165.0316    6412.4868    11663.968    1911.0159 
  481700    298.79771    -1164.428    6444.9504    11663.877    1923.9304 
  481800     302.9789   -1166.8648    6358.0327    11663.847    1841.0878 
  481900    295.71585   -1164.7332    6511.2421    11664.024    1995.4389 
  482000    300.15678   -1161.1445    6412.5838    11663.828    1930.0639 
  482100    299.03024   -1162.5067    6438.1121    11663.928    1926.3983 
  482200    302.65079   -1167.0049    6365.2752     11663.94    1879.5009 
  482300    294.46454   -1165.3017    6538.4615    11663.943    1858.7351 
  482400    298.47426   -1162.0303     6449.578    11663.992     1837.309 
  482500    299.80865    -1165.824    6424.8756    11664.003    1884.6453 
  482600    300.81978   -1168.0099    6405.4829    11664.026    1813.4319 
  482700     295.9963   -1165.3504    6505.7343    11663.891    1848.2077 
  482800    302.93462   -1170.6077     6362.898    11664.024    1897.6287 
  482900    297.23384   -1164.5927    6478.6537    11664.006    1922.8358 
  483000    299.94176   -1163.8871    6420.0845    11663.993    1914.6056 
  483100     298.7603   -1166.5303    6447.9374    11663.962    1942.6661 
  483200    300.12816    -1164.966    6417.1569    11663.969    1912.9673 
  483300    299.21711   -1169.0589    6440.7913    11664.047    1890.5866 
  483400    296.11359   -1161.2245    6499.2305    11664.018    1910.9735 
  483500    302.09649   -1161.6195    6371.8396    11664.048    1915.1023 
  483600    300.43503   -1168.7422    6414.3721    11663.963    1921.2246 
  483700    299.61375   -1166.1994    6429.4505    11664.039    1877.6952 
  483800     300.0995   -1169.6752     6422.608    11664.098    1893.6233 
  483900    300.96639    -1164.819    6399.0824    11663.949    1873.0404 
  484000    300.15696    -1159.955     6411.464    11663.902     1886.617 
  484100    300.79003   -1161.7678    6399.7952    11663.945    1980.9605 
  484200    297.45977   -1164.6796    6473.8005    11663.892    1996.1232 
  484300    300.27015   -1158.0547    6407.1553    11663.912    1934.8255 
  484400    302.46121   -1164.9936    6367.2968    11663.923    1991.6248 
  484500    298.89359   -1165.0563    6443.6075    11663.954    1945.4399 
  484600    299.25055   -1165.2445    6436.1376    11663.922    1857.8857 
  484700    299.36742   -1166.3807    6434.8483    11663.993    1890.6092 
  484800    298.21221   -1164.3303    6457.3807    11663.897    1927.7473 
  484900    302.12364   -1166.3834    6375.8339    11663.859    1886.1281 
  485000    298.56731   -1161.6707    6447.1597    11663.921    1932.1155 
  485100    299.36901   -1160.1397    6428.4595    11663.879    1893.4253 
  485200    298.02071   -1163.4147    6460.4408    11663.781    1922.9179 
  485300    301.70021   -1160.4654    6378.8862    11663.783    1902.6598 
  485400    300.14385   -1163.8146    6415.5733    11663.872    1945.5088 
  485500    300.65553   -1165.1684    6405.9957    11663.871    1891.3924 
  485600    300.87021   -1160.2367     6396.515    11663.909    1895.2967 
  485700    300.37645   -1168.8689    6415.7692    11663.982    1999.7092 
  485800    297.85688   -1166.3062    6467.0474    11663.996    1929.1376 
  485900     299.1613   -1163.9267    6436.7136    11663.909    1877.9278 
  486000    296.89767   -1156.6433    6477.8248    11663.945    1987.3988 
  486100    306.08657   -1163.2584    6288.1548    11663.966     1882.366 
  486200    294.05039   -1158.7308    6540.8183    11664.023    1955.6083 
  486300    301.28763   -1158.0308    6385.4712    11663.988    1956.5859 
  486400     298.7192   -1165.5917     6447.849    11663.935    1963.5628 
  486500    299.58018   -1169.3763    6433.3252     11664.02    1925.5051 
  486600    298.79484   -1169.1663     6449.871    11663.998    1956.8119 
  486700     302.4274     -1167.56    6370.5895    11663.927     1853.984 
  486800    299.29464   -1170.0848    6439.9577    11663.844    1867.7982 
  486900    298.76671   -1168.8778    6450.2094    11664.024    1950.1054 
  487000    299.44888   -1168.3149    6435.0692     11664.02    1968.4124 
  487100    299.66424   -1169.7038    6431.7022    11663.865    1896.6169 
  487200       299.18   -1160.3986    6432.7871     11663.91    1902.3996 
  487300    297.53092   -1165.4642    6473.1396    11663.967    1987.8807 
  487400    299.18349   -1159.6098    6431.9354    11663.922     1953.915 
  487500    300.01315   -1165.0096    6419.5336    11663.845    1899.6756 
  487600    302.41717   -1168.0175    6371.3094    11663.971    1909.9628 
  487700    299.29934   -1162.5151    6432.4355    11663.992    1917.6147 
  487800    298.77615   -1166.0156    6447.1338    11664.012    1871.5887 
  487900    302.24107   -1165.1024    6372.0992    11663.913    1966.8971 
  488000    298.06754   -1164.4965     6460.692    11663.951    1951.3577 
  488100    297.70202   -1168.8006    6472.8777    11664.024    1887.0515 
  488200    301.64949    -1168.994    6388.7922    11664.077    1894.3173 
  488300    298.16859   -1163.7203    6457.7475    11663.942    1909.6061 
  488400    301.80346   -1164.5205    6380.8445    11663.892    1842.3178 
  488500    297.68355   -1158.4216      6462.76    11663.891    1935.3714 
  488600    295.91529   -1155.4299    6497.4992    11663.845    1965.4882 
  488700    303.70645   -1160.2178    6335.8559     11663.86    1849.1863 
  488800    298.20021   -1164.3924    6457.7077    11663.905    1896.9317 
  488900    299.76329   -1171.5678    6431.4962    11663.911    1878.7163 
  489000    301.23496   -1163.4333     6391.868    11663.857    1784.8894 
  489100    300.70414   -1162.7219    6402.4986    11663.859    1904.6363 
  489200    300.56482   -1163.2515    6405.9571    11663.812    1904.7175 
  489300    298.76145   -1163.2621    6444.4644    11663.782    1836.6036 
  489400    301.15707   -1164.6625    6394.6973    11663.793    1874.7686 
  489500    300.98253   -1164.4036    6398.2762    11663.903    1884.7453 
  489600    300.23274   -1161.0673    6410.9418    11663.886    1864.8083 
  489700    297.90636   -1158.5311    6458.1077    11663.889    1874.7198 
  489800    301.83391   -1161.5745    6377.1866     11663.83     1928.495 
  489900    301.29522   -1167.3656    6394.5775    11663.922    1904.1368 
  490000    297.40969   -1166.3323    6476.6108     11663.98    1945.4815 
  490100    298.49344   -1169.8451    6456.9153    11663.924    1961.1286 
  490200    297.93655    -1162.957    6461.9377    11663.938     1927.791 
  490300    300.74821   -1165.6538    6404.5727    11663.943    1939.6137 
  490400    298.14893    -1166.199    6460.7222    11664.018    1951.7866 
  490500    303.00093    -1162.833    6353.6754    11663.992    1851.9391 
  490600    298.40704   -1167.3882    6456.3657    11663.986    1880.8652 
  490700        298.8   -1167.6392    6448.2779    11664.042    1915.5459 
  490800    300.15244   -1164.8001    6416.5734    11664.069    1919.0034 
  490900    298.15395    -1160.533    6454.9464    11664.015    1897.9204 
  491000    301.47635    -1173.337    6396.8895    11664.132    1901.3457 
  491100    301.48675   -1165.6582    6388.9237    11664.067    1935.1878 
  491200     299.3162   -1164.2484    6433.8044    11663.988    1954.2265 
  491300    301.98826   -1163.4611    6375.9529    11664.008    1885.5316 
  491400    298.25653   -1165.7078    6457.9085    11663.994    1951.7482 
  491500    300.73646    -1168.009    6407.1718    11663.936    1895.3708 
  491600     300.5092   -1162.6174    6406.6102    11663.911    1832.6671 
  491700    298.44704   -1163.3482    6451.4279    11663.943     1987.037 
  491800    301.44485   -1160.8457    6384.8705    11663.931    1923.3535 
  491900    301.74839   -1164.6345      6382.09    11663.847    1881.4207 
  492000    303.17161   -1163.2184    6350.3776    11663.956    1935.1432 
  492100    299.18318   -1161.0479    6433.3447    11663.886    1971.6651 
  492200    297.49417   -1161.8346    6470.2133    11663.885    1939.1867 
  492300    301.91188   -1155.9967    6369.9255    11663.813    1890.8484 
  492400    298.18746   -1163.5594    6457.0985    11663.857     1991.871 
  492500    301.21579    -1160.519    6389.3494    11663.844    1885.1399 
  492600    299.18059   -1158.7976    6431.1181    11663.855    1854.9998 
  492700    295.38752   -1161.9182    6515.2649    11663.848    1937.6429 
  492800    303.37228   -1160.1363    6342.8821    11663.829    1878.9613 
  492900    294.30697   -1164.6147    6541.0708    11663.873    1918.5001 
  493000    303.37568   -1162.4849    6345.1338    11663.805    1879.8841 
  493100    298.45522   -1162.0998    6449.9489    11663.887    1872.7641 
  493200    299.69501   -1164.0545    6425.3873    11663.857    1839.7412 
  493300    299.54797   -1163.0066    6427.5591    11663.935    1842.9478 
  493400      298.145    -1163.203    6457.7143    11663.922    1922.3147 
  493500    302.59171   -1166.6023    6366.0607    11663.866    1812.1175 
  493600    300.69503   -1161.3103    6401.4291    11664.007    1887.0552 
  493700    300.92572   -1164.8089     6399.941    11663.948    1852.0203 
  493800    301.41276   -1171.1242    6395.9238    11664.021    1845.8071 
  493900    299.57857   -1167.6213    6431.5858    11664.001    1968.5121 
  494000    300.87249   -1166.9237    6403.2397    11663.995    1936.4847 
  494100    300.26234   -1164.4624    6413.7893    11663.971    1894.7907 
  494200     296.9972   -1157.3218    6476.4059    11663.974    1984.8691 
  494300    300.97683   -1162.0327    6396.1401    11664.015    1994.6539 
  494400    300.92315   -1167.9517     6403.123    11663.933    1995.9168 
  494500      301.707   -1167.7703    6386.2557    11663.992    1910.3868 
  494600    298.87667   -1171.3685    6450.3001    11663.973    1910.1028 
  494700    301.69452   -1168.7178    6387.5076     11664.03    1879.2503 
  494800     300.4569   -1167.4872    6412.6836    11663.997    1848.1687 
  494900    300.90338   -1160.1354    6395.7065     11663.91    1850.6369 
  495000    300.98372   -1161.7302    6395.6007    11663.926    1886.6893 
  495100    300.15244   -1162.5632    6414.1453    11663.878    1847.3652 
  495200    300.63003   -1158.0371    6399.4662    11663.928    1899.3833 
  495300    300.37234   -1162.4679      6409.31    11663.836    1889.9439 
  495400     300.4418   -1167.0407    6412.4409    11663.878    1901.3992 
  495500     295.6971    -1162.316    6509.0025    11663.801    1873.3184 
  495600    301.70375   -1166.0569    6384.4346    11663.815    1863.1878 
  495700    296.14987   -1161.7902    6498.8055    11663.803    1911.3659 
  495800    299.34613   -1160.3432    6429.0521     11663.78     1890.056 
  495900     299.4123   -1166.0107    6433.3244    11663.798    1887.1737 
  496000    302.92991   -1160.1166    6352.2577    11663.774    1892.3397 
  496100    297.27912   -1156.9375    6469.8096    11663.784    1881.0582 
  496200    300.87946   -1156.8837    6392.8453     11663.79    1824.0907 
  496300    303.25207   -1160.9308    6346.2589    11663.843    1859.1257 
  496400    299.15711   -1167.5476    6440.4212    11663.906    1926.7659 
  496500    300.31108   -1165.6921    6413.9763    11663.969    1850.4517 
  496600    294.87092    -1168.509    6532.9539     11663.91    1903.0405 
  496700    301.91801   -1167.8136    6381.7426    11663.944    1888.6122 
  496800    299.87425   -1166.5225    6424.0778    11663.909    1942.0244 
  496900    298.89571   -1164.4435    6442.9808    11663.986    1912.9815 
  497000    298.16315    -1165.998     6460.142    11663.942    1910.2416 
  497100    301.67447   -1165.5554    6384.7487    11664.005    1892.5198 
  497200    299.74677   -1167.0253    6427.4048    11664.009    1887.1933 
  497300    299.27607   -1171.1508    6441.7077    11664.131    1947.8707 
  497400    298.57556   -1170.3228    6455.8493    11664.135    1836.6682 
  497500    299.63776   -1174.5289     6437.334    11664.106    1872.2685 
  497600    302.09598   -1171.5323    6381.8307    11664.116    1916.3243 
  497700    297.51357   -1170.5465    6478.7039    11664.078    1901.3366 
  497800    298.59855    -1161.897    6446.7683    11663.971    1862.2176 
  497900    300.89864   -1164.3243     6400.046     11663.96    1944.8586 
  498000    301.86009   -1164.9444    6380.1555    11663.989    1919.4597 
  498100    298.70171   -1171.6859    6454.4252    11664.043    1950.4581 
  498200    301.13121   -1168.3704    6399.1441     11663.98    1928.1098 
  498300    299.75847   -1166.8857    6426.9322    11663.926    1880.3796 
  498400    298.64078   -1166.6436    6450.5627    11663.921     1905.404 
  498500    300.16321   -1161.4879    6412.9503    11663.989    1871.2842 
  498600    298.71702   -1166.3069    6448.5446    11663.869    1889.7609 
  498700     302.9218   -1160.5485    6352.9129    11663.824    1839.1691 
  498800    296.83608    -1162.441     6484.884     11663.89    1948.2631 
  498900    298.39519   -1156.7123    6445.8141    11663.857    1919.8515 
  499000    296.25316   -1160.0643    6494.9416    11663.871    1926.7283 
  499100    296.92357   -1162.6825    6483.1753    11663.809    2004.7772 
  499200    302.52002   -1161.0788     6361.994    11663.791    1896.1104 
  499300    296.68775   -1165.8448    6491.4535    11663.887    1861.0333 
  499400    298.86626   -1162.0326    6441.0146    11663.801    1885.3963 
  499500     299.5205   -1157.9847    6423.0276    11663.839    1861.2317 
  499600    298.66823   -1159.1527    6442.4132    11663.849    1949.0552 
  499700    302.69533   -1158.8068    6356.0545    11663.869    1983.2206 
  499800    300.51707   -1161.0107    6404.8023    11663.878    1939.4189 
  499900    299.97802   -1162.9674    6418.2757    11663.878    1894.3874 
  500000    301.81262    -1166.852    6383.0005    11663.912    1960.7366 
  500100    297.99982   -1164.1936     6461.927    11664.042    1993.8234 
  500200     302.6098   -1168.4663    6367.6225     11663.95    1894.4034 
  500300    296.84056   -1164.2056    6486.6583    11663.996     1924.476 
  500400    301.26884   -1169.4144    6397.3148    11664.047     1927.736 
  500500    305.67507   -1172.0264    6305.8022    11664.055    1908.2862 
  500600    291.76053   -1163.1804    6594.1578    11663.994    1937.6885 
  500700    306.15423   -1168.3368    6291.9011     11664.08    1863.5614 
  500800    298.57761   -1163.5369    6448.9821    11664.098    1906.9382 
  500900    300.88037   -1165.3499    6401.5236    11664.021    1857.3426 
  501000    296.84347   -1161.9203    6484.3267    11664.012    1878.5848 
  501100    302.21952   -1167.8135     6375.485    11664.128    1929.5386 
  501200    301.82793   -1169.5748    6385.5485    11664.064    1863.9248 
  501300    299.13714   -1169.7307     6443.109    11663.984    1829.2961 
  501400    302.20471   -1174.4943     6382.378    11664.024    1901.5567 
  501500    299.47941   -1163.1587    6429.1462    11663.906    1892.5779 
  501600    301.24576   -1166.7086    6394.9326    11663.877    1847.3768 
  501700    298.11983   -1157.3077    6452.3344      11663.9    1927.3808 
  501800    301.39618   -1161.8752    6386.9352    11663.927    1967.0813 
  501900    298.50934   -1159.6554    6446.3066    11663.845     1875.589 
  502000     304.1806    -1162.408    6327.9478    11663.892    1850.6889 
  502100     296.1224   -1162.1658    6499.8234    11663.858      1925.92 
  502200    303.14415   -1163.1089    6350.7399    11663.841    1847.7962 
  502300    299.52154   -1160.3906    6425.3674    11663.795    1866.1677 
  502400    297.91756   -1157.3941    6456.7015    11663.859    1897.2299 
  502500    299.52256   -1157.0667    6422.0178    11663.791    1887.9576 
  502600     300.9299   -1157.2922    6392.1135    11663.727    1836.0169 
  502700    300.34407   -1158.6815    6406.0125    11663.721    1866.2145 
  502800    297.52115   -1156.9018    6464.5337    11663.715    1891.3408 
  502900    297.94875   -1153.3458    6451.9067    11663.779    1883.7054 
  503000    301.41652    -1158.539    6383.0115    11663.774    1856.2231 
  503100    302.64387   -1156.1773    6354.4959    11663.841    1852.8984 
  503200    296.82258   -1160.0685    6482.7647    11663.855    1845.9657 
  503300      298.699      -1160.7    6443.2864    11663.832    1899.7426 
  503400    298.52849   -1161.1609    6447.4614    11663.904    1953.6456 
  503500    298.60818   -1164.6764     6449.193    11663.822    1865.4625 
  503600     298.9006   -1161.3978    6439.7639    11663.919    1852.7715 
  503700    302.09305   -1166.4803    6376.6902    11663.964    1906.4951 
  503800    297.01935   -1159.5698    6478.1666    11663.959    1931.7603 
  503900    302.77468   -1157.0431    6352.5221    11663.796    1925.4076 
  504000    295.91845   -1163.6834    6505.7583    11663.919    1990.3694 
  504100    299.44897   -1166.1073    6432.7824    11663.943     1931.436 
  504200    299.20753   -1169.8876    6441.7052    11663.927    1903.4623 
  504300    300.23668   -1169.6787    6419.5282    11663.946    1836.0226 
  504400    299.40839   -1168.5577    6436.1479    11663.991    1877.7079 
  504500    300.52064   -1166.3661     6410.162    11663.958    1903.2905 
  504600    303.12147   -1170.6179    6358.7785    11663.886    1908.9476 
  504700    298.74898   -1170.1831    6451.7801    11663.911    1921.2854 
  504800    296.51359   -1166.9236    6496.2828    11663.917    1959.2925 
  504900    301.68059    -1166.464    6385.4326    11663.911    1922.4895 
  505000    299.02016   -1164.3756     6440.216    11663.947    1923.1392 
  505100    299.35995   -1163.9822    6432.6414    11664.025     1952.724 
  505200     296.8008   -1162.6331    6485.8617    11663.922    1873.1482 
  505300     303.7448   -1165.7568     6340.717    11664.002    1829.5481 
  505400     297.6643   -1170.7854    6475.5733    11663.929    1869.8289 
  505500    300.64877    -1163.873    6404.9604    11663.987    1865.5318 
  505600    295.89116   -1159.1741    6501.7902    11663.877    1939.7309 
  505700    301.45069   -1159.0963     6382.919    11663.854    1935.6014 
  505800    300.59566   -1162.7065    6404.8328    11663.891    1919.2364 
  505900    297.59339   -1161.9856    6468.1661    11663.807    1917.4539 
  506000    300.37092     -1159.72    6406.5484    11663.792    1914.9462 
  506100    298.59808    -1156.661    6441.4027    11663.831    1907.2717 
  506200    301.16168   -1162.8422    6392.7634    11663.778    1854.7882 
  506300    298.04134   -1165.8812    6462.4819    11663.797    1881.7764 
  506400    302.11528   -1164.3312    6373.9604    11663.859    1845.1502 
  506500    304.11465   -1161.1239    6328.0458    11663.865    1833.3592 
  506600    301.87278   -1155.0391    6369.7502     11663.76    1884.7377 
  506700     299.4998    -1154.969    6420.4864    11663.871    1878.6292 
  506800    298.74997   -1157.9083    6439.4174    11663.844     1849.072 
  506900    297.70614   -1152.0204    6455.7833    11663.798    1874.0725 
  507000    302.58692   -1162.8935    6362.4424    11663.854    1912.6985 
  507100    299.37661   -1164.0559    6432.1867    11663.853    1927.0668 
  507200    301.23749   -1166.0806    6394.4692    11663.865    1944.8448 
  507300     297.8772   -1166.5049    6466.7673    11663.952    1934.9169 
  507400    300.55146   -1165.2078     6408.351    11663.964    1873.3141 
  507500    297.34527   -1162.2058    6473.7839    11663.904    1998.2794 
  507600    302.76299   -1160.7677    6356.6745    11663.973    1977.4826 
  507700    301.99638   -1159.2115    6371.4766    11663.954    1943.0877 
  507800    299.61142   -1163.4735    6426.6949     11663.96    1908.6037 
  507900    296.28632   -1162.5351    6496.8069    11663.974    1905.7175 
  508000    300.94996   -1170.5846    6405.2082    11663.958    1879.9443 
  508100    301.09884   -1167.5437    6398.9723    11663.943    1928.7836 
  508200    299.42383   -1169.3426     6436.597    11663.985    1890.7915 
  508300    300.15242   -1166.8574    6418.5653    11664.004    1876.1596 
  508400    297.45388   -1157.4373    6466.6671    11663.875    1926.6451 
  508500    301.89446   -1161.1743    6375.5645    11663.902    1927.3762 
  508600    301.57764   -1159.0811    6380.2307    11663.893    1911.5277 
  508700    300.72129   -1162.0315      6401.49    11663.907    1908.8562 
  508800    298.72876   -1168.3819     6450.364    11663.864    1896.7923 
  508900    299.37749   -1166.8055    6434.9886    11663.924    1882.2232 
  509000    299.13959   -1164.9806    6438.2012    11663.879    1871.8867 
  509100    297.23991   -1164.8561    6478.7035    11663.922    1928.0922 
  509200    300.31171   -1160.9919     6409.233     11663.94     1914.978 
  509300    300.51898   -1166.4537    6410.1925    11663.866    1933.9646 
  509400    299.37028   -1160.9713    6429.3075    11663.923    1912.9485 
  509500    299.84794    -1157.386    6415.3719    11663.777    1876.9182 
  509600      301.717   -1160.0046    6378.0492    11663.765    1923.1048 
  509700    298.59207   -1161.5174    6446.4927    11663.937    1994.8581 
  509800     301.5997   -1164.3055    6384.8868    11663.796    1916.1324 
  509900    299.91974   -1164.0938    6420.6329    11663.864    1849.5345 
  510000    300.28425   -1166.2222    6414.9986    11663.889    1841.4537 
  510100    298.73183   -1165.2086    6447.1567    11663.895    1832.1305 
  510200    300.10728   -1166.3053    6418.7022    11663.729    1809.2139 
  510300    299.93286   -1168.2101    6424.5011    11663.896    1917.2118 
  510400    302.35513   -1162.6398    6367.2079    11663.921    1895.9749 
  510500    298.55087    -1155.378    6441.1934    11663.897    1858.4235 
  510600    299.50208   -1156.9156    6422.4092    11663.896    1867.1726 
  510700    300.07395   -1157.5181    6410.7573    11663.859    1932.8198 
  510800    298.80711   -1166.8381    6447.1781    11663.895    1922.6893 
  510900    298.78263   -1167.3031    6448.1651    11663.894    1850.8291 
  511000    298.10917   -1171.2024    6466.5564    11663.999    1873.9523 
  511100    300.79566    -1165.275    6403.1516    11663.914    1844.9599 
  511200    298.72258   -1164.3072    6446.5047    11663.947    1849.6911 
  511300    302.70252   -1168.5975    6365.7919    11663.969    1866.3243 
  511400    300.13998   -1161.3549    6413.2493    11663.924     1887.738 
  511500    302.11371    -1161.077     6370.782    11663.901    1868.2475 
  511600    298.05994   -1156.5692     6452.939    11663.963    1949.1225 
  511700     302.0724   -1164.1929    6374.8247    11663.945    1861.8882 
  511800    296.91158   -1161.2204    6482.1138    11663.954     1888.287 
  511900    303.40707   -1165.4725    6347.5653    11663.919    1887.2223 
  512000    302.10701   -1169.7556    6379.6576    11663.955    1920.4608 
  512100    297.44889   -1163.5665    6472.9837    11663.956    1921.3018 
  512200    298.70952   -1159.9639    6442.4264    11663.933    1900.9858 
  512300    300.06547    -1157.685     6411.094    11663.847    1868.3401 
  512400    304.22186   -1162.8485    6327.4643    11663.849    1834.2306 
  512500     298.1302   -1157.1328    6451.9199    11663.881     1921.631 
  512600     297.3405   -1160.5017    6472.0893    11663.811    1922.2266 
  512700    300.70055   -1159.8744    6399.6495    11663.781    1897.1529 
  512800    301.11782   -1161.2966    6392.1145    11663.738    1903.0027 
  512900    297.44506   -1161.6916    6471.0913    11663.857    1921.9653 
  513000     300.5182   -1165.6892    6409.4328    11663.854    1876.7487 
  513100    300.27732   -1161.4415    6410.3201    11663.843    1828.7255 
  513200    295.92806   -1164.7026    6506.5489    11663.895    1875.7232 
  513300    302.39183   -1159.6147    6363.2871     11663.81     1836.069 
  513400    297.53552   -1162.3121    6469.7285    11663.806    1864.5398 
  513500    301.16122   -1156.6654     6386.707    11663.889    1862.6457 
  513600    295.64211   -1161.1523    6509.0951    11663.883    1945.8332 
  513700    302.80113   -1160.6233    6355.5723    11663.831    1867.8751 
  513800     301.4031   -1163.5519    6388.3621    11663.825    1891.4819 
  513900    297.63418   -1162.6857    6468.0544    11663.866    1903.3078 
  514000    297.67573   -1162.5276    6467.0053    11663.863    1919.7434 
  514100    300.19122   -1166.5922    6417.3672      11663.9    1867.8028 
  514200     300.5549   -1157.9908    6401.0132    11663.917    1860.0786 
  514300    299.16562   -1162.9013    6435.6243    11663.937    1900.3617 
  514400    296.72782   -1162.8719    6487.7302    11663.993    1871.6663 
  514500    299.08473   -1163.8856    6438.3611    11663.962    1849.2622 
  514600    302.79659   -1167.0192    6362.1322    11663.897    1892.6162 
  514700    301.64726   -1162.1612    6381.8731    11663.943    1850.6073 
  514800    300.27545    -1162.237    6411.2718    11663.959    1789.7442 
  514900    300.86673   -1170.9523    6407.3244    11663.928    1845.8694 
  515000    298.59089   -1167.4287    6452.4339    11663.941    1863.7913 
  515100    300.20817   -1160.6118    6410.9718    11663.847    1846.8858 
  515200    303.46043   -1161.6455    6342.5842    11663.905    1844.2751 
  515300    299.14331   -1161.4196    6434.5271    11663.845    1864.4458 
  515400    298.81224   -1166.1276    6446.4684    11664.006    1830.8508 
  515500    298.86095   -1167.9661    6447.1729    11663.912    1881.5063 
  515600    301.30304   -1168.3361    6395.2922    11663.833    1831.7963 
  515700    300.75475   -1161.2694    6400.0262     11663.92    1848.0768 
  515800    299.51326   -1162.3342    6427.6451    11663.952    1893.1252 
  515900     299.4766   -1158.2098    6424.2591    11663.907    1880.6044 
  516000    299.55617   -1160.6147    6424.9137    11663.857    1817.0566 
  516100    300.70444   -1155.3314    6395.0613    11663.819    1895.1149 
  516200    301.93655   -1162.3275    6375.6948    11663.778    1992.6883 
  516300    299.64097   -1158.7125    6421.0955    11663.752    1901.8286 
  516400    299.22489   -1159.0713    6430.3937    11663.803    1798.4613 
  516500    297.20854   -1166.0864     6480.543    11663.861    1816.9005 
  516600    299.10256   -1163.6981    6437.6851    11663.854     1849.305 
  516700    301.82256    -1165.304     6381.144    11663.816    1886.8271 
  516800    300.71136    -1166.816    6406.4444    11663.865     1955.238 
  516900    301.20235   -1161.8864    6390.9221    11663.762    1885.5151 
  517000      296.842   -1162.4375    6484.6471    11663.783    1898.5426 
  517100    297.86752   -1152.4247    6452.7404    11663.798    1950.5173 
  517200    301.16402   -1160.1562      6389.95    11663.701    1860.7023 
  517300     296.8521   -1155.6674     6477.642    11663.764    1917.1972 
  517400    304.98151   -1166.2076    6314.6314    11663.886    1843.6536 
  517500     297.4803    -1167.331    6476.0467    11663.926    1838.6996 
  517600    299.26109   -1169.3159    6439.9829    11663.921    1787.2324 
  517700    300.04776    -1173.176    6427.0294    11663.914    1840.7801 
  517800    299.58882   -1166.9738    6430.6813    11663.963    1863.8509 
  517900    300.21014   -1162.3102    6412.6462    11663.865    1940.2111 
  518000    301.67789   -1154.8141    6373.7372    11663.808     1958.298 
  518100    302.76243   -1153.2189    6349.0226    11663.858    1918.7896 
  518200    298.94748   -1153.7663     6431.022     11663.81    1913.7092 
  518300    299.18719   -1156.5154    6428.6337    11663.793    1856.8391 
  518400        303.7   -1170.6575     6346.512    11663.939    1904.1978 
  518500    296.28574   -1167.6456    6501.9099    11663.955    1858.5418 
  518600    299.31993   -1171.4325    6440.9076    11663.986    1841.4935 
  518700    299.43172   -1169.8668    6436.8975     11663.93    1898.9302 
  518800    299.79362   -1166.5586     6425.776    11663.848    1845.0977 
  518900    297.60208   -1161.6875    6467.7305    11663.855    1841.4831 
  519000    299.62505   -1164.4101    6427.2277    11663.847    1901.2449 
  519100    300.00017   -1156.7365    6411.5115    11663.818    1898.4339 
  519200    303.40026   -1155.6207    6337.7218    11663.782      1928.28 
  519300    298.66673   -1160.1435    6443.4354    11663.848    1981.1301 
  519400    296.83243    -1165.716    6488.3217    11663.975    1939.9057 
  519500    299.99119   -1166.6314    6421.7072    11663.927    1834.8147 
  519600     297.1703   -1170.0808    6485.5154    11664.022    1911.2169 
  519700    301.68256   -1173.9049     6393.034    11664.114    1874.5457 
  519800    297.60979   -1168.9423    6474.9117    11663.946    1912.8839 
  519900    299.51525   -1165.0131    6430.3135    11663.984    1959.9507 
  520000    299.46524   -1160.5182    6426.8603    11663.957    1926.9137 
  520100    299.14267    -1156.255     6429.453    11663.922    1896.8245 
  520200    302.20957   -1156.8676    6364.5024    11663.878    1932.2118 
  520300    299.64783   -1163.9152    6426.3189     11663.92    1950.4881 
  520400    300.05159   -1169.7132    6423.5264    11663.955    1884.6127 
  520500    296.95074   -1171.4919    6491.6407    11664.046    1859.9448 
  520600    301.75136   -1178.8955    6396.4564    11664.016    1760.0173 
  520700    299.99078   -1177.9151    6433.1418     11664.07    1846.5783 
  520800    299.21802   -1169.4257    6441.0684    11663.977    1861.2507 
  520900    299.44518   -1162.3228    6429.0403    11663.904    1903.8669 
  521000    297.45353   -1160.5411    6469.8319    11663.929    1998.1573 
  521100    302.85137   -1151.3421    6345.1574     11663.77    1919.1841 
  521200    296.43676   -1159.9522    6490.9054     11663.87    1997.0679 
  521300    303.85902   -1166.8329    6339.3503    11663.999    1937.3061 
  521400    301.57389   -1172.5708    6393.9107    11664.003    1894.4061 
  521500    298.88304   -1172.3545    6451.1399    11663.963    1790.0929 
  521600    299.06143    -1175.511    6450.5044    11663.982    1839.6701 
  521700    298.03786   -1174.5411    6471.3451    11663.926    1872.3572 
  521800    300.31211   -1169.7829    6417.9833    11663.908    1892.4441 
  521900    296.19328   -1161.4714    6497.6957    11663.939    1970.6289 
  522000    301.79033   -1162.5457    6379.0538    11663.795     1960.897 
  522100    298.68793   -1151.8538     6434.584     11663.74    1918.4148 
  522200      300.162   -1153.4329    6404.7046    11663.772    2003.4935 
  522300    297.87011   -1165.4984    6465.7187    11663.758    1952.0184 
  522400     299.6936   -1169.6327    6431.0957    11663.957    1893.9711 
  522500    299.94678   -1171.7978    6427.8416    11663.947    1874.8883 
  522600    299.68418    -1169.373    6431.0667    11663.986    1828.5243 
  522700    298.38327   -1171.1907    6460.7207    11664.031    1844.8825 
  522800    302.12585   -1167.4886    6376.9531     11663.92    1900.7812 
  522900    299.49778   -1161.6149    6427.2389    11663.935    1925.4343 
  523000    302.46371    -1155.505    6357.7558    11663.924    1886.2978 
  523100    301.29686     -1153.86    6380.9974    11663.883      1914.83 
  523200    300.97104   -1157.9177    6392.0788    11663.945    2024.0794 
  523300    301.62677   -1157.5851    6377.7596    11663.968    1973.6666 
  523400    300.61243    -1161.739    6403.4969    11663.881    1904.8747 
  523500    298.69343   -1172.3614    6455.2718    11664.037    2003.1833 
  523600    296.66594   -1161.4692    6487.7049    11664.048    1869.7898 
  523700    300.07106   -1168.5315    6421.9564    11663.983    1866.2728 
  523800    300.99172   -1165.2385     6399.014    11664.002    1956.7984 
  523900    302.55794   -1167.0698    6367.2864    11663.903      1940.38 
  524000    296.33086   -1168.9962    6502.1233    11663.781    1951.7572 
  524100    299.29132   -1158.5316    6428.4715     11663.84         1933 
  524200    295.23401   -1159.3863    6516.0672    11663.902    2008.7819 
  524300    306.27409   -1166.7806    6287.5552    11663.851    1933.4811 
  524400    299.08187   -1161.9131    6436.2845    11663.797    1987.3709 
  524500    297.25299   -1172.5279    6486.1657    11663.992    1969.8109 
  524600    296.40399    -1169.578    6501.4167    11664.055    1929.4191 
  524700    300.56714   -1172.2211    6415.0026    11663.937    1842.5098 
  524800    298.21557   -1167.4327      6460.43    11663.916    1911.4943 
  524900    301.30056   -1163.9038     6391.019    11663.939    1974.1856 
  525000    298.04859    -1163.267    6459.8683    11663.952    1960.6848 
  525100    297.85047   -1156.5281    6457.3378    11663.928    1939.3753 
  525200    302.05944   -1164.1619    6375.1591    11664.034    1926.0976 
  525300    298.56901   -1159.9656    6445.3727    11663.876    1918.8717 
  525400    301.36597   -1162.6975    6388.3567    11663.881    1899.3915 
  525500    298.79535   -1167.6911    6448.3646    11663.978     1941.415 
  525600    300.38011   -1170.5109     6417.354    11664.003    1853.5772 
  525700    298.44962   -1169.6946    6457.7302    11663.954    1820.0813 
  525800    301.50969   -1165.5905    6388.2018    11663.903    1904.7318 
  525900    298.21756   -1163.5466    6456.5095    11663.923    1969.3064 
  526000    298.98492   -1167.1623    6443.6775    11663.869    1928.0246 
  526100    300.25188   -1151.2771    6400.6532    11663.797    1957.1318 
  526200    299.58187   -1153.5325    6417.1952     11663.77    1915.0064 
  526300    299.59412   -1158.8238    6422.2516    11663.796    1913.9151 
  526400    302.91465   -1155.3814    6347.8186    11663.744    1917.5984 
  526500    297.07283   -1163.9029    6481.2672    11663.869    1974.2822 
  526600    300.29071    -1168.349    6417.0453    11663.946    1881.6722 
  526700    302.02452   -1170.2492    6381.9702    11664.011    1896.1789 
  526800    299.71059   -1169.3818    6430.5101    11663.985     1929.369 
  526900    298.11149   -1167.3584    6462.6065    11663.943    1844.9609 
  527000    297.07141   -1162.3425    6479.7951    11663.927    1947.2569 
  527100    306.06695   -1164.7482    6290.0122    11663.915    1993.2553 
  527200    299.79538   -1154.7433     6413.936    11663.861    1987.8547 
  527300    297.88108   -1156.4036    6456.5691    11663.938    1890.1424 
  527400    301.41977   -1159.5523    6384.1823    11664.001    1903.1858 
  527500    299.44098   -1162.1007    6428.9416    11663.938    1897.6103 
  527600    297.89547    -1167.516    6467.4232    11663.987     1887.877 
  527700    297.54853   -1166.4813    6473.8052    11663.992    1946.1713 
  527800    301.51539   -1171.4163    6393.9661    11663.963    1917.1345 
  527900    299.17426   -1168.5688     6441.154    11663.984    1872.2929 
  528000    301.52378   -1166.3816    6388.7723    11663.984    1835.4003 
  528100    295.51407    -1163.037    6513.6973    11663.865    1877.0993 
  528200    302.48297   -1160.9082    6362.7158    11663.892    1859.1588 
  528300    302.67716   -1159.5373     6357.109    11663.805    1905.0073 
  528400    299.17294   -1165.1756    6437.6477    11663.843    1958.5842 
  528500    299.69838   -1167.7178    6429.0125    11663.891    1811.2117 
  528600    296.46693   -1167.4295    6497.7511    11663.883    1798.2922 
  528700    298.88166   -1167.7015    6446.4632     11663.91    1861.3286 
  528800    302.67745   -1169.6569    6367.3832    11663.966     1866.219 
  528900    298.34083    -1166.078    6456.4096    11663.926    1843.8251 
  529000    299.00932   -1164.5976    6440.5827     11663.86    1839.0905 
  529100    300.24507   -1159.1425    6408.7355    11663.868    1910.2522 
  529200    300.79031    -1155.543    6393.4419    11663.823     1835.099 
  529300    300.58044   -1155.5349    6397.9768    11663.882    1889.7073 
  529400    299.83321   -1160.6781    6419.1696    11663.968    1945.4137 
  529500    299.38292   -1164.9235    6433.0152    11663.948    1876.0262 
  529600    299.67945   -1164.3863    6426.1084    11663.914    1830.3564 
  529700    298.34708   -1166.7758    6456.9591    11663.911    1888.8533 
  529800    300.63836   -1164.9733    6406.2156     11663.92     1863.356 
  529900    300.37719   -1164.0318    6410.8471    11663.913    1886.8468 
  530000    295.43815   -1164.7358     6517.079    11663.926    1901.3696 
  530100     299.4309   -1159.9087    6426.9791    11663.952    1922.1098 
  530200    300.85516   -1157.3824    6393.9482    11663.875    1898.7339 
  530300     302.7027   -1166.2681    6363.3047    11663.815    1879.4597 
  530400    300.62462   -1165.6116    6407.0939    11663.866    1936.3166 
  530500    300.78485   -1168.8418    6407.0058    11663.971    1915.9166 
  530600    298.11576   -1168.8116    6463.9684    11663.943     1850.009 
  530700    303.28427   -1163.9707    6348.6552    11663.887    1867.7792 
  530800    300.23201   -1165.7033    6415.6976     11663.99    1867.6438 
  530900    299.05184    -1165.181    6440.3758    11663.978    1854.3363 
  531000    298.06765   -1165.2723    6461.4377    11663.923    1956.2192 
  531100     298.2774   -1167.6353    6459.3446    11663.948    1936.2958 
  531200    304.43916   -1166.4073     6326.491    11663.959    1909.1133 
  531300    297.55466   -1167.0578     6474.251    11663.992    1887.2736 
  531400    300.40057   -1165.7678    6412.1638    11663.993    1876.8395 
  531500     304.0162   -1171.0897    6340.1316    11663.882    1850.4258 
  531600    298.03149    -1163.393    6460.3912    11663.984    1870.2339 
  531700    302.75301   -1168.8925    6364.9784    11663.939    1926.9513 
  531800    296.28357   -1169.4938    6503.7481    11663.898    1819.9892 
  531900    298.49246   -1163.7848    6450.9696    11664.018    1839.0086 
  532000    302.16772   -1169.7291    6378.3525    11663.973    1892.8169 
  532100    297.79065   -1169.6705    6471.7703     11663.94    1845.9193 
  532200    300.76288   -1169.4881    6408.0873    11663.937     1906.457 
  532300    300.06224   -1170.0654    6423.6165     11663.92    1975.0586 
  532400    301.08332   -1164.7212    6396.5775    11664.039    1935.9099 
  532500     300.1951   -1159.4791    6410.1977    11663.926    1826.2537 
  532600     298.1503   -1165.3545    6459.8059    11663.975    1953.1479 
  532700    302.74529   -1162.4303    6358.5957    11663.854    1925.2552 
  532800    303.41294   -1164.4061    6346.3804    11663.926    1888.5711 
  532900    294.46841   -1165.6839    6538.7976     11663.98    1942.5335 
  533000    301.09895   -1168.1958    6399.6337    11663.955    1904.1173 
  533100    298.47046   -1170.5648    6458.1379    11663.937    1904.8087 
  533200    303.72251   -1168.6902    6344.0604    11663.936    1931.9215 
  533300    299.84904   -1164.2257    6422.3865    11663.975    1903.1154 
  533400    299.02629   -1163.0829    6438.8035    11663.958    1853.1413 
  533500    300.02827   -1163.1527    6417.4541    11663.945    1897.8696 
  533600    302.57512   -1161.2843    6361.1508     11663.92    1898.7053 
  533700    299.44096    -1164.165    6430.9735    11663.905    1846.2832 
  533800    301.70172   -1168.7748    6387.3488    11663.968    1880.1106 
  533900    294.17233   -1162.6859    6542.2674    11664.122    1984.6164 
  534000    302.90794    -1170.126    6362.9612    11663.999    1874.0146 
  534100    301.63677   -1167.1041    6386.9948    11663.898    1848.8911 
  534200    299.87276   -1171.0298    6428.7119    11664.004    1944.2695 
  534300    296.00468   -1164.1511    6504.4593    11663.994    1910.6118 
  534400    300.07739   -1165.0163    6418.2751    11663.952     1951.602 
  534500    299.00668   -1160.7799    6436.8805     11663.92     1927.428 
  534600    297.83024   -1164.0276     6465.333    11663.992     1963.809 
  534700    304.97315   -1167.2178    6315.9634    11664.029    1849.2916 
  534800    296.99929   -1168.0492    6487.0916    11663.976    1862.2846 
  534900    299.64837   -1163.5845    6426.1228    11664.066    1893.0171 
  535000    301.82984   -1169.4082    6385.3002    11664.023    1832.3221 
  535100    298.90557   -1169.5238    6447.8617    11663.997    1861.5728 
  535200    298.30719   -1165.9543    6457.0424    11663.964    1908.6504 
  535300    301.02237   -1161.3899    6394.4996    11663.991    1920.2987 
  535400    299.47301   -1158.9895    6425.2028    11663.995    1923.3052 
  535500    299.64723   -1161.7644    6424.2099    11663.949    1915.8727 
  535600     297.4637   -1160.9994    6470.0005    11663.856    1905.5282 
  535700    299.67312   -1163.4072    6425.2383    11663.887    1879.7111 
  535800     294.6271   -1166.6021    6536.2895    11663.943     1918.483 
  535900    306.31622   -1163.1733    6283.1297    11663.932    1838.8346 
  536000    298.89205   -1162.6238     6441.239    11663.985    1919.3026 
  536100    300.37858   -1161.7489    6408.4946    11663.873    1810.3317 
  536200    297.15134   -1161.5583    6477.3261     11663.95    1826.2141 
  536300    299.45565   -1162.5818    6429.1015     11663.93    1867.1518 
  536400    300.67573   -1160.9323    6401.3557    11663.899    1933.5042 
  536500    305.97323   -1161.4688    6288.6648    11663.844    1907.9039 
  536600     295.1749   -1164.9104    6522.8134    11663.862    1953.3568 
  536700    300.45809   -1160.9781    6406.0279    11663.876    1869.4084 
  536800    301.28976   -1160.6503    6387.9527    11663.896     1843.561 
  536900    299.39467   -1165.1012    6432.8951    11663.902    1939.6938 
  537000    300.64954   -1167.2995    6408.2756    11663.892    1889.7995 
  537100    299.08297   -1163.8293     6438.356    11663.975    1860.3461 
  537200    300.50656   -1166.5997    6410.6662    11663.928    1853.8463 
  537300    302.28727    -1163.128    6369.0942     11663.87    1885.2533 
  537400    299.28489    -1166.688    6436.9312    11664.006    1941.7432 
  537500    301.15945   -1163.1699    6393.3647    11664.004    1900.4702 
  537600      298.996    -1167.442    6443.7715     11663.92     1905.478 
  537700    299.39087   -1167.9837    6435.9584    11664.001    1902.0605 
  537800    300.78192   -1166.8668    6405.1505    11664.028     1906.737 
  537900    299.74985   -1163.8066      6424.17    11664.059    1934.7992 
  538000    300.77923   -1168.6128    6406.9526    11664.027    1969.4287 
  538100    301.16555   -1165.2644    6395.3506    11664.026    1905.6681 
  538200    297.23405   -1163.1765    6477.2812    11664.054    1855.5798 
  538300    298.12386   -1164.5116    6459.5167    11663.964     1846.429 
  538400    300.79692    -1169.763    6407.7014    11664.003    1931.5009 
  538500    299.85537   -1165.8823    6423.9314    11663.999    1957.8133 
  538600    300.57167   -1166.3485    6409.0392    11663.943    1918.0346 
  538700     295.8215   -1157.6924    6501.8854    11663.966    1930.4525 
  538800     302.2505   -1166.5005     6373.307    11663.925    1877.6431 
  538900     297.8956   -1162.1409    6462.0307    11663.972    1976.3428 
  539000    301.95257   -1163.6466    6376.7895    11663.896    1892.1563 
  539100    300.03186   -1164.7137    6418.9303    11663.937     1827.103 
  539200    298.76525   -1168.1133     6449.366    11663.914    1864.6716 
  539300    297.94642   -1163.2438    6462.0153     11663.94    1928.2891 
  539400    303.35124   -1161.4947    6344.7266    11663.866    1885.5975 
  539500    297.91439   -1165.1709     6464.522    11663.835    1900.1414 
  539600    302.92362   -1159.2571    6351.6218    11663.863     1938.888 
  539700    300.59832   -1158.2707    6400.2815    11663.833    1845.7282 
  539800    299.64598     -1158.31    6420.6189    11663.786    1858.5378 
  539900     300.2499   -1163.2613    6412.8102    11663.927    1919.5885 
  540000    300.66017    -1161.513    6402.2962    11663.926    1889.1389 
  540100    302.13869   -1167.9762    6377.1649    11663.918    1877.4072 
  540200    299.69952   -1163.6504    6424.9089    11663.879    1925.4154 
  540300     298.2683   -1164.5556    6456.3997    11663.889    1939.1423 
  540400    303.10055   -1163.0838    6351.6288    11663.823    1880.4677 
  540500    300.08447   -1162.8855     6415.929    11663.888     1853.391 
  540600    298.26077   -1162.2367    6454.2742    11663.921    1884.5093 
  540700    301.84824    -1169.287    6384.6587    11663.896    1875.2928 
  540800    299.48491   -1167.0355    6432.9827    11663.983    1894.4403 
  540900    298.75763   -1166.2189    6447.6951    11663.975    1845.8591 
  541000    302.16593   -1169.4364    6378.1392    11664.014    1910.9364 
  541100    300.96938   -1167.6774     6401.901    11663.973    1872.6008 
  541200    301.92034    -1165.019    6378.9586    11664.004    1857.7951 
  541300    296.27998   -1167.9351    6502.3958    11664.028    1950.0198 
  541400     302.3567   -1167.7148    6372.3628    11664.035    1884.6585 
  541500    300.18161   -1161.6403    6412.7122    11663.991    1887.4982 
  541600    299.72308   -1168.1586    6429.0049     11663.97    1955.2229 
  541700     298.5242   -1163.8701    6450.3688     11664.01    1959.6197 
  541800     301.2724    -1167.862    6395.6105    11663.971    1909.5593 
  541900    296.85339   -1161.2363    6483.4352    11664.016    1963.9598 
  542000    301.56786   -1165.0979    6386.5629        11664    1916.6333 
  542100    300.22538   -1163.8512    6414.0725    11664.076    1940.8963 
  542200    299.39244   -1162.8082    6430.6862    11663.938    1941.6121 
  542300    301.37422   -1165.3232    6390.8589    11663.934    1919.8692 
  542400    300.48331    -1160.317    6404.9136    11663.961    1947.7668 
  542500    302.29803   -1162.5711    6368.3776     11663.94    1928.7581 
  542600    294.67036   -1165.9545    6534.7477    11663.973    1938.9689 
  542700    302.84097   -1164.2203    6358.3087    11663.821    1864.5636 
  542800    298.15968   -1163.7195    6457.8295    11663.834    1936.1434 
  542900    301.26577   -1167.4455    6395.2355    11663.871    1954.9648 
  543000    300.99611   -1163.9968    6397.5536    11663.877    1932.8099 
  543100    296.95041   -1167.7436    6487.8466    11663.993     1985.195 
  543200    299.18411   -1171.9811    6444.3194    11663.948    1914.2536 
  543300    300.54201    -1160.828    6404.1791     11663.97    1937.5407 
  543400    300.49894   -1165.4227    6409.6437     11663.92    1935.3851 
  543500    298.72507   -1159.3683    6441.4949    11663.929    1953.1112 
  543600    298.93341   -1158.0276    6435.6671    11663.893    1929.3323 
  543700    297.72086   -1163.3405    6466.8846    11663.893    1944.6332 
  543800    301.36327   -1167.5556    6393.3725    11663.981    1999.0465 
  543900    300.11781   -1172.4594    6424.8546    11663.952    1964.9745 
  544000    298.73934   -1169.9275    6451.8347    11664.015    1889.0544 
  544100    296.86557   -1165.9485    6487.8834    11664.012    1995.2185 
  544200    300.25847   -1163.3906     6412.862    11664.033    1992.6766 
  544300    298.02669   -1166.4295    6463.4972    11663.951    1968.6441 
  544400    300.92534   -1158.0533    6393.1445    11663.899      1970.79 
  544500    299.11079   -1165.6061    6439.5021    11663.939    1925.5872 
  544600    297.12005   -1165.3416    6481.8018    11663.974    1896.5439 
  544700     300.8327   -1171.2912    6408.4442    11663.982    1949.8063 
  544800    302.44313   -1163.9117    6366.5989    11663.921    1966.5928 
  544900     298.5491   -1163.4737    6449.3468    11663.916    1932.6758 
  545000    302.89722   -1171.1177    6364.2253    11664.042    1862.8697 
  545100     297.5224   -1163.8452    6471.6769    11663.941    1870.1978 
  545200    298.89504   -1165.0065    6443.4129     11663.84    1915.3606 
  545300    299.10937   -1158.7634    6432.5903     11663.84    1924.4764 
  545400    300.07801   -1161.8986    6415.0957    11663.903    1977.5774 
  545500     298.9472   -1162.9392    6440.2856    11663.895    1911.4042 
  545600    299.81113   -1160.1868    6419.0211    11663.839    1876.2129 
  545700    297.93954   -1164.2573    6463.2452    11664.009     1887.575 
  545800    302.66569   -1159.3425    6357.2781    11663.924    1867.9684 
  545900    300.22062   -1163.9013    6414.0386     11663.89    1862.6613 
  546000    300.70383   -1163.9402    6403.7547     11663.89    1859.8513 
  546100    299.80324   -1165.8964    6424.9393    11663.879    1913.9754 
  546200    298.54935   -1164.9723    6450.7668    11663.843    1912.8063 
  546300    298.86859   -1160.3497    6439.4049    11663.924    1998.0232 
  546400    304.18242   -1160.8567    6326.3663      11663.9    1922.1528 
  546500    297.07838   -1164.4573    6481.7388    11663.905    1966.0499 
  546600    300.70482   -1161.3187    6401.0621     11663.84     1872.911 
  546700    302.78625   -1166.1014    6361.4666    11663.929    1864.2846 
  546800    295.79845     -1163.31    6507.9072    11663.877    1978.4509 
  546900    303.27814   -1164.1257    6348.9489    11663.895    1920.3558 
  547000    298.76994   -1161.3406    6442.4634    11663.884     1931.052 
  547100    299.38115     -1167.29    6435.4181    11663.947    1896.1126 
  547200    298.33408   -1166.3639    6456.8286    11663.915    1867.1145 
  547300    300.11169   -1163.5562    6416.0529    11663.922    1807.6882 
  547400    300.50199   -1169.2287     6413.399    11663.934    1872.9044 
  547500    296.03754   -1167.5931    6507.1409    11663.936    1889.8245 
  547600    302.54679   -1165.5549    6365.9891    11663.882    1799.1698 
  547700     303.1981   -1166.7049    6353.2883    11663.946    1830.2935 
  547800    296.84205   -1159.4804    6481.8787    11663.973    1919.0889 
  547900    300.72244   -1165.4825    6404.9745    11663.966    1932.7567 
  548000    298.31971   -1166.3642    6457.0946    11663.873    1869.3412 
  548100    296.44093    -1166.548    6497.4858    11663.943    1860.9493 
  548200    304.11323   -1163.1601    6330.1619    11663.914    1839.3323 
  548300    295.56875   -1161.7994     6511.361    11663.934    1910.1024 
  548400     302.6881   -1163.2698    6360.6809    11663.878    1933.0331 
  548500    300.34171   -1161.2518    6408.7854    11663.873    1948.0635 
  548600     301.8494   -1165.1135    6380.4907    11663.927    1871.8997 
  548700    303.48918   -1159.7919    6340.1033    11663.892    1847.7192 
  548800    296.02817   -1164.4001     6504.206    11663.994    1914.2341 
  548900    299.67492   -1161.3569    6423.1773    11663.915    1811.4825 
  549000    300.60222   -1163.1496    6405.1453    11663.901    1901.3737 
  549100    299.83823   -1159.5417    6417.8286    11663.871    1903.2418 
  549200    295.00875   -1157.2388    6518.8021    11663.973     1979.529 
  549300    303.99514   -1160.0085    6329.5074    11663.889     1869.643 
  549400    300.09979   -1160.5192    6413.2589    11663.911    1925.1408 
  549500    301.46437   -1162.7032    6386.2972    11663.918    1883.5552 
  549600    300.79316   -1162.1247    6400.0991    11663.959    1859.1579 
  549700    299.57413   -1161.9735    6426.0039    11663.972    1840.1821 
  549800    298.29491   -1165.1174    6456.4517    11663.947    1834.8052 
  549900    302.76228    -1163.618    6359.4857    11663.919    1847.5682 
  550000     298.1856   -1168.5786    6462.2562    11663.955    1832.3781 
  550100    299.38598   -1162.1929    6430.2275    11663.957    1855.9611 
  550200    297.62104    -1163.147    6468.8226    11663.893    1980.7053 
  550300    303.97028   -1163.6905    6333.7201    11663.888    1872.3575 
  550400    298.58175   -1163.8444     6449.013    11663.909    1891.2516 
  550500    300.67076   -1170.6255    6411.1439    11663.888    1895.1286 
  550600    302.01473   -1164.0029    6375.8324    11663.911    1909.2918 
  550700    299.75728   -1163.2067     6423.259    11663.907    1921.2499 
  550800    303.14731   -1167.9421    6355.5447     11663.88     1895.742 
  550900    299.13797   -1161.2319    6434.5498    11663.942     1854.028 
  551000    296.49061   -1158.9331     6488.713    11663.847    1899.1451 
  551100    302.67039   -1165.5438    6363.3465    11663.891    1875.6088 
  551200     297.2586   -1165.3438    6478.7342    11663.864    1938.7315 
  551300    303.21905   -1163.5192    6349.5738    11663.864    1923.3861 
  551400    297.63269    -1160.341    6465.7719    11663.897    1912.0931 
  551500    299.08223   -1161.8918    6436.3871    11663.928    1891.3832 
  551600     301.4759   -1163.9467    6387.2899    11663.913    1883.4748 
  551700    300.38855   -1163.3862    6409.9403    11663.895    1874.7104 
  551800    298.02693   -1162.4409    6459.3636    11663.811    1916.8627 
  551900    298.12064   -1163.1731    6458.1003    11663.817     1862.259 
  552000    300.99854   -1163.3314    6396.8139    11663.854    1814.1215 
  552100    298.76195   -1162.2853    6443.5718    11663.877    1876.7028 
  552200    300.66469   -1164.3855    6404.9538    11663.808    1858.0795 
  552300    298.85365   -1154.4542    6433.7053    11663.801    1860.1423 
  552400    302.23025   -1158.4893    6365.6482    11663.844    1886.5074 
  552500    301.95418   -1161.3125    6374.4316    11663.907    1926.6526 
  552600    297.36968   -1150.9258    6461.9084     11663.83    1863.0619 
  552700    300.85363   -1165.0419    6401.5926    11663.827    1856.0928 
  552800    303.55912    -1164.073    6342.8776    11663.879    1913.8364 
  552900    300.85274   -1168.8646    6405.5934    11663.986    1857.9585 
  553000    296.07946   -1164.1766    6502.7646    11663.871    1856.2096 
  553100    298.39352   -1164.4952    6453.7266    11663.951    1877.7591 
  553200    299.70739   -1163.1771    6424.2666    11663.878    1954.1277 
  553300      303.851   -1153.1052    6325.6179    11663.823    1898.4462 
  553400    301.91257   -1159.3348    6373.2394    11663.803    1908.4767 
  553500    298.07084   -1161.7015    6457.8308    11663.955    1867.5885 
  553600    300.81761   -1160.0044    6397.3864    11663.889    1861.2077 
  553700    302.61333   -1165.5409    6364.6327    11663.961    1843.3712 
  553800    296.12327   -1167.0698      6504.82    11663.969    1867.5543 
  553900    299.63726    -1167.566    6430.2168    11663.941    1844.3111 
  554000    300.09849    -1166.818    6419.6461    11663.972    1860.7075 
  554100    299.90967   -1165.8474    6422.6799    11663.942    1869.9988 
  554200    300.82674   -1165.9505    6403.1311    11663.882    1860.6215 
  554300    298.61954   -1163.8265    6448.1834    11663.905    1882.7935 
  554400    302.79757   -1163.1751    6358.2441    11663.875    1900.9226 
  554500    301.51505   -1165.6147    6388.1062    11663.898    1827.8049 
  554600    300.22592   -1161.7977    6411.8654    11663.934    1863.8332 
  554700    300.82189   -1162.6637    6399.9998    11663.934    1880.5149 
  554800    299.38477   -1158.1448    6426.2472    11663.999    1843.1755 
  554900    299.69857   -1165.8915    6427.1716     11663.88    1820.0627 
  555000    303.86059   -1158.6159    6330.9371    11663.836    1816.3627 
  555100    299.40396   -1159.6999    6427.2055    11663.812    1839.9083 
  555200    298.85634    -1163.227    6442.4526    11663.833     1886.463 
  555300    300.44907   -1164.2986    6409.5476    11663.882    1931.0981 
  555400     299.8254   -1158.0144    6416.5012    11663.796    1832.3807 
  555500    301.27775   -1156.1391    6383.5778    11663.776    1807.1303 
  555600    297.44012   -1161.2443    6470.6791    11663.787     1941.069 
  555700    299.68415   -1162.4179    6424.0261      11663.9    1905.0527 
  555800    303.51464   -1157.1722     6336.887    11663.839    1881.6318 
  555900    298.93491   -1161.3635    6438.9405    11663.863    1897.8462 
  556000     296.9911   -1162.6255    6481.7744    11663.908     1904.598 
  556100    304.31261   -1166.6954    6329.4233      11663.9    1851.8706 
  556200    295.77155   -1158.3427    6503.5418    11663.905    1927.3354 
  556300    303.78816   -1159.5124    6333.3602    11663.816    1877.6225 
  556400    297.31573   -1156.7606     6469.031    11663.965    1890.9537 
  556500    302.38112   -1157.4331    6361.4091    11663.885    1911.3066 
  556600    301.33866   -1164.1109    6390.3869    11663.914     1874.154 
  556700    298.27064   -1165.0689    6456.9402    11663.966    1891.2593 
  556800    303.09539   -1165.5605    6354.3952    11664.003    1887.6676 
  556900    299.52983   -1164.4915    6429.4902    11663.994    1849.1476 
  557000    297.41711   -1164.0064     6474.053    11663.907    1873.0973 
  557100    303.37352   -1169.0674    6351.9478     11663.99    1916.8864 
  557200    297.79509   -1161.5134    6463.5652    11663.987    1953.4144 
  557300    300.86035   -1161.9229    6398.5158    11664.013    1867.3421 
  557400    301.44768   -1162.1231    6386.1374    11663.981    1916.8856 
  557500    303.01654   -1165.2218    6355.7446    11664.006    1878.8272 
  557600     299.5634   -1165.9846    6430.2101    11663.938    1876.6291 
  557700    301.68274   -1169.4124    6388.4275    11664.004    1855.4262 
  557800    294.13876   -1162.9109    6543.0866    11663.999    1891.8758 
  557900    298.93624   -1166.4687    6444.0917    11663.937    1848.7843 
  558000    299.40241   -1160.5403    6428.1535    11663.886    1964.2122 
  558100    303.69985   -1158.2904    6334.0229    11663.814    1947.8101 
  558200    299.75519   -1159.7956    6419.8179    11663.832     1981.719 
  558300    296.98568   -1158.9222    6478.1118    11663.833    1910.4344 
  558400     299.4364   -1159.1452    6426.0187    11663.873    1875.9371 
  558500    301.99798   -1163.4593    6375.5569    11663.821    1836.4889 
  558600    297.87334   -1166.8212    6467.1779    11663.963    1898.3991 
  558700    303.38981   -1162.4502    6344.8159    11663.823    1878.9586 
  558800    296.64946   -1149.4793    6475.8719    11663.853    1830.8168 
  558900    300.29052   -1158.1759    6406.7889    11663.859    1850.5736 
  559000    300.12245   -1162.0375    6414.2115     11663.83    1913.1749 
  559100    301.24491   -1162.2888    6390.4033     11663.75    1883.5401 
  559200    298.17241    -1160.696    6454.5879    11663.888    1913.4892 
  559300    298.47226    -1163.294    6450.7645    11663.872    1925.6527 
  559400    298.96127   -1165.9479    6442.9511    11663.852    1878.5058 
  559500    300.43667   -1164.6876    6410.2444    11663.925    1912.9781 
  559600    301.56768   -1163.3301     6384.736    11663.937    1947.6646 
  559700    299.65136    -1159.069    6421.4528    11663.975    1882.2794 
  559800    298.91783   -1166.3267      6444.42    11664.014    1906.6662 
  559900    299.87185   -1164.1339     6421.887    11664.055    1911.1264 
  560000    300.14812   -1170.9603     6422.717    11663.961    1865.4558 
  560100    302.08408   -1164.6806    6375.1827    11664.065    1882.1467 
  560200    298.53942   -1169.1344    6455.3207    11664.023    1912.6671 
  560300    299.12819   -1166.7955    6440.4152    11664.034    1938.4414 
  560400     300.6048   -1164.3212    6406.4378    11664.077    1930.4795 
  560500    297.67195   -1165.9849    6470.7298    11664.049     1932.763 
  560600    302.51073   -1170.6225    6372.0179    11664.073    1888.6183 
  560700    299.30648     -1174.85    6444.7009    11664.075     1912.038 
  560800    298.31457   -1164.9852    6456.0153    11664.063    1906.1613 
  560900    300.61758   -1167.7441    6409.5642    11664.054    1902.3538 
  561000    303.62498   -1168.4482    6346.0476    11664.081    1874.1534 
  561100    297.47633   -1160.1882    6469.0659    11664.003    1930.2583 
  561200    299.92823   -1164.0097    6420.4928    11663.989    1917.6882 
  561300    295.83128   -1163.6375    6507.5869    11663.931    1910.0704 
  561400    302.98431   -1168.1822    6359.3666    11663.979    1919.7806 
  561500    300.07504    -1163.361    6416.6111    11663.893    1950.1153 
  561600    299.44249   -1161.3336    6428.1244     11663.92    1874.0617 
  561700    298.67875   -1160.2971    6443.4103    11663.926    1871.7657 
  561800    297.84117   -1157.6417    6458.5903    11663.868    1901.0169 
  561900    300.94325   -1161.2777    6395.8981    11663.811    1934.3645 
  562000    299.64834     -1159.02    6421.2615    11663.769    1940.2192 
  562100    299.18094   -1159.3314    6431.6092    11663.819    1915.3852 
  562200    298.51863   -1160.0678    6446.5137    11663.838    1883.0782 
  562300    298.04366   -1156.6663    6453.2493    11663.828    1874.7134 
  562400    302.11701   -1157.9567    6367.5333    11663.843    1884.9472 
  562500    300.85938   -1156.1293    6392.6202     11663.89    1944.6377 
  562600    298.26855   -1156.2182    6447.9825    11663.814    1946.5084 
  562700    300.68657   -1161.9366    6402.0994     11663.87    1811.7817 
  562800    296.67464   -1166.6565    6492.5411    11663.883    1871.0025 
  562900    302.56905   -1161.4501     6361.424    11663.897    1848.8951 
  563000    300.00161   -1163.6543    6418.4527    11663.872    1849.5331 
  563100     298.5602   -1167.9606    6453.5734    11663.893    1885.8194 
  563200    301.98573   -1158.2144    6370.6954    11663.943    1910.0115 
  563300    298.95216   -1165.1128    6442.4601    11664.001    1958.9266 
  563400    299.72135   -1166.6868    6427.6214    11664.021    1892.2423 
  563500    302.66495   -1165.7951     6363.956    11664.133      1828.25 
  563600    300.26391   -1172.0945    6421.4934    11664.077    1879.6268 
  563700    299.67705   -1172.2326    6434.1627     11664.07    1864.3665 
  563800    301.41549   -1170.2495    6395.1184    11664.148    1870.6633 
  563900    300.39881   -1166.8496    6413.3244    11664.034    1913.2276 
  564000       302.65   -1165.7862    6364.2015    11664.068    1832.9231 
  564100    298.45969   -1162.9341    6450.8987    11664.098    1856.4743 
  564200    298.92742   -1165.1706    6443.1422    11664.097    1867.3793 
  564300    299.24339    -1168.553    6439.7196    11664.042    1905.6076 
  564400    300.46633   -1166.7865    6411.7557    11663.971    1943.4966 
  564500    296.56826   -1156.8702    6485.1891    11664.045     1968.526 
  564600    301.76416   -1167.7967    6385.0084     11663.94    1873.7781 
  564700    298.84174   -1164.8685    6444.5141    11663.941    1911.3733 
  564800    298.76418   -1159.9438     6441.149    11663.844    1893.9082 
  564900    300.07678   -1158.5931    6411.7126    11663.799    1835.4104 
  565000    298.83191   -1162.8911    6442.6623    11663.856    1835.5953 
  565100    299.70008   -1151.5131    6412.6437    11663.763    1822.5749 
  565200    299.70526   -1152.4634      6413.48     11663.76    1841.7489 
  565300    300.69349   -1155.5033    6395.3584     11663.71    1924.4061 
  565400    298.86516   -1156.8889    6435.8641    11663.771    1897.6202 
  565500    300.00851   -1158.1981    6412.6915    11663.715    1860.6537 
  565600    297.73028   -1157.8643    6461.0079    11663.694    1903.2547 
  565700    296.36305   -1157.2129    6489.6533    11663.782    1948.8644 
  565800    301.81646   -1160.1198    6375.9884    11663.714    1856.5772 
  565900    298.22228   -1155.8919    6448.5241    11663.694    1903.0018 
  566000     300.2877   -1158.8031    6407.4001    11663.783    1918.7206 
  566100    299.20754   -1160.5287     6432.267    11663.848    1820.2538 
  566200    301.74572   -1161.8002    6379.2775    11663.812     1812.814 
  566300    303.11458   -1161.8363     6350.187    11663.929    1883.0523 
  566400    300.87294   -1163.5549    6399.8577    11663.992    1847.5295 
  566500    299.70171   -1155.8543    6417.2356    11664.048    1850.1034 
  566600    301.94246   -1166.6162    6380.0995    11664.021    1885.8669 
  566700    299.99922   -1170.7523     6425.782    11664.053    1866.0899 
  566800    302.60686   -1171.8185     6371.218    11664.131    1828.4764 
  566900    300.34318   -1171.6424     6419.354    11664.083    1849.7558 
  567000    297.77179   -1163.1996    6465.7971    11664.035    1903.0987 
  567100    298.58831   -1166.6559    6451.8388    11664.064    1876.7669 
  567200    300.09772   -1158.1519    6411.0931    11664.068    1856.6131 
  567300     298.5704   -1170.5756    6456.1308    11664.054    1885.4651 
  567400    300.14732   -1166.7687    6418.7344    11664.153     1858.765 
  567500    303.59742   -1172.8921    6351.0175    11664.019    1787.8743 
  567600    296.65931   -1171.9504    6498.3254    11664.046    1822.8193 
  567700     299.9647   -1178.1304    6433.8985    11664.054     1858.838 
  567800    301.96985    -1171.414    6384.2876    11663.996    1886.3083 
  567900    296.30345   -1161.9052    6495.7978    11663.961    1966.9755 
  568000    302.20976   -1160.7056    6368.3093    11663.852    1861.4104 
  568100     298.4139   -1154.3057    6442.9995    11663.849    1924.2806 
  568200    302.98457   -1163.1257    6354.1405    11663.815    1911.4085 
  568300    301.50009   -1163.0402    6385.6933     11663.74    1898.9369 
  568400    301.23318   -1159.3475     6387.731    11663.768    1839.9956 
  568500    296.09286   -1159.6843    6497.8989    11663.784    1876.2225 
  568600    299.65544   -1159.7403    6421.7922    11663.731     1880.269 
  568700    299.83774   -1159.5281    6417.6626    11663.708    1904.0584 
  568800    300.33089   -1159.5345    6407.0822    11663.656    1953.6472 
  568900    304.15948   -1159.8834    6325.7201    11663.737    1883.5085 
  569000    296.04656   -1151.5506     6490.616    11663.646    1926.9045 
  569100    297.59222    -1156.045    6462.1845    11663.741    1904.2409 
  569200    301.85955   -1167.6493    6382.6869    11663.804    1963.3524 
  569300    297.72564   -1158.5707    6461.8895     11663.77    1927.8365 
  569400    299.82864   -1161.6284    6420.0103    11663.761    1876.8196 
  569500    297.37988   -1163.1563     6473.987    11663.896    1963.0194 
  569600    299.80607   -1163.6765    6422.6422    11663.862    1891.4623 
  569700     299.3016   -1161.1843    6431.0219    11663.957    1894.3636 
  569800    303.29768   -1170.4123    6354.9215    11663.999    1859.5647 
  569900    299.64152   -1159.4802    6422.1599    11664.061    1823.0038 
  570000    299.15061   -1160.2094    6433.3445    11664.029    1882.0676 
  570100    301.12328   -1160.8994    6391.8815    11664.019    1867.5094 
  570200    298.84289   -1164.4974    6444.2345    11664.057    1924.9119 
  570300    299.67373   -1165.5702    6427.6183    11664.117    1920.6736 
  570400    302.09357   -1169.0147    6379.3834    11664.134    1975.2265 
  570500    299.55918   -1168.7375    6433.2211    11664.106    1890.2148 
  570600    299.02204   -1166.9401     6442.834    11664.041    1897.7828 
  570700    301.38584   -1165.6802    6390.9949    11663.961    1899.6228 
  570800    299.58815   -1166.1912     6429.989    11664.039    1920.5409 
  570900    298.32183   -1165.3607     6456.167    11663.995     1927.484 
  571000       298.14     -1166.44    6461.0893    11663.953    1948.4628 
  571100    303.18566   -1167.1051    6353.9576    11663.949    1870.9468 
  571200    298.33369   -1163.8932    6454.4432    11663.992    1933.8776 
  571300    298.02607   -1170.2629    6467.4254    11664.032    1894.9413 
  571400    300.00476   -1160.7721    6415.5081    11663.877    1841.3234 
  571500    299.24122   -1158.7819    6429.8318    11663.879    1875.8386 
  571600    301.51387   -1157.2097    6379.6689     11663.84    1899.9465 
  571700    298.96733   -1165.0139    6441.8897    11663.854    1878.5485 
  571800    303.28053   -1159.0301    6343.7605    11663.854    1901.6437 
  571900    297.69829   -1162.5946    6466.6379     11663.91    1912.7365 
  572000    300.98252   -1162.4118    6396.1625     11663.78     1855.348 
  572100    299.04187   -1162.3205    6437.6444    11663.895    1903.2856 
  572200    298.79951   -1162.2261    6442.7327      11663.9    1921.4702 
  572300    299.28639   -1156.1197    6426.2036    11663.878    1922.2038 
  572400    299.00866   -1159.0741    6435.0794    11663.866    1903.8504 
  572500    299.60785   -1158.7079    6421.9385    11663.893    1921.7467 
  572600    299.94262   -1156.9909    6413.0757    11663.899    1887.7103 
  572700    301.37806   -1163.3143    6388.6666    11663.832    1915.8481 
  572800    303.01658   -1161.0059    6351.4176    11663.896    1907.4441 
  572900    297.13904   -1161.4913    6477.5193    11663.948    1866.7656 
  573000    298.15038   -1166.5645    6461.0332    11663.994    1846.5158 
  573100    301.41041   -1165.8752    6390.6827    11663.978    1854.5404 
  573200    301.02191   -1166.6883    6399.7858    11663.969     1929.036 
  573300    296.73958   -1172.4437    6497.1007    11664.043      1850.17 
  573400    300.31978     -1167.54    6415.7044    11664.036    1870.2864 
  573500    300.22452   -1167.0177    6417.2347    11664.053    1909.5768 
  573600    299.61904    -1164.695    6427.7911    11663.997    1893.0476 
  573700    300.33589   -1161.2342    6409.0805    11664.062    1898.2031 
  573800    301.69585    -1165.959    6384.7644    11664.074     1950.129 
  573900    300.40639   -1169.4253    6415.6876    11663.984    1927.8257 
  574000    299.56768    -1165.422    6429.6719    11664.054    1927.3533 
  574100    297.13439   -1172.4744    6488.6718    11664.018    1979.4167 
  574200    298.43609   -1162.5431    6450.9285    11664.015    1977.4109 
  574300    302.58582   -1162.1979    6361.9261     11664.01    1917.0788 
  574400    296.90537   -1161.7744    6482.8291    11663.982    1948.9633 
  574500    300.49593   -1161.3412    6405.6713    11663.964    1940.0275 
  574600    297.21778   -1158.0707    6472.3392     11663.87    1912.3641 
  574700    300.32893   -1161.6301    6409.4551    11663.892    1917.8445 
  574800    299.16525   -1163.8106    6436.5234    11663.919    1948.0518 
  574900    300.98301   -1162.5532     6396.388    11663.875    1896.0855 
  575000    300.07036   -1164.3599    6417.5751    11663.758    1878.5514 
  575100    298.05263     -1160.93     6457.237    11663.744    1969.8561 
  575200    297.96426   -1164.4162    6462.6327    11663.766    1922.4994 
  575300    301.52798   -1160.8296    6382.9215    11663.775    1925.9555 
  575400    301.75005   -1158.2057    6375.5472    11663.768    1973.9634 
  575500    302.08687   -1164.7613    6374.9304    11663.792    1947.1853 
  575600    296.77384   -1162.3135    6486.0456     11663.85    1840.7378 
  575700    298.17464   -1161.5071    6455.3223    11663.859    1972.2178 
  575800    302.32202   -1163.1179    6368.2932    11663.821    1895.4538 
  575900    298.36715    -1163.376    6453.1601     11663.94    1889.1467 
  576000    300.93728    -1169.022    6403.9012    11663.942    1911.4545 
  576100    294.26964    -1165.098    6542.4477    11663.969    1927.7274 
  576200     301.3902   -1168.2915    6393.4892    11663.937    1914.1027 
  576300    302.29802   -1162.5127    6368.4116    11664.032    1931.8838 
  576400    299.72104   -1163.6536    6424.6388    11664.065    1932.2677 
  576500    301.20912   -1163.9864    6393.1129    11663.997    1906.1159 
  576600    299.51247   -1166.6285    6432.0461    11664.042    1923.3168 
  576700    300.18027   -1169.9237    6421.0689    11664.036    1923.8007 
  576800    301.11695   -1174.6385    6405.8207    11664.084    1974.0821 
  576900    301.92234   -1173.4016    6387.3094    11664.015    1958.6501 
  577000    300.13276   -1178.4011    6430.5458     11664.02    1916.6769 
  577100    295.89201   -1169.2711    6512.0297    11664.037    1905.4972 
  577200    299.48294   -1165.4753    6431.4934    11664.012    1851.5351 
  577300    303.07396   -1166.0196    6355.3657    11664.056    1912.8765 
  577400    302.52292   -1165.2112    6366.2429     11663.97    1900.8747 
  577500    298.97485    -1166.459    6443.2477    11663.928    1878.3853 
  577600    302.53564   -1167.8552    6368.4625    11663.817    1760.0847 
  577700    295.69875   -1165.0958    6511.8965    11663.951    1902.3426 
  577800     302.1343    -1170.297    6379.5317    11663.871    1934.8193 
  577900    298.74294   -1165.2467    6446.9417     11663.88    1870.5389 
  578000    300.67316   -1166.5084    6407.0058    11663.918    1915.8278 
  578100     298.3712   -1158.6491    6448.3052    11663.899    1878.8737 
  578200    298.38723   -1161.1929    6450.4406    11663.833     1924.073 
  578300     299.0469   -1160.5926    6435.7367    11663.822      1922.06 
  578400    301.21501   -1162.6641    6391.5167    11663.849    1940.3849 
  578500    297.57766    -1158.775    6465.3277    11663.843    1960.4197 
  578600    299.12125   -1160.0008    6433.5174    11663.783    1918.2715 
  578700    299.26276   -1163.6383    6434.1284     11663.78    1872.9088 
  578800    300.50244   -1164.0065    6408.1093    11663.876    1888.7165 
  578900    300.61114   -1161.5261     6403.276    11663.846    1868.4716 
  579000    301.09069   -1162.2893    6393.7177    11663.769    1902.9126 
  579100    300.71718   -1166.2216    6405.7173    11663.857    1917.0972 
  579200    299.90858    -1160.605    6417.4364    11663.918    1873.4429 
  579300    298.55828   -1162.8404    6448.5284    11663.927     1901.891 
  579400    299.95006    -1169.478    6425.4454     11663.94    1915.2975 
  579500    300.80701   -1169.0087    6406.7464    11664.018    1917.6053 
  579600    300.37683   -1165.9303     6412.773    11663.933    1868.4133 
  579700     297.5639   -1168.4336    6475.4225    11663.985    1915.0273 
  579800     300.6256   -1168.1091    6409.7486    11664.044    1858.0306 
  579900    301.85256   -1171.7368    6387.1622    11664.042    1848.9234 
  580000    298.80985      -1167.8    6448.2241    11664.038    1921.5893 
  580100    301.85324   -1169.1827    6384.5111     11663.96    1902.0673 
  580200    298.82217   -1166.4581    6446.7523    11664.171    1973.0251 
  580300    301.09655   -1162.6502    6394.2392    11664.055    2009.5904 
  580400    296.74179   -1172.0707    6496.6655    11664.028    1940.7506 
  580500    302.71052   -1165.1812    6362.2752     11664.04     1872.365 
  580600    299.07949   -1168.7863    6443.4978    11664.086    1893.8628 
  580700    299.42159   -1168.3341    6435.7305    11664.079    1880.4792 
  580800    302.25655   -1168.1235    6374.8053    11663.929    1918.0227 
  580900    299.81586   -1165.9545    6424.8883     11664.04    1966.9221 
  581000    297.12202   -1159.2491    6475.6561    11663.963    1885.6658 
  581100    302.86277     -1167.07     6360.744    11663.872    1951.5664 
  581200     298.0147   -1165.4309    6462.6889    11663.885    1957.0919 
  581300    300.65777   -1161.0325    6401.8436    11663.903    1911.7356 
  581400    301.42399   -1161.7077    6386.0036    11663.757    1915.3024 
  581500    296.67417     -1164.64    6490.4547    11663.803    1897.2378 
  581600     300.0469    -1162.248    6416.0319    11663.826    1889.1909 
  581700    299.41579   -1161.8124    6428.9744    11663.721    1868.5747 
  581800    302.32844   -1156.5214    6361.4303    11663.692    1865.4568 
  581900    297.94147   -1160.8517    6459.6215    11663.832    1898.4892 
  582000      297.999   -1162.8332    6460.3666    11663.825    1889.8183 
  582100    300.35433   -1162.8259     6409.998    11663.782    1877.8013 
  582200    298.73202   -1162.0583    6443.9298    11663.823     1891.262 
  582300    300.81072   -1157.5041    6394.9365    11663.792     1855.037 
  582400    299.35399    -1161.035    6429.6033    11663.807    1930.8104 
  582500    298.83726   -1164.4564    6444.1882    11663.931    1897.1229 
  582600    299.10191   -1164.5008     6438.577     11663.93    1891.6914 
  582700    302.38187   -1163.3168    6367.3944    11664.002    1934.2682 
  582800    298.20836   -1165.5538    6458.6798     11663.89    1953.3924 
  582900    299.38102   -1166.2876    6434.4648    11663.993    1996.1308 
  583000    303.06833   -1167.0765    6356.4521    11663.965    1921.1295 
  583100    295.91439   -1164.3696    6506.5653    11663.953    1931.8405 
  583200    301.39401   -1165.6395    6390.8214    11664.002      1941.42 
  583300    299.55737   -1162.6578    6427.0974    11664.023    1922.5953 
  583400    300.25673    -1169.461     6419.015    11664.078    1867.9124 
  583500    299.87103   -1168.9083    6426.6836     11664.06     1892.198 
  583600    297.76849   -1167.6593    6470.3402    11664.048    1854.6092 
  583700    300.31249   -1169.7801    6418.1984    11664.134    1872.9308 
  583800    301.31313   -1169.3975    6396.2898    11663.985    1904.3709 
  583900    297.78501   -1164.7467    6466.9916    11663.965    1903.1451 
  584000    303.59619   -1168.0715    6346.1344     11663.93    1853.7435 
  584100    297.64886    -1167.951    6473.0815    11663.942    1919.3353 
  584200    299.12553   -1156.2142    6429.7386    11663.882    1902.3332 
  584300    302.56469   -1158.3038    6358.3165    11663.843    1952.1232 
  584400    296.69645   -1161.7235    6487.1709    11663.912    1942.7534 
  584500    302.92231   -1163.2707    6355.6976    11663.897    1865.8411 
  584600    296.72987   -1160.2227    6484.8806    11663.836    1942.3371 
  584700    298.06347   -1160.2922    6456.4551    11663.832    1896.4655 
  584800    303.01218   -1163.7533    6354.1252    11663.762     1888.716 
  584900      297.631   -1158.8532    6464.2475    11663.824    1955.0497 
  585000    298.55959   -1159.0073    6444.4511    11663.711    1880.5723 
  585100    302.87226   -1157.0493    6350.4262    11663.778    1883.5145 
  585200    298.51161   -1159.2542    6445.8008    11663.789    1888.4861 
  585300    296.99397   -1155.5393    6474.5221    11663.803    1950.0181 
  585400    303.30664   -1157.9914    6342.0758    11663.765    1918.6526 
  585500    296.27715   -1161.4104    6495.7049    11663.801    1860.8607 
  585600    301.91726   -1160.8097    6374.7333    11663.923     1874.802 
  585700    298.67897   -1160.2113    6443.2475    11663.854    1884.0351 
  585800    295.86766   -1165.0737    6508.1991    11663.884    1944.3802 
  585900    301.08122   -1165.3292    6397.1556    11663.965    1873.8253 
  586000    297.89866   -1167.3962    6467.1781     11663.93    1898.4279 
  586100     298.4471   -1164.6614    6452.7574     11663.96    1910.2023 
  586200    301.39269   -1163.0441    6388.1594    11663.908    1922.1372 
  586300    297.27024   -1165.9352    6479.1614    11663.949    1931.5871 
  586400    300.46831   -1167.4726    6412.4323    11664.004    1890.5228 
  586500    302.84842   -1165.3939    6359.4882    11663.986    1848.6081 
  586600    300.37056   -1162.6601    6409.6902    11663.986    1900.2484 
  586700    300.57514   -1167.8768    6410.5927    11664.043    1938.7763 
  586800      298.448    -1165.373    6453.4116    11663.922    1904.5538 
  586900    301.36907   -1163.0053    6388.6795    11663.962    1950.5845 
  587000    305.79455   -1166.6406    6297.7815    11663.972     1899.125 
  587100    299.01439   -1168.2475    6444.2736     11664.01    1854.4919 
  587200    301.46455   -1165.6844    6389.3275    11663.971     1903.852 
  587300     301.3607   -1169.5236    6395.3772    11663.963    1984.2411 
  587400    297.78021   -1162.2226    6464.5542    11663.949    1876.8471 
  587500    302.85332   -1163.5565    6357.4012    11663.841    1791.0906 
  587600    297.95572    -1161.899    6460.3669    11663.835    1957.1241 
  587700    298.40504   -1155.2407    6444.0091    11663.734    1908.3414 
  587800    298.54934   -1160.9432    6446.6424    11663.748    1869.5933 
  587900    301.04534   -1158.3914    6390.8162    11663.797    1863.4235 
  588000    297.98316   -1153.3426    6451.3228    11663.933     1836.436 
  588100    302.05279   -1159.2037    6370.0908    11663.781    1839.8791 
  588200    299.55664   -1159.2232    6423.3239    11663.669    1857.8142 
  588300    296.40103   -1157.0145    6488.5884    11663.727    1859.6566 
  588400    301.28452   -1155.6812    6382.9684    11663.769    1862.0786 
  588500    298.65265   -1156.3166    6439.7469    11663.686    1943.3621 
  588600    301.70751   -1157.1042    6375.2287    11663.643    1929.6423 
  588700    299.02554   -1159.2975    6434.7534    11663.678    1931.5906 
  588800    301.93586   -1162.5787    6375.9404    11663.758     1963.006 
  588900    298.61116   -1162.1696     6446.524    11663.724    1968.4994 
  589000    300.63391   -1157.9725    6399.1707     11663.78    1908.1684 
  589100    298.37796   -1157.4479    6446.9069    11663.846    1903.2276 
  589200    299.44784   -1161.9314    6428.4434    11663.756    1892.0948 
  589300    300.07631   -1160.1537    6413.2824    11663.799    1863.0327 
  589400    298.93058   -1161.4269    6439.0751    11663.841    1877.0702 
  589500    300.08442   -1167.1094    6420.2476    11663.981    1900.8309 
  589600    300.94333    -1164.978    6399.7743    11663.989    1878.8373 
  589700     301.3643   -1160.7489    6386.5678    11664.005    1835.6414 
  589800    301.83219   -1172.3332    6388.1247    11663.973    1886.6842 
  589900    301.06731   -1172.1094    6404.3476    11664.079    1867.3539 
  590000    299.40754   -1166.1462    6433.8432     11664.08    1872.2447 
  590100    302.68665   -1170.4762    6368.0352    11663.995    1935.4009 
  590200    304.59074   -1168.1748    6325.0951    11664.034    1865.0422 
  590300    299.09259   -1168.0991    6442.5228    11664.078    1857.3288 
  590400    301.45279   -1172.9756    6396.9466    11664.047    1797.1074 
  590500    298.82433   -1168.2319    6448.3413    11664.033     1859.944 
  590600    299.98143   -1168.1089    6423.4559     11663.99    1872.0357 
  590700    297.98122   -1170.4535    6468.5412    11663.999    1926.9087 
  590800    301.48073   -1166.4985    6389.7366    11663.911    1899.1677 
  590900    298.93835   -1163.4309    6441.0793    11664.007    1887.7705 
  591000    301.46386   -1166.5419     6390.224    11663.995    1935.7834 
  591100     297.0737   -1161.9355    6479.2866    11663.875    1911.7053 
  591200    301.56221   -1165.8923    6387.3971    11663.919      1848.34 
  591300    298.90207   -1162.0241    6440.3268    11663.887    1855.5333 
  591400    299.60448   -1157.1995    6420.5383    11663.929    1927.5374 
  591500    300.28369   -1164.6558    6413.3833    11663.828    1853.6334 
  591600    298.91523   -1162.9921    6441.0422    11663.915    1820.6414 
  591700    299.92258   -1161.5077    6418.0546    11663.933    1856.6072 
  591800    297.41054   -1158.6884    6468.8553    11663.887    1919.3093 
  591900    299.45482   -1159.0285    6425.4472    11663.811     1910.074 
  592000    301.24692   -1160.4334    6388.6131    11663.858     1902.673 
  592100    299.29953   -1165.6573    6435.5009    11663.919    1921.3079 
  592200    301.08428   -1165.2288    6396.8276    11663.802     1864.681 
  592300    300.74119   -1164.2106    6403.1494    11663.813    1865.6393 
  592400    297.21882   -1163.8852    6478.1614      11663.9    1845.1107 
  592500    304.95419   -1160.5274    6309.5095    11663.861     1829.749 
  592600    297.28986   -1164.1134    6476.8985    11663.927    1957.0687 
  592700    299.69534   -1165.4876    6426.9062     11663.95    1925.0824 
  592800    300.20136   -1164.4476    6415.0665     11663.96    1931.1604 
  592900    298.87063   -1159.4869    6438.6018    11664.027    1969.1522 
  593000    303.49973   -1165.3836    6345.6104    11664.033    1917.6252 
  593100    294.07937   -1165.1544     6546.657    11664.057    1971.5501 
  593200     302.1613   -1167.6172    6376.4796    11664.075    1917.4605 
  593300    298.56417   -1169.2731     6454.901    11663.993    1935.0502 
  593400    301.01786   -1168.2523    6401.4852    11664.018    1887.6593 
  593500    298.78078   -1167.7154    6448.7797    11664.057    1922.9418 
  593600    296.57896   -1165.3869    6493.3819     11663.95      1876.32 
  593700    303.43806   -1169.3959     6350.915    11664.008    1881.3813 
  593800    302.02012   -1167.9794    6379.8486    11664.066    1884.1949 
  593900    296.78848   -1169.2829    6492.9196    11664.067    1930.3851 
  594000    299.29415   -1167.1431    6437.2546    11664.072    1854.5058 
  594100    298.10812   -1171.5014     6466.873    11663.994    1906.2138 
  594200    302.55774   -1164.5758    6364.8505    11663.957    1883.2721 
  594300    297.60098   -1169.9264    6476.1523    11664.014    1990.0586 
  594400    302.00239   -1169.3785    6381.4985    11663.938    1881.6254 
  594500      302.025   -1166.9369    6378.5558     11663.92    1932.0896 
  594600    300.69685   -1163.1303    6403.1543    11663.951    1967.0164 
  594700    296.55871   -1165.3937    6493.8469    11663.975    1927.7422 
  594800    299.89667   -1164.2754    6421.3856    11663.942    1894.6898 
  594900    297.39908   -1162.5969    6473.0543    11663.932    1960.6794 
  595000    299.02843    -1167.847    6443.4914    11663.928    1949.5496 
  595100    301.50186   -1164.7997     6387.569    11663.894    1888.7764 
  595200    300.71198   -1165.7409    6405.4761    11663.985    1900.0406 
  595300    300.28391   -1162.0525    6410.8918    11663.944    1933.3064 
  595400    300.36534   -1162.4059    6409.4683    11663.907    1956.8704 
  595500    301.67075   -1162.2366    6381.5506    11664.047    1857.9923 
  595600    298.94091   -1165.5649    6443.1587    11664.008    1970.4291 
  595700    299.42594   -1165.8038    6432.9218    11663.894    1910.4719 
  595800    303.08806    -1166.425    6355.3815    11663.968    1877.1467 
  595900    301.30964   -1171.2079    6398.2214    11664.032     1948.475 
  596000    300.96372   -1172.7052    6407.1339    11664.057    1914.2235 
  596100    295.79483   -1168.7145    6513.5235    11664.012    1865.4419 
  596200    302.74399   -1173.9608    6370.3029    11664.003    1911.8599 
  596300    295.35692   -1169.6944    6523.8497    11664.003    1963.9838 
  596400    301.71175   -1165.6105    6383.9913    11663.989     1893.353 
  596500    299.96011   -1162.3461    6418.2014    11664.043    1972.5738 
  596600    299.92648   -1161.6597    6418.2233    11664.033    1962.9334 
  596700    299.06659   -1168.1862    6443.0836    11663.996    1946.1544 
  596800    301.61796    -1168.815    6389.1994    11663.989    1935.1601 
  596900    301.18193   -1169.3859    6399.1965      11664.1    1959.0143 
  597000    297.82263   -1175.4801    6476.9688    11664.012    1877.5942 
  597100    301.06794   -1174.1617    6406.2834    11663.976    1890.9522 
  597200    300.43016   -1165.5856    6411.4052    11664.049    2028.1617 
  597300    298.82942   -1167.3127    6447.2128    11663.932    1987.0479 
  597400    298.94443   -1162.1838    6439.7078    11664.013    1992.9066 
  597500    299.01671   -1163.0952    6439.0339    11663.972    1978.8996 
  597600    300.90773   -1166.3837    6401.9533    11664.001    1901.3942 
  597700    302.15264   -1163.4449     6372.381    11663.964     1910.521 
  597800    296.06765   -1165.3639    6504.3825     11664.05    1984.9602 
  597900    302.02943    -1171.282    6382.8699    11663.983    1881.9029 
  598000    300.77095   -1160.5726    6398.9649    11663.902    1881.3851 
  598100    299.37089   -1165.9312    6434.2933    11663.962    1880.8097 
  598200    299.71655   -1166.8132    6427.7551    11663.926    1888.2706 
  598300    299.70603   -1166.3009    6427.4732    11663.932    1915.9031 
  598400    302.68192   -1166.4071    6364.0484    11663.976    1913.8115 
  598500    296.90534   -1163.2732    6484.2133    11663.867    1967.8966 
  598600    303.00884   -1162.9669    6353.6233    11663.975    1927.5538 
  598700     298.2412   -1160.2484    6452.7647    11663.982    2022.5778 
  598800    301.68829   -1166.8952    6385.7445    11663.957    1946.1094 
  598900    298.34045    -1163.893    6454.2835    11663.976    1964.9187 
  599000    303.07116    -1165.839    6355.1612    11663.973     1963.245 
  599100    299.05695     -1166.77    6441.8557    11663.979    1940.8716 
  599200    298.63859   -1166.2733    6450.2923    11663.974    1908.6073 
  599300    300.87358   -1163.0371     6399.419    11664.084    1979.8172 
  599400    300.70319   -1165.5635    6405.5455    11664.044    1970.2642 
  599500    299.35154   -1167.5854     6436.415    11664.016    1905.4642 
  599600    299.19283   -1164.7522    6436.9251    11663.969    1889.4686 
  599700    298.33656   -1166.8401     6457.378    11664.041     1957.419 
  599800    301.54954   -1161.4467     6383.255    11663.952    1909.2583 
  599900    302.98104   -1165.5016    6356.7048    11663.928    1838.9306 
  600000    298.83304   -1162.2192    6442.0692     11663.96    1928.2958 
Loop time of 276.881 on 8 procs for 300000 steps with 7168 atoms

Pair  time (%) = 137.434 (49.6366)
Bond  time (%) = 80.9511 (29.2368)
Neigh time (%) = 19.4884 (7.03855)
Comm  time (%) = 28.8961 (10.4363)
Outpt time (%) = 0.476174 (0.171978)
Other time (%) = 9.63474 (3.47974)

Nlocal:    896 ave 900 max 893 min
Histogram: 2 1 0 0 1 2 0 1 0 1
Nghost:    2841.75 ave 2846 max 2839 min
Histogram: 2 1 1 0 0 3 0 0 0 1
Neighs:    23627.1 ave 23934 max 23325 min
Histogram: 2 0 0 1 1 0 2 0 1 1

Total # of neighbors = 189017
Ave neighs/atom = 26.3696
Ave special neighs/atom = 157.056
Neighbor list builds = 3039
Dangerous builds = 0
# −−−−−−−−−−−−−− Flux calculation in nve −−−−−−−−−−−−−−−
reset_timestep  0
compute         PE all pe/atom
compute         KE all ke/atom

variable        CX atom (vx*(c_KE+c_PE))
compute         Jcx all reduce sum v_CX

variable        CZ atom (vz*(c_KE+c_PE))
compute         Jcz all reduce sum v_CZ

variable        CY atom (vy*(c_KE+c_PE))
compute         Jcy all reduce sum v_CY

compute         SA all stress/atom virial

variable        VX atom -(c_SA[1]*vx+c_SA[4]*vy+c_SA[5]*vz)*1.4593e-5
compute         Jvx all reduce sum v_VX

variable        VZ atom -(c_SA[3]*vz+c_SA[6]*vy+c_SA[5]*vx)*1.4593e-5
compute         Jvz all reduce sum v_VZ

variable        VY atom -(c_SA[2]*vy+c_SA[6]*vz+c_SA[4]*vx)*1.4593e-5
compute         Jvy all reduce sum v_VY

variable        Jx equal (c_Jcx+c_Jvx)/vol
variable        Jz equal (c_Jcz+c_Jvz)/vol
variable        Jy equal (c_Jcy+c_Jvy)/vol

fix             JJTx all ave/correlate $s $p $d                 v_Jx type auto file J0Jt_tx.dat ave running
fix             JJTx all ave/correlate 5 $p $d                 v_Jx type auto file J0Jt_tx.dat ave running
fix             JJTx all ave/correlate 5 20000 $d                 v_Jx type auto file J0Jt_tx.dat ave running
fix             JJTx all ave/correlate 5 20000 100000                 v_Jx type auto file J0Jt_tx.dat ave running

fix             JJTz all ave/correlate $s $p $d                 v_Jz type auto file J0Jt_tz.dat ave running
fix             JJTz all ave/correlate 5 $p $d                 v_Jz type auto file J0Jt_tz.dat ave running
fix             JJTz all ave/correlate 5 20000 $d                 v_Jz type auto file J0Jt_tz.dat ave running
fix             JJTz all ave/correlate 5 20000 100000                 v_Jz type auto file J0Jt_tz.dat ave running

fix             JJTy all ave/correlate $s $p $d                 v_Jy type auto file J0Jt_ty.dat ave running
fix             JJTy all ave/correlate 5 $p $d                 v_Jy type auto file J0Jt_ty.dat ave running
fix             JJTy all ave/correlate 5 20000 $d                 v_Jy type auto file J0Jt_ty.dat ave running
fix             JJTy all ave/correlate 5 20000 100000                 v_Jy type auto file J0Jt_ty.dat ave running

run             1000000
Memory usage per processor = 13.8919 Mbytes
Step Temp E_pair E_mol TotEng Press 
       0    298.83304   -1162.2192    6442.0692     11663.96    1928.2958 
     100    300.68952   -1166.0977    6406.3415    11664.014    1905.3085 
     200    297.91445   -1166.3728    6465.8387    11663.951    1866.1894 
     300    301.26865   -1169.2525    6397.0536    11663.944    1828.2016 
     400    301.33757   -1163.0142    6389.2918    11663.893    1942.8334 
     500    301.75845   -1167.3132    6384.6575    11663.951    1884.3705 
     600    299.09735   -1164.1477    6438.2845    11663.893    1888.3054 
     700    299.26277   -1169.9228    6440.5111    11663.878    1922.4697 
     800    299.42538   -1163.8317     6431.027    11663.959    1909.3548 
     900    302.12953   -1162.9913    6372.3226    11663.865      1900.11 
    1000    295.20983   -1157.3958    6514.6701    11663.979    2008.2607 
    1100    304.00182   -1165.6644    6335.0258    11663.894    1931.1738 
    1200    296.02303   -1165.3536    6505.2167    11663.941    1910.8328 
    1300    298.13709   -1168.2558    6463.0008    11663.986    1961.4392 
    1400    301.00176   -1164.6238    6398.1138    11663.931    1899.3007 
    1500    301.12896   -1168.6401    6399.3844    11663.902    1868.1115 
    1600    298.69179   -1166.2322       6449.1     11663.96    1938.2868 
    1700    302.53247   -1164.2033    6365.0406    11663.979    1936.4204 
    1800    298.66928   -1159.9103    6443.1543    11663.855    1915.4379 
    1900    298.32541    -1165.301    6456.0103    11663.974    1939.9213 
    2000    301.62563   -1165.0328    6385.2645    11664.001    1945.0369 
    2100    297.66788   -1166.9348    6471.6993    11663.982    1916.7462 
    2200    302.47943   -1165.0586    6367.0053    11663.956    1907.1182 
    2300     300.3306   -1163.8599    6411.7211    11663.964    1914.3739 
    2400    297.13054   -1165.5057     6481.842    11664.074    1843.9538 
    2500    299.22136   -1165.5028    6437.0926    11663.995     1863.492 
    2600    301.08213   -1164.4998    6396.2753    11663.933    1943.2099 
    2700    301.30469     -1168.02    6395.0427    11663.935    1841.5888 
    2800    299.92847   -1161.7327    6418.1761    11663.955    1805.5072 
    2900    298.27075   -1162.4941    6454.3673     11663.97    1889.2364 
    3000     297.9903   -1163.9137    6461.7407    11663.933    1904.0955 
    3100    300.47558   -1158.2835    6403.0601    11663.976    1864.3416 
    3200    297.25463   -1159.7844    6473.2415    11663.846    1895.8418 
    3300    301.75801   -1160.9641    6378.1949    11663.828     1942.638 
    3400    300.60982   -1154.7934    6396.5101    11663.784    1940.4614 
    3500    298.48057   -1156.7478    6444.0455    11663.877    1910.0053 
    3600    299.33287   -1164.0345    6433.1468      11663.9    1914.4652 
    3700    297.59618   -1159.5278    6465.6305    11663.789    1864.5559 
    3800    299.50384   -1160.8522     6426.188    11663.776     1863.152 
    3900    298.59516   -1160.8045    6445.5497    11663.773    1930.1182 
    4000    301.66985   -1156.4325     6375.566    11663.847     1907.515 
    4100    297.05644   -1157.9977    6475.5603    11663.718    1918.5696 
    4200    301.39178   -1160.6288    6385.6426    11663.787     1882.696 
    4300    298.90965   -1162.1627    6440.2335    11663.817    1861.0887 
    4400    298.87584   -1161.9513    6440.7322    11663.805    1866.3506 
    4500    298.74925   -1162.6463    6444.1103    11663.783    1891.9827 
    4600     300.5008    -1164.696    6408.8794    11663.922    1912.2827 
    4700    298.39131   -1160.8489    6450.0774    11663.901    1889.8621 
    4800    300.77535   -1163.2542    6401.5176    11663.867    1888.9366 
    4900    301.27757   -1163.1669    6390.7822    11663.948    1932.2473 
    5000    298.97684   -1163.6962    6440.4824    11663.968    1889.6612 
    5100    297.99883   -1161.2179    6458.8207     11663.89    1911.1258 
    5200      300.543   -1157.4947    6400.7968    11663.942    1942.9393 
    5300    300.91151   -1159.0984    6394.5011    11663.915    1856.9545 
    5400    296.58879   -1168.6801    6496.4884    11663.973      1845.66 
    5500    301.31427   -1166.4904    6393.3493    11663.976    1811.4564 
    5600    300.35427    -1164.279    6411.6936    11664.023    1833.6973 
    5700    301.02582   -1167.9023    6400.8164    11663.869    1738.4047 
    5800    295.42009   -1163.1225    6515.8021    11663.877     1862.331 
    5900    300.90167    -1160.624     6396.239    11663.918    1939.4932 
    6000    298.90575   -1161.3525    6439.5996     11663.91    1918.6221 
    6100    299.52823   -1165.3572    6430.2346    11663.838    1828.4915 
    6200    299.86307   -1159.0027    6416.8602    11663.972    1864.6991 
    6300    299.46325   -1161.5853     6427.887    11663.874    1865.0056 
    6400    301.83906   -1161.5138    6376.9944    11663.809    1850.6393 
    6500    296.23003   -1157.0893    6492.3555    11663.766    1902.8935 
    6600    298.65429   -1157.2195    6440.7941    11663.865    1895.5742 
    6700    299.98232   -1157.6092    6412.7395    11663.792    1883.7688 
    6800    296.49847   -1157.7795    6487.3231    11663.778    1931.4091 
    6900    300.43404     -1156.59    6402.1143    11663.837     1920.064 
    7000    301.08688   -1158.1203    6389.6787    11663.818    1863.4623 
    7100    301.23081   -1160.4394    6388.9453     11663.84    1875.0706 
    7200    298.87754   -1151.9903    6430.6975    11663.767    1874.5334 
    7300     297.2125   -1157.8672    6472.2494    11663.871     1875.155 
    7400     302.0924   -1157.3399    6367.4409    11663.842    1865.4431 
    7500    305.59511   -1160.0644    6295.3576    11663.864    1835.9172 
    7600    297.02857   -1160.2752    6478.5177    11663.802    1815.5332 
    7700    297.10767   -1159.1741     6475.781    11663.856    1849.0518 
    7800    303.90428   -1165.8665    6337.2769    11663.859    1840.6256 
    7900    295.35544   -1160.9819    6515.0166     11663.85    1962.7652 
    8000    300.26906   -1163.4903    6412.5281    11663.825    1908.7382 
    8100    302.59517   -1164.6444    6364.0693    11663.906     1943.196 
    8200    299.57275   -1169.6268    6433.6209    11663.906    1950.2923 
    8300    299.72702   -1169.0378    6429.7001     11663.87    1894.2688 
    8400    298.85574   -1161.0683    6440.3754    11663.901    1821.0998 
    8500    295.29125   -1167.3065       6522.9    11664.038    1920.7436 
    8600    302.20009   -1168.4053    6376.2295    11663.865    1865.9639 
    8700    299.68675   -1162.6538    6424.3051    11663.999    1917.1376 
    8800    300.58765   -1160.4017    6402.7742    11663.966     1932.469 
    8900    301.87209   -1164.9478    6379.8583    11663.945    1887.0205 
    9000    297.59205   -1161.4362    6467.8224    11663.984    1870.7161 
    9100    299.75959   -1161.2117     6421.242    11663.934    1899.1867 
    9200     304.8509   -1164.1784    6315.4091    11663.902    1896.0185 
    9300    297.37003    -1168.973    6479.9891    11663.871    1923.5291 
    9400    298.32608   -1169.8813     6460.495    11663.893    1871.1702 
    9500    299.54654   -1163.2097    6427.8168    11663.959    1925.0592 
    9600    299.05098   -1166.6148     6441.743    11663.894    1912.3236 
    9700    299.17555   -1165.5512    6437.9739    11663.849    1884.5522 
    9800    300.09302   -1160.7353    6413.5701    11663.862    1911.3183 
    9900    298.51287   -1160.3198    6446.8411    11663.791    1919.9074 
   10000    299.46135    -1153.703    6419.9688    11663.798     1851.198 
Loop time of 1399.69 on 8 procs for 1000000 steps with 7168 atoms

Pair  time (%) = 564.027 (40.2964)
Bond  time (%) = 297.288 (21.2395)
Neigh time (%) = 65.2922 (4.66475)
Comm  time (%) = 101.412 (7.2453)
Outpt time (%) = 0.00352561 (0.000251885)
Other time (%) = 371.673 (26.5538)

Nlocal:    896 ave 902 max 889 min
Histogram: 1 0 1 1 0 0 3 1 0 1
Nghost:    2847.75 ave 2854 max 2843 min
Histogram: 2 1 0 1 2 0 0 0 0 2
Neighs:    23605.8 ave 24040 max 23263 min
Histogram: 1 1 2 0 1 1 0 0 0 2

Total # of neighbors = 188846
Ave neighs/atom = 26.3457
Ave special neighs/atom = 157.056
Neighbor list builds = 10155
Dangerous builds = 0
