LAMMPS (11 Jun 2012)
# Initialization
atom_style      full
units           real
variable        T equal 300
variable        dt equal 1.0
variable        seed equal 123456
variable        radius equal 0.5
variable        sizet equal 4
variable        sizeb equal -4
variable        p equal 20000     # correlation length
variable        s equal 5         # sample interval
variable        d equal $p*$s     # dump interval
variable        d equal 20000*$s     variable        d equal 20000*5     
# convert from LAMMPS real units to SI
variable        kB equal 1.3806504e-23    # [J/K] Boltzmann
variable        kCal2J equal 4186.0/6.02214e23
variable        A2m equal 1.0e-10
variable        fs2s equal 1.0e-15
variable        convert equal ${kCal2J}*${kCal2J}/${fs2s}/${A2m}
variable        convert equal 6.9510174124148567155e-21*${kCal2J}/${fs2s}/${A2m}
variable        convert equal 6.9510174124148567155e-21*6.9510174124148567155e-21/${fs2s}/${A2m}
variable        convert equal 6.9510174124148567155e-21*6.9510174124148567155e-21/1.0000000000000000777e-15/${A2m}
variable        convert equal 6.9510174124148567155e-21*6.9510174124148567155e-21/1.0000000000000000777e-15/1.0000000000000000364e-10
variable        b_eq equal 10.0/3.0

# setup problem
dimension       3
boundary        p p p
neighbor        2    bin
pair_style      lj/cut 10.0
bond_style      morse
read_data       lammps.data
  9 = max bonds/atom
  orthogonal box = (0 0 0) to (80 80 80)
  2 by 2 by 2 MPI processor grid
  3584 atoms
  16848 bonds
  10 = max # of 1-2 neighbors
  86 = max # of 1-3 neighbors
  824 = max # of 1-4 neighbors
  164 = max # of special neighbors
pair_coeff      1 1 0 4.75
bond_coeff      1 10 1.8 ${b_eq}
bond_coeff      1 10 1.8 3.3333333333333334814
bond_coeff      2 5 0.805 7.4536
velocity        all create $T ${seed} mom yes rot yes dist gaussian
velocity        all create 300 ${seed} mom yes rot yes dist gaussian
velocity        all create 300 123456 mom yes rot yes dist gaussian
timestep        ${dt}
timestep        1
thermo          100
dump            T1 all cfg 600000 *.cfg id type xs ys zs
dump            T2 all xyz 10000 traj.xyz
#dump_modify    1 element Cu
# −−−−−−−−−−−−− Equilibration and thermalisation −−−−−−−−−−−−−−−−
fix             NVT all nvt temp $T $T 10
fix             NVT all nvt temp 300 $T 10
fix             NVT all nvt temp 300 300 10
run             300000
Memory usage per processor = 10.9046 Mbytes
Step Temp E_pair E_mol TotEng Press 
       0          300            0 6.3694801e-05    3204.0728    287.12305 
     100    250.06308            0    3589.7865    6260.5208    1224.9413 
     200    296.04512            0    5037.0464      8198.88    714.71826 
     300    300.05936            0    4209.7654    7414.4721    416.01975 
     400    300.02314            0    3151.1072    6355.4271    563.14782 
     500    300.27697            0    2743.3188    5950.3496    758.32576 
     600    298.21061            0    2831.3528    6016.3144    778.09849 
     700    299.94051            0    3274.8615    6478.2989    733.54729 
     800    298.22198            0     3603.275    6788.3581    752.01509 
     900    299.86649            0    3453.1477    6655.7945    738.87875 
    1000    302.56566            0    3248.4202    6479.8948    700.75801 
    1100    294.72363            0    3180.9448    6328.6646    802.45213 
    1200    300.29844            0    3068.3561    6275.6163    783.47565 
    1300    302.51626            0    3147.6753    6378.6223    720.68924 
    1400    294.82235            0    3285.0075    6433.7817    776.14169 
    1500    305.52701            0    3499.2062    6762.3087    894.39849 
    1600    288.85803            0    3324.6615    6409.7352    850.97911 
    1700    301.71347            0    3116.3657    6338.7387    822.90006 
    1800    296.72241            0    3197.4092    6366.4765    887.84623 
    1900    306.06675            0     3223.545    6492.4121    839.75434 
    2000    301.14146            0    3265.4429    6481.7067    892.22139 
    2100    296.42963            0    3239.6426    6405.5829    916.67712 
    2200    299.91772            0    3122.8561      6326.05    819.42396 
    2300    299.25601            0    3220.8085    6416.9352    875.59939 
    2400    300.86028            0    3262.3754    6475.6361    831.23534 
    2500    298.29421            0    3262.6323    6448.4867    770.36484 
    2600    295.44008            0    3297.1443    6452.5159     797.2527 
    2700    307.17019            0    3263.4625    6544.1146    832.67748 
    2800    297.17716            0    3290.8905    6464.8146    910.91158 
    2900    303.57212            0    3133.2048    6375.4286    895.01568 
    3000    298.18184            0    3191.8744    6376.5288    949.39283 
    3100    302.63673            0    3275.8074    6508.0411    994.70889 
    3200    302.09108            0     3267.563    6493.9689    945.61842 
    3300    293.96476            0    3244.6322    6384.2471    964.12683 
    3400    300.38399            0    3190.4401     6398.614    922.75338 
    3500    303.27363            0    3300.7886    6539.8245    938.48597 
    3600    301.39969            0    3293.1485    6512.1702    902.66956 
    3700    301.05717            0    3248.8564      6464.22    982.17815 
    3800    300.65445            0    3192.7857    6403.8482    1009.8734 
    3900     287.8754            0    3209.0907    6283.6698    961.17499 
    4000    301.39275            0    3242.3171    6461.2647    996.45209 
    4100    300.88125            0    3255.8266    6469.3113    996.74679 
    4200    299.39616            0    3222.8742    6420.4977    969.91425 
    4300    305.70718            0    3258.0132    6523.0399    975.48281 
    4400    308.43951            0    3269.7784    6563.9871    1007.4679 
    4500    297.68419            0    3176.8376     6356.177    905.69504 
    4600    301.47645            0    3238.3013    6458.1429    930.66748 
    4700    301.08265            0    3305.9931    6521.6289    974.48942 
    4800    297.31768            0     3353.495    6528.9198     979.6018 
    4900    300.15094            0    3236.4635    6442.1482    946.27011 
    5000    298.76454            0    3184.9825    6375.8602    997.14559 
    5100    294.35668            0    3206.2787    6350.0794    1067.4928 
    5200    299.43356            0    3199.9477    6397.9707    1054.9633 
    5300    305.83468            0     3232.934    6499.3225    1055.5528 
    5400    294.77335            0    3347.9808    6496.2316    1042.4598 
    5500    304.68823            0    3262.1094    6516.2535    997.79262 
    5600    294.60995            0    3228.5611    6375.0667    1010.9024 
    5700      301.905            0    3172.8383    6397.2569    1032.1742 
    5800    304.39352            0    3189.0975    6440.0942    988.70151 
    5900    295.60585            0    3310.9563    6468.0985    1021.1878 
    6000    297.69215            0    3237.8401    6417.2644    1010.1184 
    6100    304.32518            0     3189.022    6439.2887    963.82762 
    6200    298.37239            0    3296.3489    6483.0384    976.15696 
    6300    300.69625            0    3183.5877    6395.0965    979.94652 
    6400    300.63092            0    3213.7053    6424.5164    974.86609 
    6500    294.08244            0    3301.8298    6442.7015    961.34722 
    6600    300.87319            0    3234.0218    6447.4204    990.96139 
    6700    298.20104            0     3281.766    6466.6254    999.52934 
    6800    300.10479            0    3224.3739    6429.5659    943.14509 
    6900    295.32377            0    3268.3541    6422.4835    1003.6638 
    7000     299.1996            0    3210.2181    6405.7424    1010.4544 
    7100    312.75972            0    3193.4407    6533.7904    1005.8177 
    7200    301.09051            0    3282.5958    6498.3155    1018.0417 
    7300    301.14954            0    3220.3964    6436.7465    971.59386 
    7400    293.55092            0    3294.2236    6429.4186    1029.3464 
    7500    301.88901            0    3243.3784    6467.6262     1062.933 
    7600    298.28801            0    3172.7945    6358.5827    1061.3473 
    7700    295.00044            0    3235.8236    6386.4998    1068.0597 
    7800    299.77481            0    3262.9449    6464.6126    1012.9116 
    7900     309.5264            0    3280.9008    6586.7178    1063.1265 
    8000    290.94677            0    3228.7026    6336.0846    1053.3482 
    8100    305.46716            0    3202.8364    6465.2998    1015.7368 
    8200    295.92739            0    3301.1097     6461.686    1108.1463 
    8300    302.55887            0    3262.6776    6494.0797    1096.2464 
    8400    299.51033            0    3227.0219    6425.8649    1007.1694 
    8500    301.44873            0    3239.1058    6458.6513    1011.8088 
    8600    303.17923            0    3244.8746    6482.9022    1005.3667 
    8700    304.26371            0      3234.22    6483.8302    983.26845 
    8800    294.35433            0    3297.4399    6441.2154    1000.6133 
    8900    304.30095            0    3217.1168    6467.1246    1020.1304 
    9000    296.62949            0    3201.3927    6369.4676    1054.3129 
    9100    294.42983            0    3241.4035    6385.9855    1050.1682 
    9200    300.68574            0    3214.1919    6425.5885    1019.0581 
    9300    297.86111            0    3261.5719    6442.8008    1032.4498 
    9400    298.06062            0    3314.5039    6497.8636    1026.6324 
    9500    303.27356            0    3218.5784    6457.6134    1001.0001 
    9600    294.19602            0    3208.8286    6350.9134    1041.0414 
    9700    296.84248            0    3212.6647    6383.0144    1019.9445 
    9800    302.56076            0     3243.333    6474.7553    994.60079 
    9900    304.33403            0    3280.8817    6531.2429     1034.048 
   10000    305.94921            0    3215.4929    6483.1047    1047.0982 
   10100    296.36925            0     3196.987    6362.2825    1005.7107 
   10200    298.51455            0    3175.1785    6363.3862    1013.8696 
   10300    301.33613            0    3298.9812    6517.3241    1090.2718 
   10400    294.76313            0    3283.3327    6431.4744    1024.6054 
   10500    305.03604            0    3209.3556    6467.2144    1033.0428 
   10600    300.55879            0     3330.879    6540.9197     1085.519 
   10700    300.24919            0     3243.923    6450.6572    1027.3377 
   10800    296.83392            0    3221.2859    6391.5442      1012.53 
   10900    307.29579            0    3309.8717    6591.8652    1075.9376 
   11000    301.02269            0    3240.0461    6455.0413    1022.8807 
   11100    292.14757            0     3158.744    6278.9509    990.04715 
   11200    301.12466            0    3269.7138    6485.7982    1070.0549 
   11300    297.00435            0    3171.6968    6343.7753     1024.352 
   11400    307.23178            0    3273.3804    6554.6902    1056.6572 
   11500    297.94229            0    3263.9441    6446.0399    1046.1553 
   11600    301.06459            0    3240.5624    6456.0052    1042.0915 
   11700    298.22031            0    3302.9141    6487.9793    1032.1328 
   11800    308.84221            0    3255.7919    6554.3016    1052.2305 
   11900    298.16698            0    3124.6284     6309.124     1021.448 
   12000    294.88101            0    3218.0589    6367.4596    1038.8004 
   12100    301.70938            0    3267.0597     6489.389    1010.5669 
   12200    296.53981            0    3223.5372    6390.6542    975.06043 
   12300    294.04104            0    3303.0013    6443.4308    1015.5655 
   12400    297.06578            0    3230.8311    6403.5656    993.29519 
   12500    296.91615            0    3217.1145     6388.251    988.82362 
   12600    305.44458            0    3265.2971    6527.5192    999.23628 
   12700    297.37152            0    3271.4304    6447.4304     1000.921 
   12800    299.50301            0    3198.9745    6397.7393    1022.3331 
   12900    301.93961            0     3308.899    6533.6872    1066.1284 
   13000    291.59334            0    3185.3253    6299.6128    973.56859 
   13100    303.74526            0     3221.226    6465.2991    1022.4624 
   13200    296.24402            0    3223.4217    6387.3796    1026.5454 
   13300    303.21582            0    3282.6127    6521.0312    1054.7841 
   13400    294.77986            0    3232.8631    6381.1835     1073.199 
   13500    298.80562            0     3197.629    6388.9454    1072.6041 
   13600    303.69239            0    3236.5633    6480.0716    1043.0923 
   13700     301.0877            0    3319.0182    6534.7079    1105.2282 
   13800    296.83196            0      3279.25    6449.4873    1072.7106 
   13900    299.26273            0    3201.4732    6397.6717    1032.7561 
   14000     300.4477            0    3225.7356    6434.5898    1053.4518 
   14100    299.87147            0    3188.2388    6390.9388    1025.4266 
   14200    299.61968            0     3317.419    6517.4298    1108.0005 
   14300    295.51461            0    3233.2573     6389.425    1042.5126 
   14400    305.05212            0    3270.6324    6528.6631    1055.3258 
   14500    295.52227            0    3251.4967    6407.7462    996.86987 
   14600      302.813            0    3213.8508    6447.9671    978.84418 
   14700    297.77057            0    3285.7894    6466.0512    1041.8416 
   14800       307.61            0    3230.4942    6515.8436    1016.6851 
   14900       298.62            0    3276.3859    6465.7199     1027.507 
   15000    294.60439            0    3233.1369    6379.5832     1030.861 
   15100    308.80899            0    3316.5686    6614.7235    1096.1059 
   15200    294.33995            0    3162.8245    6306.4464    1036.8477 
   15300    301.47452            0    3166.6526    6386.4736    1027.5444 
   15400    301.40763            0    3368.1366    6587.2432    1050.2502 
   15500    296.44833            0    3243.6338    6409.7738    975.75461 
   15600    299.45199            0    3184.0987    6382.3185    1077.4922 
   15700    302.01117            0    3188.9788    6414.5312     1071.214 
   15800    295.78301            0     3289.533    6448.5673    1039.9028 
   15900    303.10542            0    3239.7747     6477.014    1002.8467 
   16000    299.83984            0    3247.8184    6450.1806    1019.5524 
   16100      300.916            0    3232.9092     6446.765    1007.8147 
   16200    300.56493            0    3198.5643    6408.6706    1049.3273 
   16300    297.76045            0    3201.1437    6381.2974    1065.0985 
   16400    302.40011            0    3296.7339    6526.4404      1024.94 
   16500    297.58339            0    3400.5975    6578.8603    1046.7197 
   16600    301.05733            0    3165.1311    6380.4964    1011.9972 
   16700     306.0202            0    3210.5051     6478.875    1038.2104 
   16800     302.8579            0    3299.7533    6534.3491     1016.449 
   16900    305.86409            0    3258.4799    6525.1825    1045.1808 
   17000    298.47795            0    3277.1127    6464.9296    1054.2659 
   17100    301.83177            0    3241.0334    6464.6699    1013.7646 
   17200    306.43914            0    3219.2434    6492.0877    1044.1915 
   17300    297.24546            0    3248.1402    6422.7937    1054.7204 
   17400     305.9831            0    3238.6161    6506.5898     1018.176 
   17500    297.99029            0    3296.3512    6478.9597    1019.1117 
   17600    308.62736            0    3262.5639    6558.7789    1022.3028 
   17700    299.64111            0    3232.9583     6433.198    1033.0111 
   17800    292.47069            0    3206.0606    6329.7184    1020.9215 
   17900     301.0765            0    3251.6934    6467.2634    1069.1339 
   18000    299.64276            0    3247.2046    6447.4619    1058.2082 
   18100    295.75054            0    3217.6036    6376.2911    980.24331 
   18200    295.19533            0    3306.2555    6459.0132    1052.0708 
   18300    301.65812            0    3296.3464    6518.1283    1006.5867 
   18400    303.92203            0    3261.5455    6507.5064    1020.2244 
   18500    303.84351            0    3183.8311    6428.9535    1002.6705 
   18600    296.24609            0    3279.0376    6443.0176    1079.3139 
   18700    303.18951            0     3258.099    6496.2364    1051.5077 
   18800    297.03373            0    3213.1042    6385.4964    1057.3341 
   18900    303.56931            0    3324.2697    6566.4635     1108.888 
   19000    300.89939            0    3300.8376    6514.5161    1066.7468 
   19100    298.47457            0    3168.2232     6356.004    1040.9519 
   19200    291.73301            0    3184.2209    6300.0002    1056.9493 
   19300    297.40914            0      3238.98    6415.3817    1055.1236 
   19400    304.98371            0    3283.2274    6540.5273    1102.5191 
   19500    298.17705            0    3253.1561    6437.7593    1078.0373 
   19600     305.2233            0    3198.7975    6458.6564    1025.0954 
   19700    297.93194            0    3271.5126    6453.4979    1057.1498 
   19800    301.77499            0    3217.7217    6440.7517    1018.3754 
   19900    292.60909            0    3241.5156    6366.6516    1028.0046 
   20000    306.15803            0    3239.4104    6509.2523    1046.7307 
   20100    295.57266            0    3166.4474     6323.235    1036.8832 
   20200    298.91531            0     3236.722    6429.2099    1043.9127 
   20300    304.48181            0    3309.0843    6561.0238    1101.7457 
   20400    309.99759            0    3213.8357    6524.6851    1031.2011 
   20500    299.96486            0    3223.5603    6427.2577    1010.4164 
   20600    298.40661            0    3307.4694    6494.5243    1032.3652 
   20700    303.34309            0    3142.2937    6382.0714    961.79926 
   20800    300.74036            0    3240.1776    6452.1576     1010.143 
   20900    298.60999            0    3227.2112    6416.4383    998.59206 
   21000    306.28323            0    3230.2958    6501.4749    1062.9129 
   21100    294.25396            0    3288.7805    6431.4841    1073.7846 
   21200    300.83448            0    3283.6421    6496.6272    1118.2659 
   21300     293.1202            0    3220.2434    6350.8382    1079.3569 
   21400    300.66016            0    3249.5435    6460.6669    1089.0008 
   21500    302.17344            0    3228.0404     6455.326    1096.6239 
   21600    299.40982            0    3284.7732    6482.5427    1057.6778 
   21700    302.73617            0    3240.4322    6473.7279    1059.1305 
   21800    300.84987            0    3258.5142    6471.6637    1115.5346 
   21900    301.27309            0    3187.0916    6404.7612    1076.0046 
   22000    294.03228            0     3217.197    6357.5331    1058.3456 
   22100      300.234            0    3256.8513    6463.4231    1050.3452 
   22200    298.99901            0    3223.5041    6416.8859    1007.9943 
   22300    304.22258            0    3298.8787    6548.0497    1104.4878 
   22400    295.56903            0    3216.9455    6373.6944    1082.4809 
   22500    295.04306            0    3213.4863    6364.6177    1072.9143 
   22600    302.30964            0    3280.7812    6509.5215    1054.2741 
   22700     296.5664            0    3269.9191    6437.3201    1023.0033 
   22800    298.85807            0    3241.0259    6432.9026    1021.9628 
   22900    296.59168            0    3275.1735    6442.8446     1028.381 
   23000      303.697            0    3225.6133    6469.1709    1040.7222 
   23100    302.00279            0    3267.1302    6492.5932    1002.6493 
   23200     289.1572            0    3261.1236    6349.3925    964.49262 
   23300    304.09855            0    3247.5042    6495.3504    1059.8314 
   23400    298.46522            0    3248.3093    6435.9903    1086.6494 
   23500    300.11111            0    3196.7338    6401.9932    1010.1933 
   23600    297.02087            0     3212.111    6384.3658    1074.4186 
   23700    302.61497            0    3227.2694    6459.2707    1071.3446 
   23800    296.80475            0    3267.2897    6437.2364    991.70563 
   23900    298.85551            0    3296.0489    6487.8982    985.28919 
   24000    301.37544            0    3299.0247    6517.7875    1094.6418 
   24100    296.98063            0    3137.4546    6309.2797    991.63239 
   24200    302.08536            0    3188.6929    6415.0378    1014.9547 
   24300    302.19198            0    3253.3515    6480.8351    1018.6608 
   24400    299.46484            0    3281.0428    6479.3998    1010.3977 
   24500    304.86297            0    3286.7299    6542.7402    975.67352 
   24600    309.45128            0    3224.1192    6529.1339    1031.5485 
   24700    300.75435            0    3246.6247     6458.754    1023.8447 
   24800    299.83199            0    3232.7019    6434.9803    998.45878 
   24900    303.08921            0    3199.0713    6436.1376    1019.3441 
   25000     297.4706            0    3274.3529     6451.411    1028.3911 
   25100    291.99607            0    3154.8185    6273.4073    927.03167 
   25200    298.18135            0     3278.778     6463.427    1023.3903 
   25300    302.03933            0    3237.7125    6463.5658    1039.9644 
   25400    303.74494            0    3258.7166    6502.7862    1093.5573 
   25500    310.23193            0    3199.0513    6512.4035     1019.602 
   25600    303.33073            0    3268.7886    6508.4344    1070.4057 
   25700      294.471            0     3239.142    6384.1637    1063.7948 
   25800    292.73273            0    3232.7218    6359.1783     1044.508 
   25900    301.57581            0    3208.2869    6429.1897    1030.1155 
   26000    298.21129            0    3250.1563    6435.1252    1055.4502 
   26100    304.67049            0    3288.0104    6541.9651     1024.779 
   26200    302.37761            0    3228.2367    6457.7029    1035.3577 
   26300     295.1681            0    3218.0816    6370.5485    1030.6881 
   26400    303.46196            0    3198.8379    6439.8852      1035.03 
   26500     298.2402            0    3229.7162    6414.9938    1071.4587 
   26600    293.79715            0    3218.3265    6356.1513    1047.9673 
   26700    305.50724            0    3277.4939    6540.3852    1050.8231 
   26800    300.65012            0    3263.7502    6474.7664    1023.8272 
   26900    295.26537            0    3241.0701    6394.5759    1053.0502 
   27000    299.82422            0    3272.7937    6474.9891    1015.2615 
   27100    297.91753            0    3206.0328    6387.8642    1011.3068 
   27200    302.53741            0    3182.5665    6413.7394    1035.2326 
   27300    295.75708            0     3332.834    6491.5913    1039.0747 
   27400    298.95557            0     3303.388     6496.306     977.1324 
   27500    302.96595            0    3210.2145    6445.9642    1014.5543 
   27600    294.32346            0    3215.7766    6359.2225    1042.3566 
   27700    293.44896            0    3291.1139    6425.2199    1026.0501 
   27800    308.29696            0    3301.0693    6593.7555    1039.4923 
   27900    297.40506            0     3266.406    6442.7642    990.31045 
   28000    300.12148            0    3271.4399      6476.81    1055.4485 
   28100    299.33069            0     3164.657    6361.5813    1019.1769 
   28200    309.29008            0    3255.2385    6558.5315    1002.3148 
   28300    307.07257            0    3270.8369    6550.4464    1017.7914 
   28400    297.51671            0    3225.6573    6403.2079    1013.3598 
   28500    299.08914            0    3218.4792    6412.8237    1026.7338 
   28600    304.18874            0    3250.7307    6499.5402     1031.779 
   28700    301.07462            0    3216.1663    6431.7162    1005.5175 
   28800    300.69205            0    3170.1388    6381.6027    987.72428 
   28900    304.32759            0    3289.1741    6539.4665    993.72175 
   29000     302.2451            0    3327.4618    6555.5127    1034.6731 
   29100    292.12217            0    3187.6572    6307.5928    976.03868 
   29200    292.13822            0    3154.0103    6274.1173    996.88297 
   29300    303.12042            0    3300.5656    6537.9651    1018.5539 
   29400    296.53639            0    3273.9367    6441.0172    1019.9829 
   29500    295.43807            0    3200.7674    6356.1176    1024.2444 
   29600    299.83158            0    3224.9496    6427.2236    1032.2557 
   29700    313.50712            0    3210.5724    6558.9045    995.26378 
   29800    296.10254            0    3324.0875    6486.5345    1035.5597 
   29900     300.5358            0    3249.8836    6459.6788     995.8841 
   30000    302.87158            0    3251.8639    6486.6058    1002.8878 
   30100    296.28499            0    3238.8604    6403.2558    989.82561 
   30200    303.08052            0    3300.7719    6537.7453    1038.8706 
   30300    300.50989            0    3169.6821    6379.2005    992.12935 
   30400    305.66053            0      3268.85    6533.3786    1021.2896 
   30500    297.39836            0    3246.3799    6422.6664    1020.2521 
   30600    300.77138            0    3187.2033    6399.5145    1036.4452 
   30700    303.82572            0     3221.215    6466.1474    1067.0748 
   30800    296.59266            0    3243.6735     6411.355      1050.23 
   30900    299.55134            0    3216.1242    6415.4052    1021.2865 
   31000    292.93113            0    3268.0602    6396.6356    1063.1102 
   31100    298.76948            0     3290.631    6481.5614    1051.9178 
   31200    296.91658            0    3242.6627    6413.8038    1021.1143 
   31300    300.69056            0    3255.9874    6467.4355    1023.9748 
   31400    301.64162            0    3225.7844    6447.3901    1025.3726 
   31500    309.69819            0    3254.8472    6562.4989    1070.2646 
   31600    296.94296            0     3259.072    6430.4948    1061.3141 
   31700    301.83762            0    3281.0762    6504.7751    1070.7731 
   31800    299.61366            0    3188.8687    6388.8152     1029.865 
   31900    293.25962            0    3187.9559    6320.0398    947.05191 
   32000    304.10993            0    3317.3341    6565.3019    1046.9099 
   32100    298.39989            0    3309.0237    6496.0068    1050.0624 
   32200    301.92649            0    3185.8179     6410.466    1022.9356 
   32300    301.01322            0    3199.5298     6414.424    1048.1503 
   32400    301.02673            0    3268.3443    6483.3828    1028.4103 
   32500    298.99723            0    3256.0941     6449.457    1018.1898 
   32600    302.10498            0    3240.1269    6466.6813    1061.5375 
   32700    298.47489            0    3256.5932    6444.3774    1063.8815 
   32800    298.98498            0    3212.4562    6405.6883    1037.2039 
   32900    301.00787            0    3245.4759    6460.3129    1066.9079 
   33000    305.52384            0    3247.3773    6510.4459    1074.4966 
   33100     295.5493            0    3213.6076    6370.1457    1065.8556 
   33200    306.48465            0    3253.1932    6526.5236    1051.2381 
   33300    295.85883            0    3314.2664    6474.1105    1059.1599 
   33400    306.91019            0    3251.8352    6529.7104    1052.9087 
   33500    299.95645            0     3260.412    6464.0196    1087.7267 
   33600    308.97542            0    3214.3901    6514.3225    1073.0491 
   33700    301.35631            0    3213.6176    6432.1761    1091.7076 
   33800    295.49751            0    3263.6631    6419.6482    1077.4927 
   33900     302.5039            0    3315.5638    6546.3787    1084.6581 
   34000    294.08836            0    3197.7663    6338.7013     1058.082 
   34100    306.59073            0    3214.6076    6489.0709    1040.0339 
   34200    301.74282            0    3171.7354    6394.4219    1028.9494 
   34300    296.66833            0    3325.5462    6494.0359    1120.0296 
   34400    306.23295            0    3243.3246    6513.9668     1062.069 
   34500    297.27651            0    3255.3703    6430.3555     1074.152 
   34600    308.01569            0    3255.4308     6545.113    1114.2572 
   34700    296.36998            0    3230.4758     6395.779    1062.6039 
   34800    303.27754            0    3205.3253    6444.4029    1071.9763 
   34900    301.32821            0    3178.4968    6396.7551     1069.383 
   35000    300.15927            0    3307.7918    6513.5656    1091.2818 
   35100    296.27594            0    3238.2162    6402.5151    1051.3734 
   35200    295.59686            0    3224.9388    6381.9849    1092.1023 
   35300    302.48594            0    3247.7961    6478.4192    1064.7266 
   35400    301.65422            0    3252.8614    6474.6015    1088.4108 
   35500    298.95623            0    3257.1883    6450.1133    1122.3057 
   35600    300.72846            0    3278.2056    6490.0585    1083.1267 
   35700    300.55545            0    3253.7957    6463.8007    1068.2319 
   35800    297.99419            0    3191.2416    6373.8917    1018.5828 
   35900    298.96682            0    3297.2773    6490.3154    1076.1207 
   36000    309.18678            0    3230.2003      6532.39    1084.0855 
   36100    297.85737            0     3184.894     6366.083    1054.4287 
   36200    298.50724            0    3254.4786    6442.6083    1072.4031 
   36300     300.3145            0    3247.0507    6454.4824    1042.2922 
   36400    297.99817            0    3338.3071    6520.9998    1091.2688 
   36500    304.00293            0     3220.894     6467.719    1058.3744 
   36600    292.93031            0    3290.2756    6418.8424    1132.1378 
   36700    300.89047            0    3220.2433    6433.8265    1079.4836 
   36800    304.63907            0    3289.7892    6543.4084    1062.9025 
   36900    295.09987            0    3232.0397    6383.7779    1053.2583 
   37000    303.15583            0    3261.4108    6499.1886    1118.1331 
   37100    298.93077            0    3237.8176    6430.4707    1059.7846 
   37200    295.01032            0    3281.2626    6432.0443    1088.0609 
   37300    303.38031            0    3235.9624    6476.1377    1101.5893 
   37400    293.84344            0      3224.39    6362.7093    1076.5051 
   37500    297.00595            0    3223.4882    6395.5838    1067.9121 
   37600    302.52202            0    3235.2566    6466.2652    1055.4544 
   37700    301.73268            0    3315.2272    6537.8053    1132.3526 
   37800    295.40178            0    3201.5532    6356.5158    1033.7622 
   37900    305.06674            0     3278.981    6537.1677    1121.6947 
   38000    296.89196            0     3343.984    6514.8621    1102.3565 
   38100    304.57248            0    3184.3084    6437.2163    1026.8361 
   38200    301.24176            0    3143.8413    6361.1763    1033.2792 
   38300    297.20236            0    3264.7684    6438.9616    1078.7973 
   38400    294.52063            0    3306.3264    6451.8781    1061.3083 
   38500    304.05531            0    3200.0565    6447.4409    1030.3698 
   38600    305.77504            0    3256.5958    6522.3474    1081.8714 
   38700    295.18408            0    3256.0368    6408.6743    1023.8379 
   38800    298.75921            0      3340.73    6531.5508    1069.7453 
   38900    309.35624            0    3232.6879    6536.6876    1047.3038 
   39000    296.53827            0      3264.85    6431.9506    1040.7866 
   39100    302.57018            0    3257.3573    6488.8801    1065.4715 
   39200     292.9083            0    3214.3693    6342.7009    1018.3484 
   39300    301.67473            0    3229.1841    6451.1434    1033.7218 
   39400    296.96403            0    3224.1031     6395.751    1024.0087 
   39500    294.53755            0    3296.1624    6441.8948    1034.8603 
   39600    303.52337            0     3185.513    6427.2162    1019.7274 
   39700    293.96021            0    3202.6775    6342.2438     1022.194 
   39800    302.93512            0    3255.0896    6490.5101    1068.6321 
   39900    299.89339            0    3242.0127    6444.9468    1071.2585 
   40000    305.64214            0    3154.6307    6418.9628    1059.8786 
   40100    298.09867            0    3196.5317    6380.2978    1077.3511 
   40200    291.76293            0     3320.543    6436.6419    1068.9005 
   40300    305.94583            0    3248.8884     6516.464    1026.8159 
   40400    298.94714            0    3233.4489    6426.2769    1057.3177 
   40500    297.32996            0    3290.8268    6466.3828    1082.2914 
   40600    302.26715            0    3232.1342    6460.4207    1049.5098 
   40700     300.1761            0    3269.3623    6475.3158    1056.1713 
   40800    292.87835            0     3243.399    6371.4107    1012.7988 
   40900    301.18279            0    3242.6046    6459.3098    1034.9761 
   41000    300.96093            0    3194.2267    6408.5624    1044.4477 
   41100    290.83705            0    3294.2399      6400.45    1121.1361 
   41200    301.00447            0    3212.1872    6426.9879    1052.6498 
   41300    297.93885            0    3196.6135    6378.6727    1049.6233 
   41400    300.25639            0    3187.3756    6394.1866    1069.0565 
   41500     306.3601            0    3284.0965    6556.0966    1077.7233 
   41600    300.67073            0    3266.6371    6477.8733    1061.1828 
   41700    301.94799            0    3205.0562    6429.9339     1030.273 
   41800    298.58973            0    3238.2276    6427.2383    985.52248 
   41900    302.77334            0    3275.0037    6508.6963    1050.9206 
   42000    301.43288            0    3205.7452    6425.1214    1047.5744 
   42100    297.01334            0    3273.7407    6445.9152    1062.6985 
   42200    303.43679            0    3223.6783    6464.4568    1011.3228 
   42300     311.7928            0    3241.5184    6571.5411    1068.5707 
   42400    296.88197            0    3267.4042    6438.1756    1087.8139 
   42500    299.38796            0    3245.1937    6442.7297     1063.883 
   42600    296.94576            0    3236.9248    6408.3775    1065.2668 
   42700    303.30651            0    3274.0233    6513.4104    1053.9709 
   42800     294.6771            0    3259.2683    6406.4911    1058.0294 
   42900    300.31717            0    3218.2827    6425.7428    1009.0621 
   43000    301.00865            0    3249.3213    6464.1667    1029.3716 
   43100    299.60858            0    3305.2132    6505.1055    1045.5644 
   43200    302.58113            0    3235.9289    6467.5687    1007.0869 
   43300    297.75195            0    3222.1099    6402.1729     986.6741 
   43400    296.32609            0    3240.9018    6405.7363    1050.7265 
   43500    298.73527            0    3165.3964    6355.9616    1043.5839 
   43600    301.19287            0    3204.8836    6421.6965    1044.6935 
   43700    297.12781            0    3300.0824    6473.4795    1082.9199 
   43800    298.44684            0    3212.0455    6399.5301    1053.6315 
   43900    298.55316            0    3202.0892    6390.7093     1015.571 
   44000    300.73167            0    3235.0731    6446.9603    1041.2546 
   44100    299.03127            0    3276.1125    6469.8389      1094.79 
   44200    299.69957            0    3203.3164    6404.1805    1037.8483 
   44300    299.38891            0    3352.0751    6549.6213    1084.5127 
   44400    308.02912            0    3288.4664     6578.292    1070.4254 
   44500    296.51205            0    3161.5576    6328.3782    1025.5543 
   44600    307.94374            0    3241.0013     6529.915    1098.6779 
   44700    302.18637            0    3231.6061    6459.0298    1060.1792 
   44800    298.01696            0    3300.5904    6483.4837    1086.3715 
   44900    302.86756            0    3275.5834    6510.2823    1021.5359 
   45000    298.45617            0    3213.2433    6400.8276    972.91594 
   45100    302.03748            0    3273.5181    6499.3517    1048.1401 
   45200    300.79278            0     3253.178    6465.7178     1057.259 
   45300    294.10527            0    3261.6542    6402.7697    992.26606 
   45400    308.10496            0    3317.4841    6608.1198    1078.9982 
   45500    298.12027            0    3217.9301    6401.9269    1042.1413 
   45600    298.87323            0     3246.837    6438.8755    1049.8153 
   45700    302.18865            0     3284.679     6512.127     1013.929 
   45800    305.51935            0    3280.3093      6543.33    1050.5932 
   45900    289.82768            0    3228.3091     6323.739     1050.324 
   46000    304.89853            0    3328.0907    6584.4808    1062.4179 
   46100    297.04549            0    3214.5798    6387.0977    1038.3771 
   46200    302.43229            0    3175.8756    6405.9258    1040.2997 
   46300    298.55221            0    3272.0216    6460.6316    1020.9293 
   46400    299.39558            0    3345.0059    6542.6233    1078.6341 
   46500    304.36247            0     3237.487    6488.1519    1061.0416 
   46600    295.17454            0    3174.6974    6327.2331    982.36322 
   46700    298.98885            0    3247.0112    6440.2846    1047.1697 
   46800     305.1885            0    3226.9322    6486.4194    1047.7762 
   46900    298.79039            0    3260.6729    6451.8266    976.74377 
   47000    295.85072            0     3266.327    6426.0845    993.77646 
   47100    299.89101            0     3218.726    6421.6347    1028.5853 
   47200    296.40846            0    3231.1515    6396.8657    999.78904 
   47300    294.66017            0    3202.6997    6349.7417    996.10599 
   47400    305.44277            0    3277.0901     6539.293    1097.0133 
   47500    297.72292            0    3223.2411    6402.9941    1045.8354 
   47600    300.93109            0    3293.7292    6507.7462     1048.752 
   47700    300.59583            0    3211.0719    6421.5083    1051.9032 
   47800     310.0657            0     3208.647    6520.2238    1071.7651 
   47900    298.06188            0    3226.5368      6409.91    1028.0345 
   48000    301.91048            0    3248.3783    6472.8554    1069.5797 
   48100    302.94603            0    3301.5851    6537.1221    1073.1891 
   48200     302.1628            0     3263.384     6490.556     1057.023 
   48300    304.52054            0    3229.5079    6481.8611    1069.0933 
   48400    297.70397            0    3195.6009    6375.1514    1057.9699 
   48500    303.02028            0     3183.555    6419.8851    1034.6501 
   48600    299.10145            0    3209.4673    6403.9434     1039.246 
   48700    307.53529            0    3327.6652    6612.2167    1085.1694 
   48800    295.71001            0    3235.9072    6394.1618    1000.2308 
   48900    303.10629            0    3271.8839    6509.1325    1055.3449 
   49000    298.25736            0    3267.7047    6453.1656    1045.7437 
   49100    307.82536            0    3208.4501    6496.0996     993.9324 
   49200    306.59436            0    3227.4665    6501.9686    1021.0064 
   49300    304.81937            0    3300.5031    6556.0478    1013.4972 
   49400    292.90631            0    3334.8918    6463.2022    986.83607 
   49500    300.82301            0    3219.2749    6432.1376    1015.2842 
   49600    292.09689            0    3241.6629    6361.3284     1039.523 
   49700    296.93742            0    3200.9546    6372.3182    1038.6008 
   49800    306.80638            0    3176.8604    6453.6269    1024.7111 
   49900     299.1702            0    3224.9387    6420.1489    1043.0069 
   50000    302.54618            0    3285.6754    6516.9419     1054.759 
   50100    303.42767            0    3233.2042    6473.8853    1036.0099 
   50200    295.25147            0    3172.8254    6326.1827    1002.1436 
   50300    296.18138            0    3216.0645    6379.3534    1030.4645 
   50400    296.60792            0    3214.7067    6382.5511    1026.1659 
   50500     303.9233            0    3287.2136    6533.1881    1052.0386 
   50600    298.68473            0    3352.9697     6542.995    1079.4843 
   50700    296.44313            0    3190.8162    6356.9007    1029.0593 
   50800    300.51074            0    3152.3564    6361.8839    995.48406 
   50900    298.65245            0    3281.9769    6471.6575    1047.4271 
   51000    293.48002            0    3254.6233    6389.0611    1009.5955 
   51100    296.28824            0    3290.7425    6455.1728    1064.0563 
   51200    295.83204            0    3255.2736    6414.8315    1055.6685 
   51300    297.24398            0    3218.0778    6392.7156    1058.0387 
   51400    296.67609            0    3277.6458    6446.2184    1107.8563 
   51500    301.25187            0    3206.2126    6423.6556    1025.2017 
   51600    297.93742            0     3204.999    6387.0428    1022.2636 
   51700    300.88545            0    3319.3344    6532.8639    1079.0864 
   51800    299.56218            0    3136.2808    6335.6775    981.61457 
   51900    296.12948            0    3211.1507    6373.8853    1002.6247 
   52000      299.798            0    3230.6433    6432.5586    1044.6184 
   52100    301.30805            0    3277.4905    6495.5335    1067.1731 
   52200    302.57635            0    3251.7798    6483.3686    1064.5804 
   52300    305.38427            0    3235.3425    6496.9205    1057.5411 
   52400     296.8264            0    3271.7299    6441.9078    1061.4558 
   52500    298.06307            0    3169.4648    6352.8506    989.06918 
   52600    306.20014            0    3226.5992     6496.891    1059.5028 
   52700    306.37665            0     3260.357    6532.5339    1063.7167 
   52800    296.59778            0    3280.1909    6447.9271    1003.0272 
   52900    307.12817            0    3191.1131    6471.3164    1019.6083 
   53000     299.7872            0    3210.3357    6412.1357    998.62156 
   53100    296.52275            0    3302.5623    6469.4971    1030.8072 
   53200    307.27027            0    3283.4407    6565.1616    1048.0131 
   53300      290.396            0    3202.4883    6303.9881    1036.7816 
   53400    303.64503            0    3226.9576    6469.9601    1059.0066 
   53500    297.39781            0    3233.9705    6410.2512    1010.6303 
   53600    295.91402            0    3243.0537    6403.4871    1030.0678 
   53700    305.29466            0    3244.4468    6505.0678    1050.0404 
   53800    299.75282            0    3248.0372    6449.4699    1042.5645 
   53900    300.66852            0    3255.2112    6466.4239    1023.8944 
   54000    299.47857            0     3246.153    6444.6567    1036.3283 
   54100    298.89545            0    3107.5498    6299.8257    1004.8796 
   54200    299.24074            0    3275.0654    6471.0291    1062.5774 
   54300    299.82711            0      3290.69    6492.9162    1043.6434 
   54400    300.14066            0    3277.2147    6482.7896    1079.8309 
   54500    305.03709            0    3158.8517    6416.7218    1027.8744 
   54600    297.66327            0    3199.0042      6378.12     985.3558 
   54700    295.86203            0    3226.6646    6386.5428     1033.524 
   54800    300.97744            0    3287.9578    6502.4698    1058.0563 
   54900    296.62263            0    3232.4338    6400.4354    1029.8873 
   55000    296.42414            0    3178.5818    6344.4635    1046.4032 
   55100    308.31061            0    3242.4713    6535.3033    1061.3491 
   55200    296.56439            0    3308.7334     6476.113    1037.3194 
   55300    300.74039            0    3332.2994    6544.2797    1066.8134 
   55400    304.85527            0    3174.4275    6430.3557    1035.4152 
   55500     297.1202            0    3241.5244    6414.8402     1042.624 
   55600    301.90721            0     3210.272    6434.7141    1059.8023 
   55700    293.44155            0     3233.742    6367.7688    1084.5622 
   55800    299.92708            0    3274.2773    6477.5712    1038.5261 
   55900    302.69974            0    3259.4925    6492.3991    1016.5152 
   56000    299.08542            0    3208.4541    6402.7588    1059.2972 
   56100    294.18147            0    3259.8066     6401.736    1049.0676 
   56200    304.15385            0     3238.781    6487.2179    1002.9428 
   56300    298.99774            0    3287.5431    6480.9114     1021.493 
   56400    295.34998            0    3225.5472    6379.9566    993.91529 
   56500    305.48045            0    3253.0966    6515.7018    1024.4298 
   56600    297.19068            0    3212.1984    6386.2669    1038.7409 
   56700    299.73681            0    3196.8348    6398.0965    1045.8377 
   56800    295.36774            0      3305.75     6460.349    1018.4121 
   56900    292.56322            0    3278.0272    6402.6733     990.3682 
   57000    300.90005            0    3252.3613    6466.0468    1059.9639 
   57100    296.93034            0    3151.6034    6322.8914     1028.291 
   57200    294.90134            0     3263.025    6412.6428    1045.7612 
   57300    300.97213            0    3268.5538    6483.0091     1034.946 
   57400    300.35571            0    3278.7825    6486.6544    1015.8354 
   57500    305.94422            0     3270.806    6538.3644    1108.1677 
   57600    297.94633            0    3292.7082    6474.8471    1089.5903 
   57700    303.12403            0    3210.3207    6447.7588    1082.5368 
   57800    296.43722            0    3208.0891    6374.1105    1040.6362 
   57900    304.44022            0    3277.0769    6528.5722    1065.8974 
   58000    300.20593            0    3179.7275    6385.9996     1037.373 
   58100    307.24517            0    3218.0293    6499.4822    1034.0611 
   58200    298.64895            0    3297.1882    6486.8313    1079.2504 
   58300    298.20492            0     3203.331    6388.2318    1045.0427 
   58400    290.85322            0    3258.2759    6364.6588    1039.8743 
   58500    304.86458            0     3226.389    6482.4166    1040.3858 
   58600    293.69454            0    3288.1792    6424.9081    1072.8186 
   58700    303.97139            0    3255.9756    6502.4638    1056.8505 
   58800    298.54374            0    3194.2355     6382.755    990.58187 
   58900    291.59904            0    3252.9729    6367.3213    1022.6751 
   59000    295.93987            0    3287.6877    6448.3973    1043.2822 
   59100    294.22259            0    3237.2262    6379.5948    1030.3932 
   59200    304.82101            0    3183.7521    6439.3144    1058.0949 
   59300    298.30555            0    3232.4216    6418.3972    1054.0722 
   59400    302.01061            0    3274.6583    6500.2049    1043.9472 
   59500    299.06985            0    3258.4145     6452.553    1088.3927 
   59600    299.20182            0    3294.8772    6490.4252    1122.7442 
   59700    308.10754            0    3241.2293    6531.8926    1093.2733 
   59800    303.71987            0    3184.6196    6428.4214    1042.1755 
   59900    300.56027            0     3290.139    6500.1956    1123.8991 
   60000    299.92958            0    3223.9079    6427.2286    1029.9997 
   60100    305.79173            0    3169.0152     6434.945    1015.9759 
   60200    298.09855            0    3329.8029    6513.5677    1087.8296 
   60300    302.43942            0    3328.3204    6558.4468     1089.956 
   60400    301.12006            0    3178.3268     6394.362    1064.0441 
   60500    302.98482            0    3201.5862    6437.5375    1119.3588 
   60600     300.0715            0     3242.702    6447.5383    1101.0014 
   60700    292.50116            0    3242.6223    6366.6057    1076.0452 
   60800    298.52454            0    3239.1329    6427.4473    1064.6091 
   60900    299.11929            0    3249.5974     6444.264    1013.7692 
   61000    300.45122            0    3286.8873    6495.7792    1095.4157 
   61100    297.40911            0    3186.0635    6362.4649    1043.0962 
   61200     301.0661            0    3237.6307    6453.0896    1051.4857 
   61300    298.72861            0     3323.244    6513.7379    1054.2573 
   61400    297.16294            0    3213.7522    6387.5245    1027.5338 
   61500    302.33799            0    3238.9028    6467.9459    1015.9428 
   61600    298.61982            0    3248.4678    6437.7999    1019.7147 
   61700    305.51801            0    3253.8698    6516.8762    1064.0385 
   61800     293.2639            0    3273.1444    6405.2739     1042.033 
   61900    301.96419            0    3190.9073    6415.9581    1042.0277 
   62000    293.63738            0    3255.9405    6392.0589    1073.5015 
   62100    304.31261            0    3269.5482    6519.6806    1068.8264 
   62200    300.94137            0    3260.7013    6474.8282    1061.3583 
   62300    297.56222            0    3249.5822    6427.6189    1083.1086 
   62400    302.74409            0    3233.9741    6467.3544    1078.8999 
   62500    289.56913            0    3220.3459    6313.0144    958.82086 
   62600    308.56689            0    3294.8996    6590.4688    1033.9981 
   62700    309.20477            0    3356.4629    6658.8448    1080.9667 
   62800    297.79601            0    3209.5892    6390.1227     1038.888 
   62900    301.55348            0    3142.9317     6363.596    1029.9541 
   63000    300.75785            0    3224.9918    6437.1585    1051.6548 
   63100    294.34652            0    3317.0806    6460.7728    1017.0009 
   63200    299.49491            0    3239.1889    6437.8672    1034.1773 
   63300    292.85773            0    3211.8999    6339.6914    1043.4531 
   63400    299.55241            0    3162.7616     6362.054    1023.6597 
   63500    304.42827            0    3281.9305    6533.2982    1057.9369 
   63600    308.21487            0    3237.4087    6529.2183    1058.4048 
   63700     298.4383            0    3156.7781    6344.1715    999.23179 
   63800    301.22841            0    3172.5208    6389.7132    1028.3485 
   63900    300.26471            0    3272.6799    6479.5798     1084.241 
   64000    298.09859            0     3207.622    6391.3872    1050.6138 
   64100    305.75026            0    3271.3667    6536.8536    1082.9326 
   64200    302.98537            0     3214.427    6450.3841    1018.1344 
   64300    299.90102            0    3237.0869    6440.1025    1038.7686 
   64400    296.24158            0    3230.3794    6394.3112    1003.7027 
   64500     293.9645            0    3208.3442    6347.9563    1013.0402 
   64600    299.82184            0    3188.8141     6390.984    1021.8554 
   64700    301.31856            0    3270.9031    6489.0583    985.43513 
   64800    295.62233            0    3298.2367    6455.5549    1030.2269 
   64900    299.91894            0    3172.3119    6375.5189    996.02285 
   65000     300.0051            0    3243.5901    6447.7172    1042.0933 
   65100    306.64594            0    3253.8125    6528.8654    1065.4137 
   65200    300.59826            0     3235.572    6446.0343    1025.8762 
   65300    299.70118            0     3323.145    6524.0262    1033.8342 
   65400    304.04477            0    3254.2944    6501.5663    962.16392 
   65500    298.50199            0    3291.1119    6479.1855     1023.947 
   65600    301.86662            0    3198.4774     6422.486    1043.4694 
   65700    298.28641            0    3266.2795    6452.0506    1090.7631 
   65800    305.88349            0    3239.2521    6506.1619    1070.4278 
   65900    292.90061            0    3221.3225     6349.572    1078.2569 
   66000    300.38589            0    3258.1868    6466.3809    1093.2512 
   66100    303.76843            0    3289.2864    6533.6069    999.42928 
   66200    294.73973            0    3251.4545    6399.3463    1001.8515 
   66300    298.82264            0    3253.2653    6444.7635    1098.2758 
   66400    303.97905            0    3203.5009    6450.0709    1071.1965 
   66500    298.17174            0    3217.5688    6402.1153    1045.6139 
   66600    299.90009            0    3221.3009    6424.3066    1073.2396 
   66700    301.90795            0    3231.0385    6455.4885    1049.6641 
   66800    297.36763            0    3262.4404    6438.3988    1000.9465 
   66900    299.78361            0     3300.625    6502.3866    1045.9961 
   67000    298.27718            0    3205.4899    6391.1625    1024.6371 
   67100    300.00073            0    3243.1464    6447.2269    997.16097 
   67200    296.20722            0    3260.2859    6423.8508    1008.9684 
   67300    308.61918            0    3278.7308    6574.8585    1086.8536 
   67400    300.64897            0    3231.4897    6442.4936    1054.5136 
   67500    308.50048            0    3244.5203    6539.3802    1050.7428 
   67600    299.45217            0    3243.3943    6441.6161    1027.0143 
   67700    299.86366            0    3292.7222    6495.3388    1025.2571 
   67800      299.559            0    3246.5933     6445.956    995.16299 
   67900    299.00703            0    3239.8571    6433.3247     992.0017 
   68000    305.64852            0    3267.9547    6532.3549    1030.4989 
   68100    303.14506            0    3230.9955    6468.6582    1030.7787 
   68200    299.53367            0     3227.311    6426.4032    1038.3741 
   68300     299.6927            0    3310.2029    6510.9936    1062.1992 
   68400    301.96401            0    3253.0278    6478.0767    1021.2306 
   68500    296.36236            0    3239.8525    6405.0744    1039.2787 
   68600    299.98261            0     3207.573    6411.4601     979.7377 
   68700    300.61449            0    3297.9773     6508.613    1004.6115 
   68800    297.89153            0    3176.4156    6357.9693    1002.9229 
   68900    301.31777            0    3230.7082     6448.855    1022.2081 
   69000    299.76101            0    3212.1976    6413.7179    998.15442 
   69100     303.3817            0    3296.4962    6536.6863    1102.5739 
   69200    296.87233            0    3230.6023    6401.2707    1061.7292 
   69300     301.4182            0    3255.8777    6475.0972    1039.3535 
   69400    302.82434            0     3273.789    6508.0263    1037.2407 
   69500    292.01194            0    3204.4622    6323.2205    972.99963 
   69600    303.05811            0    3233.4735    6470.2076    997.65348 
   69700    296.84531            0    3265.7391    6436.1189    1048.0169 
   69800     297.2025            0    3197.0046    6371.1993    967.66072 
   69900    301.20874            0    3255.7698    6472.7522     998.3519 
   70000    295.83921            0    3275.7358    6435.3703    1047.7471 
   70100    303.22982            0    3261.2371     6499.805    1071.1906 
   70200    293.46224            0    3235.7019    6369.9498    1057.3736 
   70300    302.22891            0    3229.6151    6457.4931     1037.004 
   70400    302.90851            0    3286.4058    6521.5422    1053.8086 
   70500    295.85825            0    3215.2161     6375.054    974.13893 
   70600    301.78517            0    3221.9111    6445.0499    945.19168 
   70700    297.26295            0    3283.3249    6458.1653    1014.0071 
   70800    304.02107            0    3239.5436    6486.5623    969.60461 
   70900    298.26623            0    3218.9666    6404.5222    932.52845 
   71000    301.57604            0    3246.6316    6467.5368    989.65829 
   71100    299.62442            0    3227.6712    6427.7327    977.44887 
   71200    297.50996            0    3221.4508    6398.9293    945.67149 
   71300    296.86272            0    3202.2785    6372.8444    970.08708 
   71400    303.82867            0    3323.8512     6568.815    1105.8937 
   71500    299.75607            0    3216.5299    6417.9974      1053.09 
   71600    304.91115            0    3232.8327    6489.3577    1067.3961 
   71700    293.46274            0    3250.7583    6385.0116    1067.1041 
   71800     301.3455            0    3278.6222    6497.0652    1072.4014 
   71900    302.01932            0    3195.2559    6420.8955    1040.7709 
   72000    300.17357            0    3172.4095    6378.3359    1050.8823 
   72100    298.96821            0    3270.3948    6463.4478    1028.5849 
   72200    301.35112            0    3245.1304    6463.6334    1000.0335 
   72300     303.9877            0    3265.0018    6511.6641    1009.4186 
   72400    298.14084            0    3224.8896     6409.106    1017.4252 
   72500    296.89181            0    3238.5701    6409.4466    1064.5205 
   72600    296.64737            0    3288.0379    6456.3038     1067.852 
   72700     298.9275            0    3244.8262    6437.4444    1044.7071 
   72800    300.09288            0     3260.732    6465.7967    1023.0512 
   72900    301.36375            0    3211.4338    6430.0717    1013.1593 
   73000    301.07384            0    3228.1161    6443.6577    1031.2011 
   73100    298.20198            0    3304.6061    6489.4755    1024.5863 
   73200    303.53029            0    3309.5085    6551.2856    1042.8927 
   73300    300.14275            0     3158.649    6364.2463    969.30133 
   73400    308.64587            0     3270.954    6567.3668    1025.4639 
   73500    296.44653            0    3286.6994    6452.8202    1056.8362 
   73600    300.49951            0    3167.5891    6376.9967    1023.5308 
   73700    300.37755            0    3269.6199    6477.7249     1072.722 
   73800     295.8997            0    3232.9099    6393.1905     1028.338 
   73900    301.78797            0    3287.3838    6510.5525    1075.2106 
   74000    303.07594            0    3181.6229    6418.5474    1011.8183 
   74100    294.70975            0    3205.6601    6353.2317    1003.7202 
   74200    301.50945            0    3280.1363    6500.3303    1033.9572 
   74300    295.03412            0    3236.2268    6387.2628    1032.7029 
   74400    304.19672            0     3200.022    6448.9167    1021.4393 
   74500    300.58824            0    3275.7599    6486.1151     1078.501 
   74600    299.75603            0    3235.9912    6437.4582    1029.4461 
   74700    299.58877            0    3298.9609    6498.6416    1062.1953 
   74800    298.80862            0    3224.8135    6416.1621    1021.3682 
   74900    299.03829            0    3265.1573    6458.9587    1041.2948 
   75000    305.39048            0    3271.3777     6533.022     1049.376 
   75100    299.41446            0    3183.9029    6381.7219    1022.0154 
   75200    296.96897            0    3224.0882    6395.7888     1035.932 
   75300     298.7312            0    3257.9332    6448.4548    1007.7256 
   75400    296.03164            0     3325.989    6487.6787    1023.0423 
   75500    301.14866            0    3198.0159    6414.3567    997.88468 
   75600    294.23114            0    3225.7408    6368.2007    1041.8204 
   75700    305.37421            0    3248.1962    6509.6668    1039.5233 
   75800    297.76619            0    3172.4938    6352.7089    983.26465 
   75900    299.73592            0     3255.271    6456.5233    1014.8837 
   76000    310.86941            0    3253.3492    6573.5098    1006.8751 
   76100     296.2276            0    3250.4616    6414.2442    1029.4365 
   76200    297.85742            0    3267.9179    6449.1074    1060.2966 
   76300    303.25381            0    3235.5127    6474.3369    1045.8466 
   76400    298.72319            0     3225.346    6415.7821    1039.7468 
   76500    302.26365            0    3272.7324    6500.9814    1039.3131 
   76600    302.88155            0    3260.5029    6495.3513    1004.7005 
   76700    299.13515            0    3189.3628    6384.1987    952.85145 
   76800     294.2821            0    3230.8038     6373.808    1052.1418 
   76900    304.96399            0    3243.3835    6500.4728     1025.631 
   77000    296.87949            0    3305.2012     6475.946    1065.9121 
   77100     307.7374            0    3235.0998    6521.8099    1077.5738 
   77200    295.65163            0    3277.8414    6435.4725    1049.4997 
   77300    303.22956            0    3178.3731    6416.9383    1011.0756 
   77400    295.04687            0    3164.0002    6315.1723    1004.2417 
   77500    302.27477            0    3330.2189    6558.5867    1065.5312 
   77600    299.24419            0    3315.2963    6511.2968    1084.3022 
   77700    309.12917            0    3128.1329    6429.7074    1028.8355 
   77800    302.79689            0    3203.2557    6437.1998    1073.7193 
   77900    293.92582            0    3221.8173    6361.0163    1040.0617 
   78000    301.39553            0    3223.6342    6442.6115    1018.7805 
   78100    300.75295            0    3293.3438    6505.4581    1045.3455 
   78200    299.42642            0    3203.7657    6401.7124    1035.2372 
   78300    297.28849            0    3270.8502    6445.9633    1032.2154 
   78400    296.90765            0     3287.552    6458.5977    993.11241 
   78500     304.1242            0    3273.3869    6521.5071    1051.2584 
   78600    301.05688            0    3232.5502    6447.9107    1032.8798 
   78700    299.33107            0    3153.9907    6350.9191    992.65213 
   78800    296.96271            0    3228.6143    6400.2481    1013.0632 
   78900    306.22145            0    3351.9628    6622.4821    1059.2628 
   79000    297.89928            0    3258.2092    6439.8458    1002.7213 
   79100    304.59409            0    3213.1887    6466.3274    1015.1754 
   79200    298.12013            0    3189.5237    6373.5189    1039.0541 
   79300    298.04218            0    3287.8574    6471.0202    1054.8269 
   79400    295.56052            0    3303.9841    6460.6421    1054.1369 
   79500    301.30769            0    3103.0619     6321.101    1004.2373 
   79600    298.02192            0    3216.2853    6399.2316    1067.8742 
   79700    293.31401            0    3259.6707    6392.3355    1078.2055 
   79800    308.22739            0    3247.7346    6539.6778    1041.1655 
   79900    297.42515            0    3201.7848    6378.3575    988.44461 
   80000    305.98617            0    3267.7403    6535.7468     1031.608 
   80100    296.16727            0    3182.9265    6346.0648     1020.154 
   80200    301.32355            0    3214.3656    6432.5741    1008.5809 
   80300    295.61754            0    3249.4253    6406.6923    1044.7514 
   80400    303.37131            0    3183.7549    6423.8341    1037.0197 
   80500    293.89122            0    3250.0105      6388.84    1030.2463 
   80600    305.30102            0    3234.4302    6495.1191    1047.2981 
   80700    296.54939            0    3227.9638    6395.1832    1022.3495 
   80800    299.41856            0    3277.7063    6475.5691    1066.3281 
   80900    302.40085            0    3248.5567    6478.2712    1028.1327 
   81000    294.28351            0    3221.4345    6364.4537    1028.7336 
   81100    300.13624            0    3228.4972     6434.025    1015.3588 
   81200    299.42339            0     3210.783    6408.6974    979.20281 
   81300     298.6564            0    3256.3069    6446.0296    1046.4906 
   81400    296.28654            0    3266.8119     6431.224    1036.2007 
   81500    304.48788            0    3267.0068    6519.0111    1020.1374 
   81600    302.28991            0    3271.3067    6499.8362     1099.982 
   81700    292.31058            0    3218.8103    6340.7581    1059.7953 
   81800    302.78185            0    3198.5456    6432.3292    1008.4498 
   81900    298.39097            0    3284.8757    6471.7635    1063.3759 
   82000    301.04744            0    3258.3137    6473.5733    1056.7742 
   82100    292.48255            0     3193.301    6317.0856     1054.988 
   82200    306.16794            0    3247.3946    6517.3424    1081.6494 
   82300    303.82999            0    3263.0625    6508.0404    1020.6102 
   82400    300.53111            0    3221.6368    6431.3818    971.96671 
   82500    300.79123            0    3244.0125    6456.5357    1019.8329 
   82600    296.74072            0    3207.5078    6376.7706    992.88166 
   82700    306.12786            0     3261.364    6530.8837    989.84133 
   82800     298.1836            0    3249.2061    6433.8793      989.816 
   82900     304.3339            0     3239.211    6489.5708    1031.5012 
   83000    296.46272            0    3242.9885    6409.2823    1034.4125 
   83100    300.58006            0    3238.1349    6448.4028    1016.6027 
   83200    300.54278            0    3198.7222     6408.592    1034.7687 
   83300    305.55682            0    3286.8383    6550.2591    1042.9652 
   83400    297.05266            0    3287.3736     6459.968     1026.634 
   83500    298.07031            0    3229.6207    6413.0839    1061.2201 
   83600    299.53537            0    3191.1802    6390.2905    1034.5593 
   83700     304.7126            0    3268.4909    6522.8954    1055.9699 
   83800    300.63739            0    3284.9673    6495.8475    1039.5588 
   83900    295.92044            0    3204.8127    6365.3148    979.76709 
   84000    301.94432            0    3209.9436    6434.7821    1038.7173 
   84100    291.29877            0    3205.4538    6316.5952    1018.5694 
   84200    310.24033            0    3299.4266    6612.8685    1018.4018 
   84300    296.54318            0     3269.081     6436.234    980.84154 
   84400    303.29396            0    3201.5071    6440.7601     1064.243 
   84500     296.4479            0    3167.1744    6333.3098    1031.6727 
   84600    300.29753            0    3292.7739    6500.0243     1019.646 
   84700    299.56205            0    3320.1125    6519.5078    1060.1052 
   84800    302.20197            0    3229.9688    6457.5592    1042.3107 
   84900    300.02743            0    3163.2874    6367.6532    994.03165 
   85000    295.29988            0    3264.0122    6417.8865    1034.5628 
   85100    305.65548            0    3310.4067    6574.8812    1068.5266 
   85200    296.79877            0    3277.7627    6447.6455    1048.7634 
   85300     300.1144            0    3210.9633    6416.2578    1021.3123 
   85400    301.66206            0    3265.7979    6487.6218    1073.7572 
   85500    306.78261            0    3256.3638    6532.8765    1039.1597 
   85600    299.27037            0    3193.8318    6390.1119     1015.074 
   85700    299.86454            0    3257.8792    6460.5052    1068.4042 
   85800     308.4805            0    3334.3035      6628.95    1083.8591 
   85900     302.8408            0    3273.6268      6508.04    1030.8226 
   86000    297.92519            0    3226.2631    6408.1764    1071.4549 
   86100    303.94958            0     3194.118    6440.3732    1071.1145 
   86200     297.8714            0     3230.678    6412.0168    1069.9645 
   86300    315.63856            0    3250.8396     6621.936    1071.6895 
   86400    307.99928            0    3304.4443    6593.9513    1043.5914 
   86500    295.10323            0    3235.0517    6386.8257    977.06402 
   86600    306.79701            0    3217.0636      6493.73    978.01664 
   86700    297.61875            0    3259.9558    6438.5962    1015.5095 
   86800    297.03214            0    3254.5469    6426.9222    1021.9346 
   86900    311.36767            0    3245.7387    6571.2209    1009.8108 
   87000    299.01477            0    3279.1451    6472.6953    1051.9018 
   87100    298.23257            0    3221.6869    6406.8831    1021.0832 
   87200    299.60705            0    3205.5058    6405.3818    1016.4518 
   87300     301.7349            0    3226.7273    6449.3292    1051.3717 
   87400    296.65454            0    3244.7283    6413.0708    1032.4748 
   87500    298.82254            0    3262.6214    6454.1185    1015.7724 
   87600    297.12692            0    3255.1422    6428.5297    1058.9121 
   87700    299.21275            0     3190.896    6386.5607    1046.4316 
   87800    300.67055            0    3205.0745    6416.3089    1071.0229 
   87900    298.77456            0    3290.2098    6481.1945    1092.2392 
   88000    297.05445            0    3218.2106    6390.8241    1020.0419 
   88100    302.24382            0    3291.8065    6519.8437    1071.7518 
   88200    299.01226            0    3242.7182    6436.2416    1062.4561 
   88300     305.6286            0    3180.9459    6445.1334    1039.9242 
   88400    296.22234            0    3273.5657    6437.2921    1074.3283 
   88500    303.33805            0    3387.5914    6627.3154    1091.0564 
   88600    298.79815            0    3268.7549    6459.9916    1049.6898 
   88700    297.29037            0    3153.8076    6328.9408     1041.744 
   88800    301.79803            0    3230.8031    6454.0793    1025.2992 
   88900    301.60351            0    3340.5196    6561.7181     1059.509 
   89000    295.06326            0    3228.6081    6379.9552    973.48455 
   89100    302.03278            0    3248.9888    6474.7721    1046.9112 
   89200    299.70515            0    3229.1608    6430.0844     1045.795 
   89300    296.63223            0    3250.6259      6418.73    1067.2684 
   89400    303.44854            0    3255.8125    6496.7164    1037.8849 
   89500    305.76919            0     3261.936     6527.625    1056.4199 
   89600    297.92289            0    3150.7117    6332.6004    1035.2044 
   89700    300.70119            0      3195.62    6407.1817    1023.8588 
   89800    300.11486            0    3320.2801    6525.5795    1066.2535 
   89900     300.8247            0    3206.2538    6419.1345    1029.9867 
   90000    293.75004            0    3300.1762    6437.4979    988.81513 
   90100    300.94617            0     3293.784    6507.9621    997.83749 
   90200    297.29793            0    3159.3676    6334.5815    1042.1634 
   90300    303.96725            0    3211.6909    6458.1348    1045.2334 
   90400    301.78724            0     3258.866    6482.0269    1010.3619 
   90500    296.39078            0    3266.0893    6431.6147    1049.1611 
   90600    301.12311            0    3256.0031    6472.0709    1019.1057 
   90700    295.10178            0    3252.6387    6404.3973     1016.341 
   90800    305.28621            0    3304.2438    6564.7745    1092.2986 
   90900    298.07534            0    3241.5611    6425.0779    1036.3813 
   91000    299.27831            0    3158.2974    6354.6623    960.20043 
   91100    305.86711            0    3340.5966    6607.3315    1062.2402 
   91200    302.08611            0    3292.6333    6518.9861    1055.0281 
   91300    302.80899            0    3210.9644    6445.0378    1048.8154 
   91400    297.33133            0    3211.0986    6386.6694    1004.2512 
   91500    295.97147            0    3238.4507    6399.4978    1056.1415 
   91600    297.03353            0    3210.5032    6382.8933    1025.2387 
   91700    307.14064            0    3262.5359    6542.8724    1058.0627 
   91800     297.1071            0    3237.7518    6410.9277    1090.2718 
   91900    301.74638            0    3186.2152    6408.9397    1047.0976 
   92000    293.88536            0    3259.5846    6398.3515    1041.0463 
   92100    307.85966            0    3328.6912    6616.7071     1057.902 
   92200    292.65925            0     3250.236    6375.9077     1006.952 
   92300    305.40388            0    3240.6783    6502.4658    1004.4332 
   92400    299.69443            0     3224.523    6425.3321    1010.9986 
   92500    296.40049            0    3253.0588    6418.6879    1017.1716 
   92600    304.47318            0    3222.4031    6474.2506    1006.0277 
   92700     300.7357            0    3278.0076    6489.9378    1011.9395 
   92800     296.2672            0    3263.2988    6427.5043    1045.9009 
   92900    301.52114            0    3180.1553    6400.4742    1037.8952 
   93000    297.74626            0     3228.316    6408.3182    1041.6878 
   93100     302.0864            0    3280.8328    6507.1887     1054.529 
   93200    298.88111            0    3334.1019    6526.2246     1051.523 
   93300    302.02319            0    3171.2805    6396.9613    992.59866 
   93400    298.11922            0    3161.0831    6345.0686    1027.1605 
   93500    299.29352            0    3304.2979    6500.8253    1085.0181 
   93600    299.58533            0    3266.7754    6466.4194    1025.1645 
   93700    299.12409            0    3206.4874    6401.2052    1036.0081 
   93800    299.52173            0    3181.5207    6380.4853    1042.8152 
   93900    295.43119            0    3329.6034    6484.8801     1062.587 
   94000     308.7533            0    3205.5118    6503.0719    1017.2545 
   94100    298.92907            0    3234.5908    6427.2257    1057.8214 
   94200    297.99391            0    3187.0531    6369.7002    1028.6143 
   94300    295.53587            0    3287.4827    6443.8775    1068.3151 
   94400     306.1913            0    3202.9477     6473.145    1046.6634 
   94500    300.67927            0    3300.6977    6512.0252    1071.2799 
   94600    306.18979            0    3257.6853    6527.8665    1050.7467 
   94700    298.17604            0    3218.5397    6403.1321    1053.7311 
   94800    302.09072            0    3222.5271    6448.9292    1020.6343 
   94900    300.82495            0    3273.7232    6486.6065    986.69588 
   95000    294.45048            0    3384.0699    6528.8724    1046.4944 
   95100    301.96386            0    3228.3611    6453.4084    967.04835 
   95200    301.54523            0    3260.9552    6481.5313    1036.8735 
   95300    298.97416            0    3177.0024    6370.1189    1046.1923 
   95400    298.17577            0    3271.7267    6456.3162    1070.0731 
   95500     303.0801            0    3229.7793    6466.7483     1031.099 
   95600    297.35774            0    3239.4012    6415.2539    1036.6674 
   95700    305.76554            0    3186.9733    6452.6234    1006.4268 
   95800    302.97076            0    3290.9234    6526.7245    1051.9084 
   95900    296.96672            0    3322.3773    6494.0539     1084.856 
   96000    305.11308            0     3132.798    6391.4797    979.60309 
   96100    297.55127            0    3221.9615    6399.8812    991.66439 
   96200    294.72906            0     3263.417    6411.1949    1023.9494 
   96300    299.93575            0     3319.283    6522.6695    1030.5866 
   96400    304.53231            0    3217.6917    6470.1705    955.66818 
   96500    294.01583            0     3208.856    6349.0163     1033.855 
   96600    297.16138            0    3242.2441    6415.9997     1031.998 
   96700    302.15116            0     3239.868    6466.9156    959.64817 
   96800      300.131            0    3295.9383    6501.4102    1021.1257 
   96900    306.46144            0    3259.7264    6532.8088    1051.9127 
   97000    294.64376            0    3225.1963    6372.0631     1025.072 
   97100    303.00107            0    3229.6011    6465.7259     1029.362 
   97200     301.0511            0    3272.3046    6487.6033    1069.1335 
   97300    301.76765            0    3195.6257    6418.5774    1018.7703 
   97400    293.77203            0    3211.2831    6348.8396    1035.9185 
   97500     298.2351            0    3276.8641    6462.0873    1094.3855 
   97600    304.84979            0     3177.307    6433.1766    1001.0223 
   97700    299.23597            0    3273.5734    6469.4861    993.18998 
   97800    305.61462            0    3250.2598     6514.298    1005.8001 
   97900    302.62991            0    3235.9085    6468.0693    1050.7098 
   98000    300.31613            0    3237.1055    6444.5546    1036.5504 
   98100    303.61145            0    3252.8651     6495.509    1019.8911 
   98200    287.99642            0    3222.9962    6298.8677    990.36913 
   98300    301.39576            0    3189.0123    6407.9921    985.20491 
   98400    299.68556            0     3232.323    6433.0374    1020.6703 
   98500    296.89092            0    3208.1555    6379.0226    969.20708 
   98600    300.93516            0    3300.7246    6514.7851    989.24031 
   98700    303.68923            0    3252.4916    6495.9662    983.11902 
   98800    297.72989            0    3252.0528    6431.8802    998.36798 
   98900     297.0816            0    3205.1533    6378.0568    966.59207 
   99000    305.98956            0    3251.8225    6519.8652    1020.7297 
   99100    294.82794            0    3264.5415    6413.3754    1009.0999 
   99200    299.77988            0    3272.1024    6473.8242    1045.0551 
   99300     295.4726            0    3212.8693    6368.5883    1073.4136 
   99400    303.52487            0    3254.5313    6496.2505    1103.7024 
   99500    295.70164            0    3202.9602    6361.1254    1061.9158 
   99600    301.14418            0    3228.2019    6444.4947    1079.2001 
   99700    296.85212            0    3256.0892    6426.5418    1041.1046 
   99800    299.20927            0     3309.827    6505.4545    1051.1773 
   99900    310.31102            0    3265.1206    6579.3175    1064.5834 
  100000    300.21135            0    3209.4905    6415.8204    1006.0342 
  100100    298.45636            0    3240.6501    6428.2364    1053.0539 
  100200      307.911            0     3293.852    6582.4162    1096.9437 
  100300    309.39017            0    3222.5008    6526.8628    1029.0243 
  100400     298.7633            0    3257.3652    6448.2297    1039.4365 
  100500    307.00562            0     3258.808    6537.7024     1023.054 
  100600     297.0837            0    3184.1516    6357.0775    957.45335 
  100700    295.87727            0    3193.6633    6353.7043    981.68132 
  100800    305.50495            0    3280.0136    6542.8805    1046.7215 
  100900    299.24951            0    3232.5089    6428.5661    969.71337 
  101000    304.85733            0    3262.4261    6518.3763    1005.2194 
  101100    294.33926            0    3310.6745    6454.2891    1022.7251 
  101200    299.27324            0    3226.8093    6423.1201    1036.5388 
  101300    301.58204            0    3178.4729    6399.4422    1037.2967 
  101400    300.14358            0    3252.1689     6457.775    1024.7187 
  101500    304.65303            0    3319.8894    6573.6576    1071.8405 
  101600    300.34246            0    3260.0408     6467.771    1073.6909 
  101700    299.95802            0     3225.892    6429.5163     1048.198 
  101800    293.03724            0    3216.2787    6345.9874    1073.3675 
  101900    296.43886            0    3216.7122    6382.7511    1041.0176 
  102000    296.20676            0    3279.1614    6442.7215    1036.7942 
  102100    304.81163            0    3277.7567    6533.2188    1018.4191 
  102200    300.89915            0    3247.6258    6461.3016    1042.3795 
  102300    300.69446            0    3245.9946    6457.4844    1072.7264 
  102400    296.57795            0    3182.2533    6349.7777    1053.1501 
  102500    304.01046            0    3203.2611    6450.1665    1030.9164 
  102600    301.56719            0     3291.781    6512.5918    1049.2729 
  102700    298.87448            0    3297.3151    6489.3669    1036.8385 
  102800    303.93596            0    3212.4081    6458.5178    1051.8288 
  102900    307.34515            0     3194.091    6476.6116    1060.5853 
  103000    306.05776            0    3236.3934    6505.1645    1047.4184 
  103100    297.98411            0     3255.308    6437.8505    1032.3771 
  103200    300.89661            0    3299.0436    6512.6923    1076.5786 
  103300    292.11652            0    3218.3428     6338.218    977.82331 
  103400    306.10306            0    3208.1926    6477.4474     1017.418 
  103500    298.06794            0    3259.1508    6442.5886    1061.6747 
  103600    305.94607            0    3301.9239     6569.502    1066.1464 
  103700    304.51956            0    3258.0623     6510.405    1033.3233 
  103800     303.6191            0    3278.6922    6521.4179    1062.8816 
  103900    296.77232            0    3210.7993    6380.3996    1010.7043 
  104000    300.49252            0    3187.1506    6396.4836       1022.7 
  104100    295.67645            0    3262.5609     6420.457     1074.983 
  104200    299.17671            0    3251.0293    6446.3091    1046.2071 
  104300    304.10502            0    3232.3813    6480.2966    1060.0152 
  104400     303.9908            0    3336.2592    6582.9547    1137.8397 
  104500    290.06337            0     3189.881    6287.8281     1013.778 
  104600    300.84285            0    3233.1848    6446.2593     1048.354 
  104700    299.51679            0    3257.6892    6456.6011    1072.6897 
  104800     302.3126            0    3245.3124    6474.0843    1068.2163 
  104900    298.04917            0    3281.2994    6464.5368    1052.3747 
  105000    305.70077            0    3218.7773    6483.7357    1028.9428 
  105100    298.16247            0    3192.3821    6376.8295    1071.5475 
  105200    305.87245            0    3238.9715    6505.7634    1057.4189 
  105300    293.31699            0    3307.2301    6439.9266     1070.345 
  105400    303.29141            0    3257.0685    6496.2943     1087.783 
  105500     292.0786            0    3164.8039    6284.2742     979.3932 
  105600    299.04882            0    3221.1931    6415.1069    987.68387 
  105700    300.58085            0    3242.3494    6452.6257    1024.3082 
  105800    299.20415            0    3272.3136    6467.8865    1060.4597 
  105900    303.85753            0    3209.4255    6454.6976    1008.8596 
  106000    303.00122            0    3254.2663    6490.3928    1043.6228 
  106100    296.72166            0    3238.0961    6407.1553    1068.6061 
  106200    298.49826            0    3217.9779    6406.0117    1022.7766 
  106300    303.70466            0    3239.4703    6483.1096    1013.8902 
  106400    300.07727            0    3282.2379    6487.1359    1010.7934 
  106500    303.41541            0    3295.2007    6535.7509    981.67683 
  106600    297.29756            0    3260.4741    6435.6841    996.43383 
  106700    304.21231            0    3232.8259    6481.8871    1012.2105 
  106800    298.04838            0    3236.1933    6419.4223    978.95923 
  106900    306.01853            0     3304.609     6572.961    1004.4626 
  107000    296.85452            0    3192.9341    6363.4124     993.5492 
  107100    297.11093            0    3238.8026    6412.0193    1050.8454 
  107200    304.29171            0    3257.5448     6507.454     1058.023 
  107300    296.87321            0    3188.4867    6359.1645    1063.3852 
  107400    303.07392            0    3192.2289    6429.1318    1087.9849 
  107500    300.01233            0    3299.2268    6503.4311    1063.4366 
  107600    293.61568            0    3271.5567    6407.4434    1051.4558 
  107700    300.67058            0    3218.1269    6429.3615    1071.4506 
  107800    301.15717            0    3231.4204     6447.852    1039.8742 
  107900    298.26033            0    3235.7396    6421.2323    1027.8209 
  108000    294.57158            0    3169.2941    6315.3899    1015.4027 
  108100    304.38698            0    3245.2491    6496.1758    1105.2619 
  108200    297.80295            0     3249.699    6430.3066    1049.2395 
  108300    303.82256            0    3255.1915    6500.0902    1117.9527 
  108400    300.78191            0    3212.4566    6424.8803    1111.8849 
  108500     297.8272            0    3222.8012    6403.6679     1074.023 
  108600    302.84344            0    3225.4821    6459.9234    1074.1533 
  108700    298.48742            0    3249.9726    6437.8907     1062.497 
  108800    296.36772            0    3325.7504    6491.0295    1000.0335 
  108900    302.71392            0    3327.6746    6560.7327    1052.0529 
  109000    305.47036            0    3178.6494    6441.1469    1004.3679 
  109100    306.59851            0    3216.1657    6490.7121    1022.3875 
  109200    297.33787            0    3248.6977    6424.3382     1062.558 
  109300    300.78124            0    3222.2654     6434.682    1084.9438 
  109400    292.20169            0    3304.8119    6425.5968       1061.4 
  109500    297.73097            0    3249.5185    6429.3574    1047.6395 
  109600    300.04918            0    3183.0708    6387.6688    1056.8261 
  109700    297.36683            0    3233.9673    6409.9171    1032.1743 
  109800    298.97867            0    3255.3201    6448.4847    1043.0026 
  109900    300.86708            0    3249.7688    6463.1022    1063.9508 
  110000    300.88313            0    3277.4641    6490.9689    1042.8433 
  110100    298.39294            0    3188.3819    6375.2909    1015.3832 
  110200    297.78617            0    3185.2531    6365.6817    1019.4275 
  110300    302.45653            0     3305.408     6535.717    1106.6391 
  110400    302.82262            0    3290.8177    6525.0368    1046.4316 
  110500    294.95659            0    3253.3272    6403.5351    1053.7035 
  110600    295.45419            0    3266.5657    6422.0881    1073.1918 
  110700    298.92754            0    3286.3981    6479.0167    1010.7877 
  110800    298.33346            0    3210.4791    6396.7528    1050.0104 
  110900    295.56952            0    3198.0177    6354.7719    1039.1058 
  111000    305.39536            0    3308.9279    6570.6243    1086.9204 
  111100    296.88429            0    3229.4668    6400.2629    1032.4943 
  111200    297.29835            0    3126.3258    6301.5443    980.66297 
  111300     297.3074            0    3219.8789     6395.194    1022.0616 
  111400    292.78288            0    3316.4733    6443.4654    990.85762 
  111500    300.89243            0    3275.8012    6489.4053    1006.8663 
  111600    300.25144            0    3253.6252    6460.3834    1052.2205 
  111700     299.5998            0     3172.669    6372.4676    1033.3623 
  111800     301.5159            0    3229.0697    6449.3326    1073.3312 
  111900    301.49857            0    3304.7265    6524.8043    1009.6944 
  112000    299.88439            0    3251.3403    6454.1782    1014.1232 
  112100    296.98865            0     3300.565    6472.4758    1052.0616 
  112200    310.64241            0    3303.1084    6620.8446    1011.8541 
  112300    294.70913            0    3177.3323    6324.8972    931.85566 
  112400    301.73303            0    3276.6699    6499.2518     1027.093 
  112500    299.67712            0    3239.6041    6440.2283    1005.5946 
  112600    307.05686            0    3230.5353    6509.9769    988.73557 
  112700    298.79572            0    3294.7167    6485.9274    1011.2273 
  112800    306.83622            0     3297.445    6574.5302    1001.2567 
  112900    298.14606            0    3271.6348     6455.907    974.47991 
  113000     294.4834            0    3250.2502    6395.4043    1049.9315 
  113100    299.47008            0    3162.4385    6360.8516    1030.6387 
  113200    296.46249            0    3265.6418    6431.9331    1037.8218 
  113300    303.05311            0    3273.2407    6509.9214    1042.0592 
  113400    296.99561            0    3224.8951    6396.8802    1023.6541 
  113500    294.89978            0    3208.6787    6358.2799    1045.7944 
  113600    300.34578            0     3214.806    6422.5717    1049.6854 
  113700    301.08033            0    3254.0841    6469.6949    1069.7081 
  113800    299.83272            0    3275.8119     6478.098    1096.5507 
  113900    303.10153            0    3205.7316    6442.9294    1008.9356 
  114000    295.20521            0     3218.132    6370.9952    1034.0309 
  114100    301.43508            0    3315.1494    6534.5491    1085.8865 
  114200    300.46179            0    3222.6935    6431.6982    1031.4783 
  114300    308.49308            0    3189.4272    6484.2081    1063.1335 
  114400    304.50606            0    3263.2607    6515.4593    1017.8264 
  114500     300.1245            0    3351.9828    6557.3852    1096.7215 
  114600    299.08224            0    3192.7385    6387.0094    1036.3842 
  114700    295.46738            0    3201.1015    6356.7647    1017.0161 
  114800    306.77705            0    3321.8823    6598.3355    1043.5351 
  114900    297.91861            0    3219.8994    6401.7424    999.10236 
  115000    299.08688            0    3205.5173    6399.8377    1026.7978 
  115100    307.08741            0    3225.8136    6505.5816    1009.2294 
  115200    298.90324            0    3239.8623    6432.2214    1043.8998 
  115300    294.74829            0    3265.7858     6413.769    1098.6902 
  115400     304.5074            0    3235.1824    6487.3953    1091.1353 
  115500    300.53724            0    3263.9044     6473.715    1055.7982 
  115600    296.79515            0     3235.618    6405.4621    1082.3284 
  115700    293.13014            0    3259.7916    6390.4925    1031.0737 
  115800    297.33737            0    3192.5452    6368.1804    993.38965 
  115900    299.78814            0    3246.0438    6447.8538    1012.4166 
  116000    305.63797            0    3273.2194    6537.5069    1050.9911 
  116100    298.40895            0    3283.1264    6470.2063    1063.0909 
  116200    304.71432            0    3179.8869    6434.3098    1038.0149 
  116300    296.09806            0    3275.5195    6437.9185    1094.5717 
  116400    302.57467            0    3244.4902     6476.061    1030.7001 
  116500    300.36827            0    3262.4945    6470.5005    1051.2908 
  116600    299.77397            0    3219.2795    6420.9382    1065.9718 
  116700    301.45942            0    3238.4231    6458.0828    1094.6865 
  116800    298.97622            0    3169.4949    6362.6334    1025.6911 
  116900    298.98133            0    3306.1868    6499.3799    1114.7719 
  117000     301.0464            0    3228.9323    6444.1809    1043.2413 
  117100    306.95934            0    3255.3956    6533.7957    1083.7926 
  117200    298.30092            0    3237.6907    6423.6168    1057.8606 
  117300    305.33862            0    3276.3614    6537.4518    1060.9847 
  117400    301.56791            0    3212.5247     6433.343    1020.2332 
  117500     301.4569            0     3194.536    6414.1687    1020.4093 
  117600     300.7098            0    3254.6746    6466.3282    1051.5982 
  117700    309.69559            0    3304.7952    6612.4192    1068.1157 
  117800    299.01144            0    3252.2582    6445.7729    1007.7672 
  117900    302.04495            0    3250.7711    6476.6844    1025.4703 
  118000    305.76966            0    3247.2051    6512.8992    997.80027 
  118100    295.42228            0    3268.4881    6423.6697    1029.6828 
  118200    299.70195            0    3241.0574    6441.9468    1048.0279 
  118300    301.51417            0     3206.383    6426.6274    1048.0823 
  118400    304.25894            0    3274.3599    6523.9192    1079.3938 
  118500    296.95845            0    3286.0986    6457.6869    1041.6978 
  118600    300.12946            0    3264.8244    6470.2798    1030.3524 
  118700    297.05629            0    3187.6685    6360.3017    981.29841 
  118800      305.468            0     3246.706    6509.1782    1080.0217 
  118900    295.59503            0    3214.2497    6371.2764    1024.0352 
  119000    300.46094            0    3256.7744    6465.7702    1046.0938 
  119100     300.0955            0     3252.054    6457.1466     1114.682 
  119200    304.60421            0    3144.9355    6398.1824    1065.9659 
  119300    294.96816            0    3341.3252    6491.6567    1087.9894 
  119400    301.85012            0    3241.5666     6465.399    1055.9051 
  119500    294.13993            0     3181.499    6322.9847    1043.8855 
  119600    298.95081            0    3259.3119     6452.179    1073.0967 
  119700    299.11731            0    3272.5021    6467.1475     1085.791 
  119800    301.54682            0    3268.5593    6489.1524    1065.6702 
  119900    301.99516            0    3240.9334    6466.3149    1034.5387 
  120000    297.20197            0    3213.1946    6387.3836     1021.153 
  120100    304.72944            0    3254.8469    6509.4312    1059.4847 
  120200    296.90908            0    3205.1985    6376.2594    988.16345 
  120300    298.39325            0    3203.2638     6390.176    1021.1249 
  120400    299.47382            0    3216.8177    6415.2707     1048.426 
  120500    303.41953            0    3323.0177    6563.6118    1055.7219 
  120600    299.96967            0    3253.2741    6457.0229    987.00033 
  120700    292.55262            0    3227.8303    6352.3632    1026.4299 
  120800    298.72746            0    3234.1394    6424.6211    1033.6685 
  120900    304.11213            0    3197.1925    6445.1838    1001.5796 
  121000    298.80893            0    3270.8576    6462.2094    1032.7284 
  121100    306.38923            0    3244.4224    6516.7337    1007.2199 
  121200    299.66581            0    3273.6384    6474.1419     1044.391 
  121300    302.60955            0    3339.3797    6571.3231    1100.9172 
  121400    297.64364            0    3253.3463    6432.2526    1074.5482 
  121500    303.48166            0    3149.6044    6390.8621    1021.7677 
  121600    298.68004            0    3229.4756    6419.4508    1026.2669 
  121700    307.63885            0    3302.6448    6588.3022    1044.3249 
  121800    290.05151            0    3265.0762    6362.8966    1045.5867 
  121900     302.0353            0    3138.3902    6364.2004    1026.8253 
  122000    296.63558            0      3291.72    6459.8599     1109.866 
  122100    304.67927            0    3255.9061    6509.9545    1061.1443 
  122200    297.80661            0    3287.9769    6468.6237    1083.9923 
  122300    301.33495            0    3268.8458     6487.176    1097.9002 
  122400    306.43803            0    3241.9489    6514.7813    1064.2101 
  122500    299.38107            0    3198.8971    6396.3595    1028.8196 
  122600    289.92115            0    3264.5737    6361.0019     1019.093 
  122700     298.9756            0    3224.2741     6417.406    999.80244 
  122800    302.74532            0    3192.4282    6425.8216    1004.0159 
  122900    299.41428            0    3296.6679     6494.485    1033.4373 
  123000    300.03159            0     3223.405    6427.8151    992.60657 
  123100    307.71291            0    3215.0371    6501.4856    1020.8403 
  123200    295.20908            0    3320.4989    6473.4035    1061.4996 
  123300      295.261            0    3287.4868    6440.9459    1088.5164 
  123400    300.59843            0    3210.8623    6421.3264    1051.6833 
  123500    301.75837            0     3155.176    6378.0285    991.20067 
  123600    300.63743            0    3263.0715    6473.9521    1012.9005 
  123700    293.21862            0    3247.5783    6379.2243    989.42598 
  123800    301.30376            0    3313.2566    6531.2538    1029.0818 
  123900    298.59532            0    3197.5464    6386.6168     1017.566 
  124000    299.98756            0    3268.2655    6472.2054    1084.4369 
  124100    300.88608            0    3198.6489    6412.1851     989.0697 
  124200    293.74358            0    3253.6002    6390.8528    1009.2895 
  124300    298.68064            0    3304.6604     6494.642    1026.6537 
  124400    296.63231            0    3251.4052    6419.5102    994.51305 
  124500    305.46773            0    3201.8953    6464.3648    1040.0315 
  124600    298.74768            0    3252.6495    6443.3472    1069.1317 
  124700     301.0467            0    3216.0031    6431.2549    1024.7524 
  124800    297.28377            0     3206.008    6381.0707    1011.4982 
  124900    292.83284            0    3295.2136    6422.7393    1071.6667 
  125000     299.2723            0    3218.9912    6415.2919    1023.9024 
  125100    299.44582            0    3199.1163    6397.2702     1006.996 
  125200    297.39108            0    3293.1956    6469.4044    1060.5512 
  125300    302.89981            0    3274.6353    6509.6787    1048.1034 
  125400    290.46888            0    3229.5847    6331.8628     1018.261 
  125500    301.09142            0     3254.079    6469.8084    1078.3795 
  125600    293.87298            0    3242.3853      6381.02     1083.302 
  125700    301.80395            0    3250.5152    6473.8545    1002.4123 
  125800    296.79115            0    3216.3233    6386.1247    1000.6298 
  125900    301.58762            0    3265.3608    6486.3896    1039.0479 
  126000     304.5993            0    3286.8765    6540.0709    1010.9355 
  126100    299.12129            0    3231.8828    6426.5706      1031.32 
  126200    299.58826            0    3224.5653    6424.2405     1044.757 
  126300    308.13041            0    3208.3021    6499.2096    1012.7358 
  126400    289.34725            0    3268.4006    6358.6994    1040.9888 
  126500    301.29643            0    3263.9363    6481.8552    1028.6673 
  126600    292.46286            0    3253.5404    6377.1146    945.98767 
  126700    302.55323            0    3178.8983    6410.2401    981.55438 
  126800    295.64608            0     3186.743    6344.3148    1047.3019 
  126900    307.99881            0    3237.2459    6526.7479    1057.5614 
  127000    298.06681            0    3232.9589    6416.3846    1023.6702 
  127100    301.37682            0    3254.6747    6473.4522    1046.3798 
  127200    295.15257            0    3304.3703    6456.6713    1082.7863 
  127300    301.45865            0    3236.1047    6455.7561      1036.26 
  127400    301.18412            0    3135.6129    6352.3323    995.25014 
  127500    294.96677            0    3243.2183    6393.5348    1035.9464 
  127600    295.53788            0    3305.5623    6461.9785    1023.7876 
  127700    304.62813            0    3244.6217     6498.124    1024.6266 
  127800      298.939            0    3267.5778    6460.3188    1097.5374 
  127900    305.01688            0    3194.5652    6452.2193    1016.9689 
  128000    295.13741            0    3314.5609       6466.7    1076.6006 
  128100    305.93454            0     3226.205      6493.66    1068.6326 
  128200    300.64788            0    3253.0951    6464.0873    1067.2618 
  128300    303.10257            0    3227.1326    6464.3415    1020.4182 
  128400     298.4311            0    3262.8097    6450.1262    1001.8289 
  128500    315.31967            0    3239.1266    6606.8172    989.62048 
  128600    297.18778            0    3297.5322    6471.5697    995.81314 
  128700    299.00357            0    3309.4391    6502.8697    1056.4488 
  128800    304.19867            0     3213.595    6462.5105    987.60602 
  128900    293.99034            0    3222.6347    6362.5229    970.88642 
  129000    305.87516            0    3324.3804    6591.2012    1074.8434 
  129100    293.63313            0    3216.2907    6352.3637    982.33748 
  129200    302.09442            0    3173.8971    6400.3388    989.49867 
  129300    297.79566            0    3255.2601    6435.7899    1061.2498 
  129400     304.5022            0    3237.2714    6489.4287    1021.1081 
  129500    300.41762            0    3304.8148    6513.3477    1019.1086 
  129600    305.00611            0    3222.4786    6480.0178    1032.4743 
  129700    298.15449            0    3246.2784    6430.6406    1031.3446 
  129800    294.75221            0    3226.5596    6374.5846    990.78055 
  129900    305.95858            0    3314.7396    6582.4514    1006.6094 
  130000       301.79            0    3202.6148    6425.8051    988.92271 
  130100    295.71344            0    3181.4219    6339.7131    946.87784 
  130200    304.24011            0     3255.153    6504.5111    978.24037 
  130300    293.14945            0    3295.9293    6426.8365    1000.8619 
  130400    303.43074            0    3252.2846    6492.9984    995.32319 
  130500     296.3142            0     3167.358    6332.0655    939.81672 
  130600    297.37992            0    3294.5929    6470.6826    1078.2016 
  130700    304.63617            0    3221.5481    6475.1362    1023.2997 
  130800    301.16214            0     3235.796    6452.2807    1019.5788 
  130900    294.91283            0    3227.7331    6377.4736     1035.119 
  131000    307.89725            0    3255.2609    6543.6782    1044.0143 
  131100    298.06716            0    3207.2442    6390.6738    986.97338 
  131200     297.7072            0     3224.859    6404.4441    1009.9022 
  131300    300.72169            0     3235.878    6447.6585    1018.8823 
  131400    300.46643            0    3225.1433    6434.1977    1014.7608 
  131500    303.88756            0    3261.3324    6506.9252    1032.6564 
  131600    294.12512            0    3236.6971    6378.0247    1051.4798 
  131700    307.08388            0     3215.218    6494.9483    1049.3783 
  131800    302.81586            0    3271.5599    6505.7067    1073.6741 
  131900    296.91047            0    3201.4832     6372.559    994.96595 
  132000    308.02445            0    3282.7201    6572.4959    1035.0554 
  132100    299.14752            0    3286.0823    6481.0503     997.6041 
  132200    305.53582            0    3237.8513    6501.0479     951.2658 
  132300    295.59082            0     3209.988    6366.9697    931.36019 
  132400    298.99106            0    3252.1135    6445.4104    1018.2641 
  132500    299.52179            0    3240.0305    6438.9959      1040.58 
  132600     299.7972            0    3289.3214    6491.2281    1014.4153 
  132700    301.94056            0    3255.7165    6480.5148    1010.6488 
  132800    297.50977            0    3216.5507    6394.0271     1004.202 
  132900    299.83873            0    3281.9534    6484.3037    1050.8757 
  133000    303.79223            0     3261.062    6505.6367    1066.3178 
  133100    296.45475            0    3259.6952    6425.9038     1078.355 
  133200    300.27236            0    3185.6398    6392.6214    1034.9994 
  133300    302.67999            0    3200.7997    6433.4954    1008.9266 
  133400    293.81611            0     3237.279    6375.3062    982.96098 
  133500    295.77296            0    3257.0588    6415.9858    1043.0325 
  133600    306.61013            0     3179.152    6453.8225    991.59821 
  133700    302.52575            0    3230.0141    6461.0625    986.68908 
  133800    298.38833            0    3278.6434    6465.5031    1013.1545 
  133900    298.90279            0     3288.665    6481.0193    1028.6303 
  134000    307.72781            0    3185.9137    6472.5213    1023.2358 
  134100    298.36963            0    3191.7913    6378.4513    1012.6507 
  134200    295.66331            0    3311.5932     6469.349    1045.9247 
  134300     294.5939            0    3314.3237     6460.658    1036.2529 
  134400    299.89662            0    3235.2239    6438.1925     1011.756 
  134500    295.80055            0    3206.4564     6365.678    987.89781 
  134600    307.95022            0    3177.4674    6466.4504    992.67175 
  134700    296.44221            0    3288.0234    6454.0981    1023.8681 
  134800    300.19923            0    3265.2382    6471.4388    1004.4947 
  134900    302.48393            0    3303.5916    6534.1934    1052.1325 
  135000    297.65096            0    3203.2227    6382.2071     1022.299 
  135100    306.84733            0    3193.2838    6470.4876    1029.3791 
  135200    298.73924            0    3224.9408    6415.5482    1015.4202 
  135300    296.36258            0    3193.7962    6359.0204    1071.4599 
  135400    297.16154            0      3261.35    6435.1073    1044.5455 
  135500    302.28394            0    3251.2798    6479.7456    996.57435 
  135600    298.56523            0    3318.9493    6507.6983    1084.4961 
  135700    303.37724            0    3172.4693    6412.6118    1004.7951 
  135800    298.71199            0    3263.2833    6453.5997    981.20465 
  135900      297.693            0    3313.4876     6492.921    1018.8597 
  136000    301.15675            0    3258.7047    6475.1317    996.76689 
  136100    302.82429            0    3256.7417    6490.9785    1005.4724 
  136200    299.85982            0    3171.0938    6373.6694    1029.6713 
  136300    302.54267            0    3216.8235    6448.0525    1038.0629 
  136400    299.41652            0    3311.9804    6509.8215    1022.5731 
  136500    300.12745            0    3259.5742    6465.0081    1020.9291 
  136600    297.69964            0    3239.6061    6419.1104    1045.4709 
  136700     296.3451            0    3192.0965     6357.134    974.22402 
  136800    300.77711            0    3175.4005    6387.7729    1010.9792 
  136900    297.59524            0     3271.417    6449.8063    1092.4057 
  137000    296.81674            0    3302.4668    6472.5416    1091.3492 
  137100    299.72429            0    3163.0722    6364.2003    1000.4855 
  137200    304.97246            0    3232.9711    6490.1508    1089.4232 
  137300    300.18639            0    3235.8846     6441.948     1021.426 
  137400    300.63355            0    3250.9891    6461.8283    981.33038 
  137500    302.62691            0    3259.2506    6491.3794    1012.5956 
  137600    301.88934            0    3254.5229    6478.7742    1042.0788 
  137700    301.29753            0    3274.7148    6492.6454    1019.2118 
  137800    308.12282            0    3241.7272    6532.5536    1051.9384 
  137900    295.69001            0    3209.2047    6367.2456    1052.8553 
  138000    305.58537            0    3266.8503    6530.5761    1042.1424 
  138100    298.80839            0    3293.5001    6484.8462    1051.7588 
  138200    303.44273            0    3293.4223    6534.2642    1061.9415 
  138300    298.26224            0    3251.6091    6437.1222    996.10974 
  138400    297.12529            0    3228.2761    6401.6462    1003.8413 
  138500    296.92375            0    3202.7675    6373.9851    1029.6484 
  138600    296.45721            0    3267.3674    6433.6023    1030.6876 
  138700    299.06311            0    3231.0021    6425.0686    1032.6298 
  138800    295.42526            0    3227.4927     6382.706    1041.7757 
  138900    297.76481            0    3226.4422    6406.6425    1045.9654 
  139000    303.39046            0    3225.8714    6466.1551      1070.76 
  139100    293.06536            0    3248.9111    6378.9203    1057.8831 
  139200    292.93416            0    3250.7279    6379.3358    1070.7525 
  139300    303.16835            0    3220.1691    6458.0806    1102.6836 
  139400    300.92613            0    3162.5784    6376.5424    1049.7331 
  139500    293.30404            0    3238.2473    6370.8056    1029.7564 
  139600    302.25154            0    3283.5893     6511.709    1047.8104 
  139700    307.74746            0    3230.7494    6517.5668    1010.3361 
  139800    302.66791            0    3240.8833      6473.45    1008.8263 
  139900    302.35603            0    3265.8157    6495.0515    1004.0956 
  140000    295.33036            0    3213.8958    6368.0957    975.30156 
  140100    302.90123            0     3231.931    6466.9896    1041.5425 
  140200     294.6752            0    3262.7637    6409.9663    1016.7402 
  140300    297.47878            0    3302.0334    6479.1789    1016.5265 
  140400    300.92105            0     3295.028    6508.9378    1046.0983 
  140500     297.3286            0    3161.5657    6337.1073    1008.7786 
  140600     294.9375            0    3205.0086    6355.0126    1035.5971 
  140700    304.55691            0    3271.6945    6524.4361    1072.4277 
  140800    296.91789            0    3208.4024    6379.5574    1025.5255 
  140900    299.81911            0    3219.7977    6421.9385    1008.4919 
  141000    301.23839            0     3280.511    6497.8101    1027.0611 
  141100    305.31167            0    3242.6298    6503.4325    1045.1366 
  141200    295.25031            0    3209.3956    6362.7405    1034.5869 
  141300    303.67971            0     3332.217    6575.5899    1080.3102 
  141400    299.53341            0    3167.9792    6367.0687    1033.0845 
  141500    298.50907            0    3196.5485    6384.6977    1057.7761 
  141600     302.6088            0    3343.9368    6575.8721    1059.9659 
  141700    298.22177            0    3213.1662    6398.2471    1003.0167 
  141800    306.03443            0    3268.4889    6537.0108    1100.4121 
  141900    299.98056            0    3165.9704    6369.8355      1021.25 
  142000    291.55079            0    3254.0416    6367.8748    1029.4892 
  142100     300.9105            0    3271.4943    6485.2915    1023.8536 
  142200    297.58587            0    3220.3507    6398.6399    992.58901 
  142300    302.65657            0    3275.2834    6507.7289    1035.7705 
  142400    303.41341            0    3216.1823    6456.7111    1041.8971 
  142500    299.94398            0    3239.0989    6442.5733    1030.2428 
  142600    296.44011            0    3300.4396    6466.4919     1036.713 
  142700    301.44056            0    3255.1687    6474.6269    1061.8769 
  142800    296.02233            0    3262.5168     6424.107     1055.166 
  142900    300.49727            0    3163.7856    6373.1693      1020.02 
  143000     300.4511            0     3213.171    6422.0616    1028.8745 
  143100    301.64648            0    3269.0462    6490.7037     989.6712 
  143200    296.33039            0      3293.55    6458.4304    990.61602 
  143300    304.10473            0    3246.3939    6494.3061    1040.4808 
  143400      299.351            0    3178.0486    6375.1898    983.76986 
  143500    293.33354            0    3257.2147    6390.0881    1008.4805 
  143600    304.32398            0     3302.728    6552.9819       1040.9 
  143700    297.29602            0      3209.15    6384.3435    1025.2756 
  143800    302.91148            0    3199.0811    6434.2491    1013.8732 
  143900    301.68773            0    3306.4741    6528.5722       1031.7 
  144000    301.45145            0    3274.5384     6494.113    1040.1368 
  144100    296.53204            0    3170.4685    6337.5026    1045.8698 
  144200    302.32944            0    3215.8004    6444.7521    1066.6316 
  144300     298.4978            0     3283.159    6471.1879    1058.8088 
  144400    307.15946            0    3225.8304    6506.3679     1057.627 
  144500    300.28228            0     3335.164    6542.2515     1155.802 
  144600    299.00663            0    3271.4307     6464.894    1114.1238 
  144700    297.66097            0    3174.9135    6354.0048    1008.1932 
  144800     305.2119            0    3201.6605    6461.3975      1018.03 
  144900    290.09395            0    3321.3276    6419.6014    1076.3945 
  145000    301.77495            0    3220.2854    6443.3151    1044.7394 
  145100    291.48357            0    3205.6749      6318.79      1037.14 
  145200    304.48586            0     3173.555    6425.5378    986.15424 
  145300    294.54232            0    3247.2908    6393.0742    1018.4933 
  145400    300.28612            0    3275.2447    6482.3732    1017.1588 
  145500    301.81767            0    3250.1788    6473.6647    1036.1757 
  145600    300.41841            0    3275.8483    6484.3897    1075.9723 
  145700    290.87348            0    3271.1509    6377.7502    1038.7665 
  145800     304.5095            0    3201.7614    6453.9966    1023.8984 
  145900    301.58715            0     3185.345    6406.3689    1034.5604 
  146000    300.64666            0      3314.65    6525.6292    1035.2827 
  146100    297.67141            0    3253.3985    6432.6014    999.16933 
  146200    290.82811            0    3252.5589    6358.6736    1015.6027 
  146300    301.85552            0    3256.2468     6480.137    1020.9636 
  146400    292.06576            0    3219.2149     6338.548      1019.87 
  146500    302.85307            0    3247.3642    6481.9084     1061.217 
  146600    297.86507            0    3243.4284    6424.6995    1055.6517 
  146700    303.93914            0    3227.5253     6473.669    1026.9119 
  146800    299.80228            0    3227.7071     6429.668    1057.6789 
  146900    295.40334            0    3249.5915    6404.5708    1048.6923 
  147000    306.76953            0     3270.342    6546.7149    1044.5079 
  147100    294.07292            0     3255.854    6396.6241    1007.4603 
  147200    300.68437            0    3276.7176    6488.0996    1055.8276 
  147300    300.77513            0    3225.1116    6437.4629    1031.5507 
  147400    296.60207            0    3133.4499    6301.2319    973.10161 
  147500    300.36265            0    3331.7481     6539.694    1103.0766 
  147600    299.09044            0    3206.7117    6401.0701    1035.5467 
  147700    306.86742            0    3255.8767    6533.2951     1056.517 
  147800    295.15031            0    3271.6815    6423.9584    1026.7886 
  147900    292.71142            0    3225.1423    6351.3713    1062.3791 
  148000    292.93677            0    3161.4035    6290.0392    980.83115 
  148100    299.59773            0    3277.1938    6476.9702    1055.4488 
  148200    296.14617            0    3327.1498    6490.0627    1065.0721 
  148300    302.04773            0    3236.2578    6462.2008    972.64347 
  148400    298.65547            0    3262.6239    6452.3367    1026.7296 
  148500    302.41164            0    3179.5749    6409.4045    1065.8157 
  148600    299.02811            0     3183.481    6377.1737    1019.6178 
  148700    301.20305            0    3265.1776    6482.0992     1044.178 
  148800     297.7239            0    3351.2603    6531.0237    1100.1069 
  148900    300.59378            0    3200.6476     6411.062     1028.997 
  149000    300.75381            0    3186.7394     6398.863    997.27497 
  149100    294.69914            0    3267.9221    6415.3803    1079.8966 
  149200    307.28911            0    3312.4024    6594.3245     1090.554 
  149300    303.19535            0    3230.2263    6468.4262    1013.7486 
  149400    297.03567            0    3250.0989    6422.5118    1020.4185 
  149500    311.53703            0    3330.0205    6657.3115     1057.191 
  149600    299.49966            0    3235.7269    6434.4559    974.67673 
  149700    301.56294            0    3200.1293    6420.8945    1061.7784 
  149800    301.26542            0     3269.938    6487.5257    1051.4946 
  149900     301.0704            0    3268.7537    6484.2585    1015.1556 
  150000    301.34598            0    3250.3277    6468.7758    1037.1257 
  150100    297.05628            0    3206.2978    6378.9309     1035.989 
  150200    304.42295            0    3240.6653    6491.9762    1081.0415 
  150300    301.36861            0     3226.249    6444.9388    1050.0689 
  150400    300.67924            0    3270.4909    6481.8181    1085.6172 
  150500    294.38652            0    3292.9101    6437.0294    1082.6401 
  150600    296.38178            0    3262.9053    6428.3346    1048.1307 
  150700    300.93837            0    3218.6246    6432.7193    1010.5919 
  150800     295.9501            0    3292.3851    6453.2039    1061.1238 
  150900     298.6167            0    3160.7062     6350.005    1012.9299 
  151000    290.52344            0    3256.4345    6359.2952    1024.8568 
  151100     305.3725            0    3245.0553    6506.5076    1019.7916 
  151200    295.70359            0    3230.2228    6388.4088    1000.3883 
  151300    295.21333            0    3253.9309    6406.8808    1026.0155 
  151400    293.55457            0    3219.0063    6354.2402    961.42449 
  151500    299.79595            0    3249.6053    6451.4987    986.59431 
  151600    304.23832            0    3245.3479     6494.687    1033.6574 
  151700    295.45522            0    3226.0593    6381.5927     992.3805 
  151800    308.64163            0    3226.5149    6522.8823    1028.8903 
  151900    302.24373            0    3231.1051    6459.1415    1007.2404 
  152000    299.00825            0    3297.4041    6490.8848    1047.4492 
  152100    298.93593            0    3171.0179    6363.7261     997.9351 
  152200    300.19249            0    3209.4878    6415.6164     1047.703 
  152300    299.29966            0    3210.1313    6406.7242    1056.7898 
  152400    297.84022            0    3272.6255    6453.6313    1099.4074 
  152500    299.45322            0    3191.4537    6389.6867     1065.802 
  152600    306.90167            0     3280.726    6558.5102    1071.1478 
  152700    303.12438            0    3310.2973    6547.7391     1091.028 
  152800    295.83947            0     3280.538    6440.1753    1079.6893 
  152900    300.65293            0    3243.6644    6454.7106     1063.762 
  153000    299.33571            0    3215.3854    6412.3633    1062.0318 
  153100    297.98168            0    3284.9903    6467.5069    1063.2892 
  153200    298.04616            0    3279.2837     6462.489    989.80244 
  153300    302.19475            0    3299.2123    6526.7255    1049.6044 
  153400    295.53914            0    3229.2025    6385.6322    1019.8425 
  153500    309.12668            0    3167.9312    6469.4791    1048.0534 
  153600    301.31947            0    3274.8006    6492.9655    1080.5749 
  153700    296.23587            0    3309.5009    6473.3718    1093.0306 
  153800    303.56786            0    3237.3102    6479.4885    1026.6591 
  153900    293.34593            0    3235.7248    6368.7305    1025.5698 
  154000    297.97068            0     3273.108     6455.507     1037.173 
  154100    304.55419            0    3179.9445     6432.657    968.14445 
  154200    301.37079            0    3267.6068    6486.3199    1053.8893 
  154300    292.36913            0     3211.778    6334.3512    1058.2146 
  154400    301.03981            0    3188.2739     6403.452    1014.7422 
  154500    299.99321            0    3317.5152    6521.5153    1095.4986 
  154600    295.64966            0    3262.3911    6420.0011    1095.7032 
  154700    301.97653            0    3220.7731    6445.9556     1064.813 
  154800     306.0283            0    3277.8722    6546.3286    1101.8127 
  154900    300.34452            0    3287.1433    6494.8957    1110.6038 
  155000    299.14251            0    3221.1638    6416.0784    1021.2521 
  155100     295.7896            0    3279.9372    6439.0418    1051.5829 
  155200    299.62643            0     3288.699    6488.7819    1117.7501 
  155300    297.69027            0    3184.2626    6363.6668     1008.065 
  155400    300.53956            0    3201.7994    6411.6347    1032.0538 
  155500    293.97138            0    3246.1348    6385.8204    1021.4513 
  155600    303.76679            0      3263.11     6507.413    1066.0413 
  155700    299.77266            0    3302.9926    6504.6373    1057.1463 
  155800    302.33472            0    3109.7881    6338.7962    1019.9167 
  155900    307.60658            0    3273.7781    6559.0909    1086.5343 
  156000    298.74596            0    3309.1479    6499.8272    1029.3467 
  156100    310.17257            0    3244.8799    6557.5982    1065.1906 
  156200    296.75704            0    3232.5869     6402.024     1097.301 
  156300    302.37682            0    3272.5796    6502.0374    1089.8791 
  156400    303.70967            0    3167.9195    6411.6124    1020.1939 
  156500    295.21267            0    3257.1596    6410.1025    1027.3425 
  156600    303.30934            0    3314.9584    6554.3757    1026.8928 
  156700     299.7492            0    3308.1634    6509.5574    1040.6198 
  156800    297.97602            0       3177.8    6360.2562    1025.3866 
  156900    302.54029            0    3230.0413    6461.2449    1085.5751 
  157000     296.1883            0    3262.7997    6426.1626     1018.048 
  157100     301.6139            0    3254.7788    6476.0883     1020.603 
  157200    295.08156            0     3273.026    6424.5685    1088.9234 
  157300    299.23081            0    3163.3223    6359.1798    1018.3098 
  157400    295.92459            0    3221.3515    6381.8979    1018.8744 
  157500    297.52803            0    3237.3606    6415.0321    1059.6642 
  157600    303.03144            0    3271.3401    6507.7893    1042.2428 
  157700    300.86489            0    3142.7395    6356.0495    980.41026 
  157800    303.39096            0    3287.6505    6527.9395    1118.5901 
  157900    301.18805            0    3301.6037    6518.3652    1083.5426 
  158000    298.52029            0    3279.5048    6467.7739    1081.0765 
  158100     301.4678            0    3195.8668    6415.6161    1036.9256 
  158200    302.64797            0    3230.7822    6463.1359    1067.7227 
  158300    302.21341            0    3281.2142    6508.9267    1088.2641 
  158400    299.18669            0    3246.2588    6441.6452    1076.9482 
  158500    306.50398            0    3171.8387    6445.3755    1059.3855 
  158600    298.77411            0    3285.7841     6476.764    1083.6284 
  158700    301.61484            0    3199.4484     6420.768    1038.2262 
  158800     301.0527            0    3199.9475    6415.2634    1076.3759 
  158900    295.25764            0    3274.3301    6427.7532    1104.8006 
  159000    299.25574            0     3243.243    6439.3669     1061.401 
  159100    304.35642            0    3174.1081    6424.7084    1020.3328 
  159200    299.30056            0    3287.8125    6484.4151    1082.9693 
  159300    298.23003            0    3298.8983    6484.0674     1016.996 
  159400    300.44192            0    3288.8236    6497.6161    1021.2732 
  159500    293.70913            0    3191.7677    6328.6524    1029.3362 
  159600    302.55982            0    3265.4285    6496.8407    1053.4264 
  159700    291.86322            0    3245.1115    6362.2815     1010.433 
  159800    301.86916            0    3197.1047    6421.1406    1038.3172 
  159900    301.54139            0    3289.2758     6509.811    1056.9103 
  160000    301.84368            0    3344.9835    6568.7472    1013.5642 
  160100    297.71395            0    3280.3829    6460.0401    1017.8274 
  160200     301.2449            0    3248.6234     6465.992    1041.2261 
  160300    294.22602            0    3234.1623    6376.5675    1052.9416 
  160400     303.0055            0    3251.5558    6487.7279    1072.5892 
  160500    301.67471            0    3270.2531    6492.2122    1065.8849 
  160600     302.2243            0    3256.9385    6484.7673    1033.7272 
  160700    305.00933            0    3306.7041    6564.2778     1062.012 
  160800    295.23504            0    3175.1595    6328.3413    1011.7299 
  160900    303.98134            0     3262.799    6509.3934    1077.5874 
  161000    302.06915            0    3216.8542    6443.0259    1033.1304 
  161100    287.03207            0    3239.0508    6304.6229    1024.8259 
  161200    297.37488            0    3271.6087    6447.6445    1086.7549 
  161300    306.81537            0    3300.6971    6577.5597    1079.0384 
  161400    295.55405            0    3172.6505    6329.2394    1013.7772 
  161500    297.93206            0    3217.3152    6399.3019    1043.8161 
  161600    302.10617            0    3284.4425    6511.0096    1060.1966 
  161700    291.60223            0     3226.769    6341.1515    1025.0561 
  161800    300.79961            0    3203.8327    6416.4455    1069.5113 
  161900    302.35814            0    3200.3048    6429.5631    1065.8483 
  162000    296.78731            0    3275.4946     6445.255    1013.4843 
  162100    307.34048            0    3238.5733    6521.0441    1032.0775 
  162200    299.69366            0    3189.8724    6390.6734    1029.3387 
  162300    298.59698            0    3233.9962    6423.0843    1020.0688 
  162400    303.04961            0     3263.204    6499.8473    1042.8672 
  162500    300.18211            0    3271.1166    6477.1342    1074.4897 
  162600    305.05844            0    3268.8865    6526.9846    1059.0064 
  162700    297.58451            0    3199.8791    6378.1538    1047.1077 
  162800    301.48516            0    3215.7773    6435.7119    1092.4048 
  162900     304.2729            0    3212.8289    6462.5372    1038.0698 
  163000    300.01922            0    3298.8597    6503.1377    1072.5112 
  163100    301.43502            0    3240.4169     6459.816    1078.7775 
  163200    297.03111            0    3245.6528    6418.0171    1028.9916 
  163300    309.27181            0    3232.2861     6535.384    1030.6803 
  163400    304.18932            0    3289.0718    6537.8875    1078.3635 
  163500    302.03288            0    3248.4686     6474.253    1040.2258 
  163600    296.35066            0    3223.0435    6388.1404    1036.0042 
  163700    308.23284            0    3217.0912    6509.0926    1039.4234 
  163800    304.21516            0    3261.8911    6510.9827    1072.9111 
  163900    296.29602            0    3291.0295    6455.5428    1044.9156 
  164000    301.32543            0    3266.4482    6484.6768    1011.2478 
  164100     306.5443            0    3279.7522    6553.7196    1062.2363 
  164200    301.43171            0    3165.7981    6385.1618    1030.5348 
  164300    303.45929            0    3206.4771    6447.4959    1040.0824 
  164400    291.70259            0    3252.9185    6368.3729    1060.9314 
  164500    305.83663            0    3330.6605    6597.0699    1062.6205 
  164600    293.44671            0    3311.5952    6445.6772    1050.0353 
  164700     297.7635            0    3225.6924    6405.8787    1084.4665 
  164800    304.33465            0    3231.3004    6481.6683    1101.1509 
  164900    302.87845            0     3199.074    6433.8893    1008.3029 
  165000    297.71168            0    3291.4558    6471.0887    1076.6579 
  165100    307.29728            0    3266.1018    6548.1113    1077.6577 
  165200    292.88493            0    3174.0828    6302.1649    975.04021 
  165300    295.76101            0    3280.0116    6438.8109    1076.4367 
  165400    301.58323            0    3279.2237    6500.2057    1075.1989 
  165500    298.69871            0    3225.1814     6415.356    1051.1586 
  165600    300.29856            0    3239.3869    6446.6483    1062.9448 
  165700    298.58544            0    3313.0574    6502.0222    1113.0441 
  165800    295.99522            0    3286.4099    6447.7105    1071.1182 
  165900    308.03585            0    3171.6166    6461.5142    1056.0286 
  166000    294.67808            0    3228.3091    6375.5424    1054.1932 
  166100     302.2732            0    3254.5299    6482.8809    1057.2574 
  166200    299.73019            0     3230.815    6432.0061    1053.1217 
  166300    295.96737            0    3229.4596    6390.4628    1053.1527 
  166400    305.62254            0    3277.9948    6542.1176    1032.2238 
  166500    295.48142            0    3294.5745    6450.3877    1070.3458 
  166600    298.68142            0    3153.0285    6343.0185    1011.2374 
  166700    299.00254            0    3210.8856    6404.3053    1046.8082 
  166800    291.38498            0    3269.6642    6381.7265    1083.1998 
  166900    300.81673            0    3202.7981    6415.5937    1047.2804 
  167000    297.63307            0     3233.261    6412.0543    1043.7082 
  167100      299.668            0    3237.1423    6437.6692    1092.5813 
  167200    293.05611            0    3213.0915    6343.0018     1069.632 
  167300    303.16722            0    3237.1458    6475.0452    1057.8678 
  167400     297.7117            0    3254.0563    6433.6895    1042.0735 
  167500    305.90783            0    3206.0874    6473.2572    1042.0948 
  167600    298.87181            0    3232.5567      6424.58    1052.9234 
  167700    297.02211            0    3285.4243    6457.6924    1030.9676 
  167800    297.68616            0    3249.3184    6428.6787    1013.9119 
  167900    302.25769            0    3276.3035    6504.4889    1031.7282 
  168000    301.87021            0     3258.535     6482.582    1022.0232 
  168100    305.26929            0    3247.0713    6507.4213    1028.5504 
  168200    300.25752            0    3249.8107    6456.6338    1031.0972 
  168300    303.78661            0    3251.5885    6496.1031    1017.6639 
  168400    295.97114            0    3213.9405    6374.9839    1048.1506 
  168500    301.92372            0    3260.4377    6485.0562    1069.9789 
  168600    290.41457            0    3324.6124    6426.3103    1056.4285 
  168700    303.34584            0    3327.7364    6567.5435    1025.3476 
  168800    297.49053            0    3155.2565    6332.5275    930.79827 
  168900    299.47535            0    3216.3893    6414.8586    975.39214 
  169000    292.02127            0    3204.2288    6323.0867     1013.305 
  169100    301.35955            0    3258.7558    6477.3489    987.27624 
  169200    293.56378            0    3309.4605    6444.7929    1017.3635 
  169300    300.33929            0    3223.8781    6431.5746    1022.0825 
  169400    295.32832            0    3173.6048    6327.7828    1041.4127 
  169500    303.52463            0    3219.5733      6461.29    1035.1368 
  169600    300.09645            0    3291.0492     6496.152    1058.0749 
  169700    307.56197            0    3241.5851    6526.4214    976.02132 
  169800    295.01545            0    3263.0525     6413.889    1026.3418 
  169900     301.5238            0    3184.0281    6404.3754    1008.8764 
  170000    304.34097            0    3266.3599    6516.7952    1011.7438 
  170100    299.26863            0    3259.1773    6455.4388    1045.6991 
  170200    294.81047            0     3230.954    6379.6012    1026.5478 
  170300    299.15794            0    3234.5478    6429.6271    1008.5226 
  170400    308.60271            0    3176.0566    6472.0083    1029.2588 
  170500     295.2019            0      3265.63    6418.4579    1063.5113 
  170600    296.28812            0    3219.5808    6384.0097    980.41896 
  170700    291.54164            0    3226.2111    6339.9465    946.55683 
  170800    300.98928            0    3345.2865    6559.9249    1084.8464 
  170900    299.61347            0    3177.3847    6377.3292    952.40906 
  171000    296.16358            0    3231.9372     6395.036    983.39026 
  171100    305.09498            0    3221.0848    6479.5732    1023.3094 
  171200    301.19298            0    3299.6564    6516.4704    990.30219 
  171300    298.69321            0     3258.663    6448.7789    993.42722 
  171400    297.42574            0    3113.9731     6290.552    995.85415 
  171500    299.83835            0    3269.6666    6472.0128    1022.2153 
  171600     304.1443            0    3271.5407    6519.8755    988.49013 
  171700    307.00301            0     3236.885    6515.7516    981.18065 
  171800    296.04476            0    3318.7885    6480.6183    1024.6165 
  171900    296.70868            0    3250.5413     6419.462    997.64673 
  172000    294.80646            0    3186.9669    6335.5714      1039.48 
  172100    295.90768            0    3181.1556    6341.5213    998.39383 
  172200     310.3284            0    3368.9896    6683.3722    1045.2384 
  172300    295.76281            0    3192.1269    6350.9454    1013.1671 
  172400    302.69488            0    3162.5322    6395.3869    1026.5624 
  172500    300.49437            0    3265.6627    6475.0154    1061.3119 
  172600    303.49812            0    3238.8475     6480.281    1033.9517 
  172700    300.56079            0    3220.7826    6430.8447    1032.2479 
  172800    306.05121            0    3254.7402    6523.4413    1009.2325 
  172900     299.2618            0    3298.1798    6494.3683    999.27268 
  173000    295.67068            0    3234.3622    6392.1967    1044.7268 
  173100    305.47538            0     3296.163    6558.7141    1055.6729 
  173200    295.79379            0    3273.4951    6432.6445    1042.5889 
  173300     300.7627            0    3211.1755     6423.394    1063.0353 
  173400    297.85196            0    3209.2428    6390.3739     1041.217 
  173500    297.42564            0    3255.0976    6431.6756    1054.2431 
  173600    304.60491            0    3304.4526    6557.7069    1070.4272 
  173700      294.266            0    3231.6318     6374.464    982.91001 
  173800    303.22169            0    3177.0405    6415.5216    982.80023 
  173900    302.66942            0    3257.7796    6490.3625    1018.8804 
  174000    308.36213            0    3179.7913    6473.1736    975.92439 
  174100    294.85756            0    3246.5124    6395.6626    1019.2148 
  174200    302.36482            0    3273.9812    6503.3108    1023.1478 
  174300    300.51247            0    3240.3283    6449.8744    1035.2173 
  174400    296.97209            0     3228.329    6400.0629    1019.6106 
  174500    297.43745            0    3240.2326    6416.9367     1050.341 
  174600    296.89577            0    3245.1874    6416.1062    1056.7065 
  174700    303.02026            0    3257.2462    6493.5761    1076.6877 
  174800    301.45546            0    3255.2363    6474.8537    1041.3115 
  174900    296.45921            0    3285.5385    6451.7948    1046.2069 
  175000    307.50002            0    3257.3547    6541.5294     1043.593 
  175100    295.87716            0    3248.8329    6408.8727    1031.4417 
  175200    301.49522            0    3178.6663    6398.7083     1049.209 
  175300    306.89774            0    3290.4609    6568.2032    1099.7708 
  175400    297.36857            0    3274.6005    6450.5689    1027.3446 
  175500    299.25337            0    3280.1898    6476.2883    1053.2496 
  175600    305.74187            0    3181.6392    6447.0365    1047.6728 
  175700    298.13824            0    3222.9299    6407.1186    1032.0551 
  175800    299.22047            0    3269.7749     6465.522     1054.863 
  175900    308.89137            0    3232.3577    6531.3924    1044.8709 
  176000    302.29777            0    3244.3392    6472.9527    1015.9804 
  176100    304.00818            0    3203.2046    6450.0856    971.66892 
  176200    299.30885            0    3317.6468     6514.338    1052.1977 
  176300    295.81286            0    3321.9667    6481.3197    1008.3045 
  176400    300.58506            0    3223.0136    6433.3349    1006.8042 
  176500      295.703            0    3183.7013    6341.8811    1020.3822 
  176600    305.10857            0    3219.2319    6477.8655    1038.0478 
  176700    300.01259            0    3221.3788     6425.586    1029.3354 
  176800     301.0266            0    3271.9667    6487.0037    1028.1369 
  176900    301.98264            0    3252.1195    6477.3673    974.44905 
  177000    297.61643            0    3267.6437    6446.2594    1006.8094 
  177100    300.96384            0    3142.1418    6356.5086    968.92359 
  177200      301.667            0    3231.3197    6453.1964    1039.4673 
  177300    303.11924            0    3281.9837    6519.3706    1022.1474 
  177400    292.66153            0    3235.4809    6361.1769    1029.1491 
  177500    292.82532            0    3242.7317    6370.1771    995.06455 
  177600     301.0155            0    3238.7249    6453.6433    1089.0575 
  177700    295.20854            0    3141.5246    6294.4234    1051.9044 
  177800    297.99597            0    3192.6284    6375.2976     1037.759 
  177900    301.02054            0     3310.592    6525.5643    1034.3807 
  178000    299.83308            0     3247.021     6449.311     1042.692 
  178100    296.66623            0    3202.1755    6370.6428    1037.2048 
  178200    301.89532            0    3258.5587    6482.8739    1057.6462 
  178300    300.64154            0    3295.3169    6506.2414    1106.7319 
  178400     296.5818            0    3228.8346    6396.4001    1060.6436 
  178500    304.91222            0    3242.0024    6498.5388    1045.9033 
  178600     296.2886            0    3230.1487    6394.5828    1056.3249 
  178700    305.60183            0    3219.5653     6483.467     1073.847 
  178800    294.33277            0    3296.4107     6439.956    1060.5357 
  178900    299.62996            0    3256.4161    6456.5367    1071.2342 
  179000    301.60321            0    3219.1454    6440.3408    1096.8351 
  179100    295.92236            0    3174.9225     6335.445    1042.7304 
  179200    308.13007            0    3265.2757    6556.1795    1015.3794 
  179300    297.89498            0    3229.1821    6410.7727    974.23524 
  179400    298.96002            0    3328.5217    6521.4872    1005.0082 
  179500    295.75785            0    3320.0093    6478.7748    1023.0051 
  179600    295.10339            0    3286.2434    6438.0191    1026.6334 
  179700    294.55915            0    3248.0012    6393.9643    1020.9844 
  179800    308.83688            0    3200.9096    6499.3624     1039.288 
  179900    294.67547            0    3245.7421    6392.9475    1067.8907 
  180000    303.24028            0    3249.9842    6488.6639    1056.9632 
  180100    302.96958            0    3331.4245     6567.213    1052.2757 
  180200    301.84733            0    3278.1689    6501.9716     1049.224 
  180300    291.77581            0    3260.9871    6377.2235    1097.6261 
  180400    303.55906            0    3262.1763    6504.2607    1074.6177 
  180500    295.94673            0    3226.4285    6387.2113    1065.3123 
  180600    297.57111            0    3266.5266    6444.6582    1129.7288 
  180700    292.33391            0    3256.7596    6378.9566    1071.4487 
  180800    294.82358            0    3268.0033    6416.7905    1049.6013 
  180900    303.81907            0    3202.2535    6447.1149    1063.5667 
  181000    303.81372            0    3215.0474    6459.8516    1033.4362 
  181100    294.62439            0     3271.829    6418.4889    1041.6148 
  181200    305.65039            0    3235.9894    6500.4096     1072.725 
  181300    304.84363            0    3188.0086    6443.8125    1054.0136 
  181400    304.90861            0    3262.6576    6519.1554    1094.2921 
  181500    298.14913            0    3273.3432    6457.6482    1048.5415 
  181600    300.98911            0    3221.1676    6435.8043    1024.5525 
  181700    297.60484            0    3218.6466    6397.1385    1028.5646 
  181800    302.29065            0    3286.2969    6514.8344    1058.9807 
  181900    296.66041            0    3226.1059     6394.511    1023.2465 
  182000    298.36537            0    3250.4685     6437.083    1067.5392 
  182100    294.27964            0    3299.2957    6442.2736    1091.9055 
  182200    300.69222            0    3266.0261    6477.4919    1038.6933 
  182300    301.71222            0    3308.7369    6531.0966    1086.2504 
  182400    308.17458            0    3255.9524    6547.3316    1058.0438 
  182500     301.7735            0    3252.2448     6475.259    1050.6119 
  182600    296.67888            0    3205.0718    6373.6741    1105.1045 
  182700    302.59687            0    3258.9142    6490.7221    1050.5095 
  182800    303.84985            0    3218.5245    6463.7146      1012.76 
  182900    305.11828            0    3224.0776    6482.8148    1067.3537 
  183000    291.39982            0    3270.5986    6382.8193     1035.567 
  183100     301.0867            0    3259.3995    6475.0785    1004.3415 
  183200     295.0304            0     3230.321    6381.3171    1037.9681 
  183300    301.11641            0    3202.6684    6418.6647     1041.185 
  183400    304.04487            0    3203.6596    6450.9325    1063.7033 
  183500     296.6611            0    3292.1255     6460.538    1083.0359 
  183600     306.8285            0    3289.5713     6566.574    1106.4633 
  183700    297.59913            0     3187.123    6365.5539    1047.0601 
  183800    300.06672            0    3185.3961    6390.1814    1107.7718 
  183900    299.20346            0    3185.0317    6380.5972    1078.7033 
  184000    306.07055            0    3271.1354     6540.043    1081.6758 
  184100    293.91607            0    3267.9373    6407.0322    1048.1764 
  184200    300.01913            0    3280.7486    6485.0257    1089.7424 
  184300    304.41754            0    3202.2064    6453.4596    1075.0034 
  184400    292.04056            0    3210.4326    6329.4966    1073.0208 
  184500     300.4916            0     3239.023    6448.3461    1030.2441 
  184600     308.7087            0    3237.0001    6534.0838    1045.6983 
  184700    297.94827            0    3296.3943    6478.5541    1063.3579 
  184800    300.93934            0    3266.4187    6480.5238    1094.2572 
  184900    302.28328            0    3165.4633     6393.922    1098.3757 
  185000    295.96083            0    3255.1129    6416.0463    1106.5067 
  185100    302.41287            0    3308.2035    6538.0463    1067.6122 
  185200    298.78371            0    3287.7117    6478.7941    1047.6366 
  185300    302.06698            0    3250.7969    6476.9454    1026.3804 
  185400    301.27648            0    3211.8006    6429.5064    998.33064 
  185500     292.6994            0    3278.8504     6404.951    1010.1539 
  185600    304.01622            0    3231.1029    6478.0699    1024.0434 
  185700    300.22744            0    3303.3375    6509.8393    1086.2019 
  185800    311.17767            0    3189.7693    6513.2223    1052.5588 
  185900    297.04751            0    3236.1941    6408.7335    1045.7236 
  186000    295.23418            0     3264.153    6417.3256    1029.1012 
  186100     305.3189            0    3256.4112    6517.2911    1066.6623 
  186200    297.71748            0    3197.2339    6376.9288    1024.7511 
  186300     299.9264            0    3266.8535    6470.1401    1061.7688 
  186400    302.92446            0    3199.4589    6434.7655       1051.5 
  186500    298.69234            0    3237.1753    6427.2819     1066.177 
  186600    297.22747            0    3139.4159    6313.8774    1003.0669 
  186700     304.0662            0    3215.4174    6462.9181      1048.16 
  186800    306.04212            0    3298.7841    6567.3882    1033.3998 
  186900     297.9324            0    3191.3716    6373.3619    982.99458 
  187000    302.29964            0    3353.5778    6582.2112    1097.8338 
  187100    303.78621            0    3204.5872    6449.0975    1050.4473 
  187200    304.61444            0    3167.3438    6420.6998    1045.9548 
  187300     299.9105            0    3224.7766    6427.8934    1025.6383 
  187400    306.41554            0     3313.574    6586.1663    1006.6305 
  187500    298.81432            0    3251.2833    6442.6927    989.63799 
  187600    294.17252            0    3243.2259    6385.0597    991.44489 
  187700    309.38075            0    3284.3814    6588.6428    1023.6106 
  187800    294.32636            0    3209.5486    6353.0255    979.19731 
  187900    301.27989            0    3240.9882    6458.7305    970.03276 
  188000    293.42415            0    3253.7082    6387.5492    1013.8559 
  188100    301.80569            0    3252.2084    6475.5664    1012.6887 
  188200    294.88449            0    3237.0664    6386.5042    1009.8988 
  188300    307.46859            0    3215.6123    6499.4513    1058.5532 
  188400     297.8786            0    3236.0097    6417.4253    1051.9767 
  188500    301.50618            0     3262.924    6483.0831    1017.4988 
  188600    295.51613            0    3282.4972    6438.6811    1038.1513 
  188700    298.13006            0    3217.3642    6401.4655    1091.6748 
  188800    306.58038            0    3114.8468    6389.1995     1040.532 
  188900    298.17807            0    3327.3592    6511.9733     1075.212 
  189000    310.69143            0     3292.045    6610.3048    1086.9728 
  189100    292.25221            0    3240.4789    6361.8033     1085.921 
  189200    301.93979            0    3188.0966    6412.8867    1024.5771 
  189300    295.71939            0    3275.0148    6433.3696    1043.8281 
  189400    301.71065            0    3206.2506    6428.5935      1018.31 
  189500    294.79012            0    3201.9765    6350.4064    1057.7557 
  189600    305.51238            0    3257.8244    6520.7707    1072.8651 
  189700    297.20579            0    3243.0929    6417.3228    1007.1613 
  189800    300.54489            0    3278.1115    6488.0038    1033.5582 
  189900    307.45048            0    3271.3393    6554.9849    988.63505 
  190000    291.39671            0    3166.5677    6278.7552    912.45264 
  190100    300.62249            0    3234.3724    6445.0934    957.31224 
  190200    297.83692            0    3292.4474     6473.418    1052.0486 
  190300    305.58515            0    3299.1183    6562.8417     1032.135 
  190400    298.48888            0     3297.263    6485.1966    1037.5806 
  190500    302.72897            0    3230.2674    6463.4862     1036.173 
  190600    300.60245            0    3221.7307    6432.2377    1037.9247 
  190700    295.59825            0    3228.7395    6385.8005    954.21723 
  190800    303.11555            0    3302.8756    6540.2231    1004.4304 
  190900     293.3963            0    3268.8551    6402.3987    991.06207 
  191000      310.683            0    3280.6384    6598.8082    1028.4049 
  191100    297.91402            0    3238.3768    6420.1708    1067.7125 
  191200    302.56986            0    3174.9598    6406.4792    1063.0957 
  191300    308.76161            0    3223.6189    6521.2677    1022.1281 
  191400    298.08662            0    3314.6547    6498.2921    1006.1105 
  191500    306.34902            0    3350.0395    6621.9212    1075.2935 
  191600     305.4886            0    3204.8567     6467.549    1021.3316 
  191700    301.78137            0    3219.4164    6442.5145    1051.5445 
  191800    300.12114            0    3186.4461    6391.8126    1073.3722 
  191900    302.59578            0    3266.4185    6498.2147    1074.2776 
  192000    300.76438            0    3231.5876    6443.8241    1038.5738 
  192100    299.20234            0    3180.8587    6376.4123    1039.8033 
  192200    294.51541            0    3190.5488    6336.0448    975.68769 
  192300    304.21644            0    3327.7122    6576.8176    1029.4331 
  192400    298.83301            0    3268.4417    6460.0507    1064.4783 
  192500    299.01907            0    3244.4259     6438.022    1047.0493 
  192600     302.8526            0    3161.7369    6396.2761    989.88629 
  192700    299.99175            0    3275.4978    6479.4824    1037.8764 
  192800    303.44199            0    3354.6528    6595.4868    1050.5713 
  192900    299.83719            0    3193.4035    6395.7373    952.13876 
  193000    298.99792            0    3268.5025    6461.8728    1034.2214 
  193100    299.34777            0    3211.0595    6408.1663    996.56249 
  193200    299.48607            0    3250.9139    6449.4978    952.61059 
  193300    301.25084            0    3253.3293    6470.7612    982.23317 
  193400    305.23664            0    3210.9409    6470.9421    951.86844 
  193500     296.9467            0    3335.9006    6507.3634    965.32257 
  193600    307.57439            0    3260.0537    6545.0227    981.40957 
  193700    306.60207            0    3218.3554    6492.9399     1017.742 
  193800    304.53858            0    3295.8066    6548.3524    1053.2318 
  193900    293.68465            0     3303.713    6440.3362    983.48331 
  194000    303.06786            0    3256.7158    6493.5539    1003.6541 
  194100      295.991            0     3152.191    6313.4467    996.28859 
  194200    297.85559            0    3195.4537    6376.6236    1014.3797 
  194300    306.31788            0       3287.7    6559.2493    1044.5833 
  194400    298.03788            0    3241.3471     6424.464    1031.9126 
  194500    307.87196            0     3217.043    6505.1902    1012.6925 
  194600    296.15844            0    3222.0364    6385.0804     1038.713 
  194700     301.4288            0    3148.1176    6367.4503    1014.2372 
  194800    297.90842            0    3237.3922    6419.1263    1069.6335 
  194900    302.97257            0    3294.0305    6529.8509     1097.384 
  195000     298.8261            0    3257.7326    6449.2678    1066.3833 
  195100    306.77629            0    3149.9592    6426.4043    1022.8655 
  195200    296.33362            0    3230.9014    6395.8163    1033.2965 
  195300    292.28261            0    3247.9091    6369.5582    1021.7304 
  195400    302.27775            0    3253.9117    6482.3113    1067.2608 
  195500    296.35722            0     3230.015    6395.1819    1024.5449 
  195600     303.8193            0    3238.4844    6483.3482    988.55903 
  195700    294.23684            0    3242.8127    6385.3334    1031.7488 
  195800    301.46053            0    3225.3447    6445.0162    1005.3034 
  195900     298.7094            0    3317.4886    6507.7774    1021.6397 
  196000     300.2566            0    3304.2339    6511.0472    975.29777 
  196100    303.37189            0    3232.4141    6472.4994    978.84823 
  196200    292.38023            0    3221.9146    6344.6063    1004.6984 
  196300     303.0131            0    3262.5698    6498.8232    1021.0567 
  196400    294.51303            0    3254.3166    6399.7871    1038.8847 
  196500    307.85074            0     3288.402    6576.3226    1000.3695 
  196600    297.08322            0    3207.5321    6380.4529    955.90047 
  196700    292.80697            0    3275.8618    6403.1112    1012.6888 
  196800    303.50767            0    3223.9095     6465.445    996.44156 
  196900    301.43274            0    3274.8993    6494.2741    1053.3151 
  197000    300.24425            0    3219.0685    6425.7499    1048.6904 
  197100    300.70954            0    3296.4561    6508.1069    1061.6011 
  197200    300.61164            0    3218.2787    6428.8838     962.7271 
  197300     297.9184            0    3169.6574    6351.4982    970.73636 
  197400    304.70926            0    3258.3546    6512.7233    1064.0742 
  197500    295.55674            0    3238.0116    6394.6292    1014.9286 
  197600     307.8924            0    3276.4954    6564.8608    1067.5301 
  197700    298.31264            0    3163.6732    6349.7245    1054.4416 
  197800    294.75459            0    3177.9888    6326.0393    1037.1636 
  197900    303.34677            0    3248.0796    6487.8967    1025.5652 
  198000    298.96242            0    3327.2558    6520.2469    1046.7318 
  198100    303.79467            0    3197.6123    6442.2131    918.94852 
  198200    298.76077            0    3215.5211    6406.3586    908.35129 
  198300    297.07881            0    3275.2952    6448.1689    989.12625 
  198400    308.07153            0    3209.9613    6500.2399    1012.0702 
  198500    301.46633            0    3254.5286    6474.2621    987.34945 
  198600     292.8927            0    3281.4312    6409.5963    1010.4666 
  198700    300.61815            0    3308.0823    6518.7571    1025.1088 
  198800     295.6245            0    3278.0886    6435.4299    990.45378 
  198900     301.7096            0    3085.9504    6308.2821    935.72262 
  199000    298.40113            0    3313.7339    6500.7303    1016.2654 
  199100    303.68789            0    3275.8564    6519.3166    1004.9611 
  199200    295.90376            0    3248.9504    6409.2743    970.91269 
  199300      302.636            0    3175.4199    6407.6458    1009.0723 
  199400    293.63867            0    3279.5291    6415.6612    1035.1154 
  199500    304.29932            0    3245.9551    6495.9456    1024.6938 
  199600    296.78683            0    3214.6899    6384.4452    993.10974 
  199700    297.19109            0    3310.4585    6484.5314    1038.9202 
  199800    300.12106            0    3181.7339    6387.0996    998.17699 
  199900    296.03472            0     3121.632    6283.3546    982.79474 
  200000    303.40474            0     3293.456    6533.8922    1054.7898 
  200100    298.80716            0    3249.7158    6441.0486    990.98576 
  200200     296.9721            0    3220.7425    6392.4766    1032.6933 
  200300    306.97781            0    3212.1175     6490.715     1064.079 
  200400    300.25314            0     3243.138    6449.9143    1027.5479 
  200500    296.98009            0    3282.0522    6453.8716    1032.1442 
  200600    299.33088            0    3227.2889    6424.2152    1019.5667 
  200700     301.0584            0    3177.9309    6393.3076    975.29416 
  200800     303.0176            0    3220.6566     6456.958    998.42836 
  200900    297.08023            0    3309.3677    6482.2566    1022.7238 
  201000    296.37831            0     3281.947    6447.3393    983.43154 
  201100    304.51122            0    3238.7568    6491.0105    943.59793 
  201200    299.01619            0    3322.5994    6516.1648    1051.8744 
  201300    297.03215            0    3244.3215    6416.6968     983.9491 
  201400    306.26949            0    3184.4774    6455.5097    949.54274 
  201500    296.19585            0    3240.8735    6404.3169     1004.068 
  201600    295.51221            0    3234.6493    6390.7913    980.73232 
  201700    301.41952            0    3304.7994    6524.0329    988.49876 
  201800    297.65482            0    3315.3951    6494.4207    1058.3205 
  201900    300.18748            0    3205.9123    6411.9873    1038.3769 
  202000    301.78614            0    3179.9339     6403.083    996.39282 
  202100     292.1551            0    3260.5046    6380.7919    1005.2914 
  202200    303.96225            0    3211.8059    6458.1964    1000.1645 
  202300    295.93191            0    3274.8815     6435.506    960.61219 
  202400    297.95827            0    3294.5848    6476.8513    985.99672 
  202500    299.12114            0    3189.5939    6384.2801    1028.6443 
  202600    306.11144            0    3216.4698    6485.8142    1059.5121 
  202700    301.04414            0    3263.3586    6478.5829     1060.109 
  202800    306.28093            0    3331.3716    6602.5262    1102.6023 
  202900    301.04099            0    3226.5906    6441.7814    1036.3005 
  203000    302.45782            0    3238.6695    6468.9924    1079.8843 
  203100    292.34825            0    3117.3963    6239.7465    1063.6484 
  203200    301.30641            0    3217.6163    6435.6417    1041.9865 
  203300    293.68418            0     3282.237    6418.8553    995.00323 
  203400    306.23918            0    3256.6273     6527.336    1033.5176 
  203500    299.74875            0    3231.1958    6432.5851    1039.7548 
  203600    300.83187            0    3235.8628    6448.8201     1000.189 
  203700    303.27472            0     3263.021    6502.0686    996.03505 
  203800    294.33664            0    3285.2425    6428.8292     990.3981 
  203900    299.41964            0    3215.6445    6413.5188    997.12904 
  204000    299.48378            0    3192.9192    6391.4786    983.28591 
  204100    302.56356            0    3263.4708     6494.923    1015.4458 
  204200    299.38365            0    3294.8935    6492.3834    1018.9272 
  204300    306.82316            0    3220.4928    6497.4385    986.22093 
  204400    297.04095            0    3228.7592    6401.2285     1045.605 
  204500    302.49648            0    3204.7831    6435.5188    1027.9814 
  204600     299.0623            0    3250.8735    6444.9313    1006.5999 
  204700    302.99039            0    3321.0795    6557.0903    1034.6853 
  204800     307.7318            0    3259.8995    6546.5498    1044.2219 
  204900    304.14065            0     3230.101     6478.397    1041.5263 
  205000    291.76578            0    3276.7245    6392.8537    1048.6961 
  205100    297.14927            0    3310.2314    6483.8577    1039.7613 
  205200    303.41441            0     3243.123    6483.6624    1042.4941 
  205300    295.36104            0    3204.1047    6358.6322    1039.0393 
  205400    302.99176            0     3264.267    6500.2925    1053.3006 
  205500    300.17872            0    3258.5606    6464.5421    1040.5041 
  205600    303.69335            0    3235.4711    6478.9897    1060.7965 
  205700    297.76543            0    3232.7632    6412.9702    1044.8958 
  205800    298.62372            0    3255.5137    6444.8874    1065.2292 
  205900    295.11397            0    3211.4658    6363.3546    1056.1909 
  206000    303.85438            0    3283.5988    6528.8373    1107.2843 
  206100    301.05462            0    3211.1964    6426.5328    1034.3944 
  206200    303.37073            0    3263.5962    6503.6692    1120.3976 
  206300    302.25912            0    3234.8648    6463.0654    1075.0628 
  206400    294.42751            0    3243.6784    6388.2356    1053.5362 
  206500    304.77545            0    3265.7627    6520.8384    1080.9722 
  206600    298.05884            0      3203.29    6386.6307    1031.1461 
  206700    305.02876            0    3212.9312    6470.7123    1000.2651 
  206800    304.57917            0    3276.4284    6529.4077    1018.2822 
  206900    299.35366            0    3312.5154     6509.685    1075.3247 
  207000    302.29419            0    3236.5025    6465.0777    1012.6323 
  207100     298.4338            0    3309.8304    6497.1757    1006.2068 
  207200    300.07528            0    3247.0691    6451.9459    1038.7881 
  207300    299.99878            0    3214.2965    6418.3562    1004.5703 
  207400    297.15236            0    3251.6965    6425.3557    1024.1366 
  207500    301.47126            0    3240.1449     6459.931    1077.9991 
  207600     301.9702            0    3260.3448    6485.4598    1097.0998 
  207700    301.30455            0    3286.3518    6504.3574    1079.6441 
  207800    300.33019            0    3269.7258     6477.325    1056.3281 
  207900    307.23154            0    3200.8394    6482.1467    1086.3283 
  208000    300.15477            0    3248.6316    6454.3572    990.60461 
  208100    300.73025            0    3283.3872    6495.2591    1011.5169 
  208200    297.40587            0    3311.9404    6488.3072    1112.0648 
  208300     301.3056            0    3150.6817    6368.6985    1039.1296 
  208400    297.42394            0    3253.3398    6429.8996    1062.3241 
  208500    295.59222            0    3255.2056    6412.2022    1080.3833 
  208600    299.03991            0     3231.634    6425.4527    1070.0111 
  208700    301.83678            0    3195.8678    6419.5578    1003.9849 
  208800    304.22883            0    3276.2362    6525.4739     1116.645 
  208900    296.57092            0    3242.4652    6409.9145    1093.1601 
  209000    297.72794            0    3240.8528    6420.6595     1038.213 
  209100    308.22814            0    3260.5702    6552.5214    1080.9759 
  209200    300.67425            0    3325.0425    6536.3163    1126.3537 
  209300    299.25927            0    3223.1923    6419.3539    1057.3342 
  209400    296.77095            0    3280.6986    6450.2843    1044.1431 
  209500     305.4098            0    3271.8549    6533.7056    1070.8064 
  209600    298.03199            0    3213.3684    6396.4223     997.6746 
  209700    295.89601            0    3264.6527    6424.8937    1034.6387 
  209800    303.76911            0    3268.6301    6512.9578    1064.9015 
  209900    296.64234            0    3300.9524    6469.1645    1071.0711 
  210000    302.06706            0    3240.5105    6466.6599    1027.3564 
  210100    299.44739            0    3143.0235    6341.1942     1017.031 
  210200    299.95751            0    3312.8879    6516.5068    1065.0006 
  210300    302.90237            0    3314.7149    6549.7857    1042.1965 
  210400    299.35898            0    3308.8718    6506.0983    1028.3563 
  210500    304.88644            0    3253.3183    6509.5794    1057.2836 
  210600    293.68651            0    3196.7956    6333.4387    1055.5768 
  210700    301.32988            0    3107.5048     6325.781    988.78547 
  210800    304.28652            0    3299.3154    6549.1692    1068.1106 
  210900     294.4887            0    3311.9905    6457.2012    1083.5532 
  211000    295.12176            0    3196.7626    6348.7345    1018.4011 
  211100    295.59648            0    3246.0424    6403.0845    1074.7531 
  211200    302.59163            0     3272.346     6504.098    1092.4863 
  211300    292.72603            0     3262.321     6388.706    1084.5494 
  211400    305.05825            0    3149.8426    6407.9386    1015.5393 
  211500    292.87551            0     3288.309    6416.2904    1042.2738 
  211600    303.51625            0    3327.8068    6569.4339    1046.6284 
  211700    302.12687            0    3248.8303    6475.6186     994.1641 
  211800    295.85272            0    3169.2291    6329.0079    1039.6258 
  211900    303.40955            0    3188.0383    6428.5258    1029.9161 
  212000    296.24607            0    3310.8521    6474.8319      1047.91 
  212100    304.88296            0    3242.9244    6499.1484    1026.0894 
  212200    299.03541            0    3278.9861    6472.7568    1057.9728 
  212300    304.91587            0    3198.1797    6454.7551     1008.859 
  212400    301.66785            0    3277.6329    6499.5187    1056.6094 
  212500    303.83559            0    3269.5249    6514.5627    1026.3964 
  212600    300.29523            0    3227.7074    6434.9333    1039.1409 
  212700    293.17052            0    3157.3438    6288.4761    1008.2504 
  212800    303.55091            0    3231.5962    6473.5935    992.20586 
  212900    298.17814            0    3316.9929    6501.6077     1026.679 
  213000    298.68694            0    3306.9841     6497.033     1068.136 
  213100    298.42415            0    3215.3673    6402.6096     1025.749 
  213200    302.06198            0    3249.2987    6475.3939    1008.4527 
  213300    297.58588            0    3241.1109    6419.4002    1021.5332 
  213400    294.62728            0    3247.7933    6394.4841    1031.5456 
  213500    302.10751            0    3239.1475    6465.7289    986.79493 
  213600    297.81494            0    3250.9725    6431.7083    1015.4222 
  213700    298.82844            0    3247.6315    6439.1917     1054.307 
  213800    299.74446            0    3216.6027    6417.9462    1023.7311 
  213900    303.14877            0    3204.4544    6442.1568    1020.8528 
  214000    299.45146            0    3244.3605    6442.5747    1055.5681 
  214100    301.68304            0    3218.4401    6440.4881    1050.7134 
  214200    297.26624            0    3204.0877    6378.9632     998.6399 
  214300    296.94684            0     3297.946    6469.4102    1028.2776 
  214400    298.45399            0    3250.3017    6437.8626    986.21384 
  214500    306.49735            0    3210.2971    6483.7631    971.29627 
  214600     294.8236            0     3240.722    6389.5095    1050.6865 
  214700    298.94878            0    3249.0318    6441.8772    1054.2257 
  214800    303.01874            0    3227.2956    6463.6091    1030.5445 
  214900    293.81862            0    3261.7564    6399.8105    1065.4039 
  215000    302.23977            0    3283.3704    6511.3643    1047.2341 
  215100    298.37451            0    3228.2971    6415.0093    1020.8846 
  215200    298.99336            0    3279.2109    6472.5325    1069.8936 
  215300    302.78567            0    3217.5584    6451.3827    1039.8413 
  215400    297.70876            0    3231.7804    6411.3821    1001.8115 
  215500    296.77217            0    3267.9855    6437.5842    1037.6194 
  215600    295.09515            0    3320.2433    6471.9309    1017.1757 
  215700    300.73376            0     3201.587    6413.4964    972.52332 
  215800    299.70669            0    3194.7663    6395.7063    987.46079 
  215900    299.14412            0     3299.595    6494.5267    1061.5129 
  216000    300.68388            0     3194.096    6405.4727    1041.6802 
  216100    305.22283            0    3245.9528    6505.8066    1065.5635 
  216200    294.97724            0    3256.8479    6407.2763    1044.2115 
  216300    301.52797            0    3322.5521    6542.9439    1061.3862 
  216400    293.35419            0    3250.3307    6383.4246    1016.9177 
  216500    303.51231            0     3196.811    6438.3961    1030.7979 
  216600    305.49035            0    3204.1308    6466.8419    1012.9774 
  216700    302.38694            0    3260.9662     6490.532    974.46968 
  216800    299.27413            0    3287.6871    6484.0073    1054.3218 
  216900    299.88566            0    3215.8935    6418.7451    1056.9451 
  217000    301.37877            0    3207.2975    6426.0958    1053.4975 
  217100    302.41487            0    3235.6239     6465.488     1044.949 
  217200    295.69951            0    3304.2757    6462.4181    1079.5744 
  217300      305.368            0    3189.0134    6450.4177    1070.9247 
  217400    299.51775            0    3152.4853    6351.4075    1046.6284 
  217500    300.13786            0    3262.0508    6467.5959    1016.7322 
  217600    300.45205            0    3375.5381    6584.4387    1091.8159 
  217700    302.57443            0    3139.7344    6371.3026    999.68854 
  217800    292.68585            0    3208.6561    6334.6119     1045.108 
  217900    299.43716            0    3209.3018    6407.3633    1053.6044 
  218000    302.95062            0    3283.3625    6518.9485    1051.7527 
  218100    306.90354            0    3244.9656    6522.7697    1047.2656 
  218200    289.45293            0    3214.6586    6306.0861    1049.2848 
  218300    303.89908            0     3253.888    6499.6038    1031.5054 
  218400    297.02741            0     3250.551    6422.8758    961.13122 
  218500     295.9956            0    3308.1103    6469.4151    989.45743 
  218600    306.19195            0    3227.2132    6497.4174    976.29276 
  218700    296.78388            0    3295.6703    6465.3941    965.86837 
  218800    303.26605            0    3233.5219    6472.4768    1006.8894 
  218900    294.90721            0    3213.1563    6362.8367    998.57573 
  219000    300.71247            0    3205.0342    6416.7163    1002.7073 
  219100    307.13279            0    3143.7377    6423.9904    1012.2958 
  219200    295.58243            0    3275.4515    6432.3435    1033.8086 
  219300    302.39412            0    3272.3862    6502.0287     1030.334 
  219400     293.2408            0    3241.6974    6373.5803    1052.5138 
  219500    306.69063            0    3187.8721    6463.4024    1072.6898 
  219600    302.65405            0    3199.4221    6431.8407    1053.7418 
  219700    304.91396            0    3275.6077    6532.1627    1080.1938 
  219800    297.79566            0     3226.404    6406.9339    1082.1686 
  219900    298.23072            0    3166.0542    6351.2306    1042.6747 
  220000    293.05708            0    3202.0746    6331.9953    1016.6526 
  220100    301.99374            0    3234.9872    6460.3536    1039.4654 
  220200    290.32642            0    3264.4093    6365.1658    1020.1794 
  220300    299.08546            0    3249.2956    6443.6008    1029.1802 
  220400    309.03655            0    3231.5145    6532.0998    1053.3245 
  220500    301.45957            0     3296.946    6516.6074    1037.1654 
  220600    294.08079            0    3231.6792    6372.5333    998.91696 
  220700    300.50428            0    3228.0687    6437.5272    1009.2863 
  220800    298.10057            0     3305.398    6489.1843     1023.392 
  220900    299.06825            0    3220.0289    6414.1503    961.60995 
  221000    291.15874            0    3246.1997    6355.8456    984.09031 
  221100    303.25898            0    3294.6717    6533.5512     1005.219 
  221200    296.38291            0    3269.7885    6435.2299    977.69379 
  221300    304.64815            0    3230.4178    6484.1339     992.3781 
  221400    302.10305            0    3219.7996    6446.3333    1003.7221 
  221500    296.21657            0    3233.4082     6397.073    952.17218 
  221600     297.4831            0     3281.676    6458.8677    1008.5888 
  221700    304.64233            0    3265.9209    6519.5748    1038.0159 
  221800    301.92029            0    3188.0288    6412.6107    1024.5783 
  221900    296.48567            0    3270.3371    6436.8759    1064.3704 
  222000    301.11573            0    3159.2297    6375.2186    1030.3506 
  222100    296.00906            0     3202.837    6364.2855    1015.9238 
  222200    304.38241            0    3336.3363    6587.2142    1061.9413 
  222300    294.22649            0    3311.1279    6453.5381    1097.7917 
  222400    302.26556            0    3102.0754    6330.3448     1006.577 
  222500     306.6415            0    3291.3773    6566.3829    1055.0075 
  222600    296.11885            0    3259.8626    6422.4837    1026.2868 
  222700    294.25801            0    3294.2872    6437.0341    1031.1349 
  222800    303.18924            0    3226.8734     6465.008    1050.7488 
  222900    298.28668            0    3209.1646    6394.9387    1059.2221 
  223000    299.75964            0    3313.2274    6514.7331     1066.298 
  223100     308.7476            0    3272.6881    6570.1874     1080.706 
  223200    297.66317            0    3263.3141    6442.4289    1099.4694 
  223300    299.80329            0    3158.6276    6360.5995    1015.4094 
  223400    296.95074            0    3206.0427    6377.5486    1006.5784 
  223500    302.82026            0    3289.6005    6523.7943    1057.0441 
  223600    292.88343            0    3257.0801    6385.1462    1030.2613 
  223700    304.34255            0    3278.0022    6528.4544    1082.7032 
  223800    297.07747            0    3161.0877    6333.9471    1031.3607 
  223900    301.18504            0    3291.6779    6508.4071    1053.6229 
  224000    305.34338            0    3315.7176    6576.8589    1086.6651 
  224100    297.26087            0    3174.8035    6349.6216    1098.0181 
  224200    309.91116            0    3257.0058    6566.9322    1087.9617 
  224300    299.45945            0    3271.2508    6469.5503    1035.1787 
  224400    302.60975            0    3165.7512    6397.6966    1008.0771 
  224500     300.9342            0    3222.0165    6436.0667    1005.8307 
  224600    300.02759            0    3315.1305    6519.4979    1052.3011 
  224700    300.90262            0    3200.6459    6414.3588    1035.2137 
  224800     296.2376            0      3197.03    6360.9194    1017.1686 
  224900    299.12095            0     3313.829    6508.5133    1022.0772 
  225000    301.28967            0    3270.2701    6488.1167    1042.5731 
  225100     295.1579            0     3156.922    6309.2799    1046.1673 
  225200    304.35071            0    3199.7502    6450.2896    1036.9685 
  225300    297.79951            0    3284.4733    6465.0442    1075.4421 
  225400    299.69637            0    3266.0709    6466.9008    1110.6109 
  225500     310.3652            0    3267.4968    6582.2723    1055.2094 
  225600     292.8472            0    3209.6127    6337.2918    999.84837 
  225700    302.66403            0    3168.8334    6401.3587    1023.9732 
  225800    298.83032            0    3241.7353    6433.3156    1041.9492 
  225900    296.51525            0    3311.4751    6478.3299    1000.1447 
  226000    303.27815            0    3235.4637    6474.5478    989.74035 
  226100    302.25292            0    3292.9407    6521.0751    1075.6243 
  226200    303.22928            0    3209.1039    6447.6662    1012.1924 
  226300    297.26206            0     3190.575    6365.4059    1053.7088 
  226400    299.36186            0     3259.073    6456.3302    1103.9513 
  226500    300.75761            0    3250.1674    6462.3316    1006.4355 
  226600     299.1208            0    3254.1729    6448.8556     999.8174 
  226700    301.85725            0    3262.5723    6486.4808    1047.1698 
  226800    292.85721            0     3214.748     6342.534    1001.9578 
  226900    302.30128            0    3285.5995    6514.2504    1002.1488 
  227000    291.78694            0    3258.8553    6375.2106    1036.0944 
  227100    303.19555            0    3203.9947    6442.1966    1042.8562 
  227200    301.36704            0    3281.5543    6500.2273    1018.9414 
  227300    288.43959            0    3269.0484    6349.6532    1022.2743 
  227400     302.6339            0     3241.077    6473.2804    1038.0235 
  227500    297.52105            0    3223.1278    6400.7248    1042.4611 
  227600    296.18382            0    3275.5055    6438.8205     1104.445 
  227700    303.85254            0    3230.9694    6476.1882    1037.8945 
  227800    298.70044            0    3274.1083    6464.3014    1061.7789 
  227900    300.71196            0    3195.6945     6407.371    1042.2679 
  228000    292.74639            0    3228.3222    6354.9246    1043.1742 
  228100    299.88736            0    3263.3609    6466.2306    1081.9399 
  228200    302.93077            0    3247.2658    6482.6399    1039.3222 
  228300     296.5023            0    3194.1561    6360.8726    1010.5123 
  228400    299.25127            0     3240.053     6436.129    1003.8089 
  228500    305.61397            0    3248.6266    6512.6579    1035.2188 
  228600    301.16747            0    3326.6687    6543.2103    1090.9864 
  228700    306.53263            0    3159.0091     6432.852    1019.4559 
  228800     301.7617            0    3280.4267    6503.3148    1071.6539 
  228900    299.30425            0    3293.6527    6490.2946    1038.0728 
  229000    300.13882            0    3231.6939    6437.2493    1044.0301 
  229100    300.08638            0    3244.4123    6449.4075    1080.0468 
  229200    293.38856            0     3274.045    6407.5059    1054.3169 
  229300    302.80424            0    3194.7561    6428.7788    1034.8138 
  229400    300.23583            0    3224.3034    6430.8948    1057.6495 
  229500    299.24246            0    3246.1981    6442.1801    1027.8253 
  229600    303.73997            0    3209.4189    6453.4354    1031.9934 
  229700    301.22982            0    3175.1461    6392.3536    1045.5752 
  229800    290.14025            0    3278.4275    6377.1957    1063.3823 
  229900    301.06159            0    3273.8041    6489.2149    1065.2486 
  230000    299.31745            0    3230.1501     6426.933    1010.4226 
  230100    299.16455            0    3262.4968    6457.6468    1051.8083 
  230200    305.92213            0    3245.0488    6512.3713    1036.0402 
  230300    294.84992            0    3226.3615    6375.4301     1054.033 
  230400    303.76357            0    3235.1963    6479.4648    1043.7988 
  230500    300.22237            0    3202.8847    6409.3324    1011.6402 
  230600    295.61737            0    3261.2019    6418.4671    1028.1872 
  230700      300.414            0    3223.7395    6432.2339    1045.3611 
  230800    299.71107            0    3288.2487    6489.2356    1019.5238 
  230900      301.229            0    3306.9446    6524.1434     1048.656 
  231000    301.21106            0    3151.3732    6368.3804     1029.223 
  231100    302.13175            0    3219.3403    6446.1806    1015.3991 
  231200    294.97965            0    3284.3912    6434.8453    1061.9687 
  231300    301.73705            0    3253.8028    6476.4276    1075.1095 
  231400    303.49078            0    3157.2287    6398.5838    1014.7005 
  231500    303.21991            0    3295.0884    6533.5506    1038.4633 
  231600    299.99832            0     3359.015    6563.0698    1083.9099 
  231700    304.15142            0    3224.4626    6472.8735    1039.3405 
  231800    300.12569            0    3237.3891    6442.8042    1079.1256 
  231900    302.41553            0     3323.502    6553.3732    1089.3595 
  232000    295.63489            0    3259.3215    6416.7738    1022.1276 
  232100    302.72914            0    3264.9309    6498.1515    1002.9695 
  232200    298.98681            0    3171.1928    6364.4445    989.36708 
  232300     299.9184            0    3254.8783    6458.0796     1034.454 
  232400    292.57195            0    3231.4287    6356.1681    1021.0738 
  232500    297.60496            0    3193.7456    6372.2387    1014.3422 
  232600    302.81552            0    3299.2153    6533.3585    1081.9197 
  232700    294.07998            0    3243.7909    6384.6364    1009.5523 
  232800    301.94387            0    3240.4291    6465.2629    1002.5157 
  232900    304.79084            0    3308.5894    6563.8295      1036.91 
  233000     295.0305            0    3287.2942    6438.2914    1052.5594 
  233100    296.64972            0    3221.7775    6390.0684     1010.019 
  233200    295.22111            0    3226.0079    6379.0408    1042.7971 
  233300     303.5693            0    3169.9765    6412.1702    1038.3076 
  233400    302.94172            0    3197.7299    6433.2209    1011.1028 
  233500    301.89764            0    3312.9853    6537.3253    1040.1282 
  233600    296.77046            0    3303.0574    6472.6379     1073.503 
  233700    298.93222            0    3188.2668    6380.9354    1022.1333 
  233800    302.03073            0    3176.3054    6402.0668    1038.4233 
  233900    300.64054            0    3240.9812    6451.8951    1083.5585 
  234000    299.90381            0    3293.8203    6496.8657    1053.5327 
  234100    295.84553            0    3221.2058    6380.9078    945.85899 
  234200    303.59256            0    3276.5989     6519.041    982.05868 
  234300    305.40305            0     3259.983    6521.7616    1017.2182 
  234400    293.52299            0     3155.597    6290.4937    1028.6852 
  234500    302.11339            0    3288.3148     6514.959    1061.7636 
  234600    302.02997            0    3291.1746    6516.9279    1028.3602 
  234700    302.79048            0    3260.5978    6494.4735    965.03357 
  234800    298.08087            0    3232.9037    6416.4797    1011.9251 
  234900    299.03465            0    3278.6297    6472.3923     1019.849 
  235000    301.00297            0    3200.5626    6415.3473    1019.3383 
  235100    300.98215            0     3229.951    6444.5133    1034.3675 
  235200    303.39289            0    3261.5824    6501.8921    1061.2512 
  235300    296.98852            0    3235.7505    6407.6598    1005.5097 
  235400    292.34371            0     3272.318    6394.6198    1057.8511 
  235500    306.04936            0    3206.0853    6474.7666    1041.9768 
  235600    305.71159            0    3271.4703    6536.5442    1014.0949 
  235700    294.87823            0    3266.7497    6416.1206     1056.142 
  235800    304.30575            0    3133.1027     6383.162    995.96996 
  235900    297.99155            0    3275.2723    6457.8943    1041.0514 
  236000    305.17558            0    3259.3068    6518.6559    1032.6184 
  236100    296.33378            0    3206.2551    6371.1717    1078.9845 
  236200    298.92839            0    3137.9213     6330.549    1009.1015 
  236300    300.54256            0    3380.6802    6590.5476    1074.6048 
  236400      295.336            0    3202.6632    6356.9233     1018.689 
  236500    304.57282            0    3244.9066    6497.8181    1141.9134 
  236600    298.53627            0    3222.6984    6411.1382     1020.295 
  236700    297.42492            0    3314.1037    6490.6739    1058.7135 
  236800    310.47089            0    3166.5496     6482.454    1050.2995 
  236900    290.73183            0    3218.1967    6323.2831    1023.0157 
  237000    306.92526            0    3284.8215    6562.8576      1063.66 
  237100    297.45338            0    3216.8479    6393.7221    1033.9468 
  237200    304.92211            0    3290.7156    6547.3577    1026.9747 
  237300      298.179            0    3259.3089    6443.9329     984.7928 
  237400    304.13301            0    3210.3086    6458.5228    1040.1604 
  237500    297.63892            0    3208.4274    6387.2833    1002.0183 
  237600    302.66928            0     3308.518    6541.0993    1053.3868 
  237700    295.32431            0    3234.7907    6388.9259    1070.0889 
  237800    304.03245            0    3208.8852    6456.0255      1078.18 
  237900    298.42822            0    3317.9446    6505.2303    1096.1719 
  238000    301.39999            0    3267.8276    6486.8525    1102.9857 
  238100    301.20687            0    3133.9417    6350.9041    1043.0379 
  238200    294.83181            0    3275.8379    6424.7131    1048.1617 
  238300    299.20827            0    3258.6329    6454.2498    1029.4122 
  238400    305.99884            0    3253.9732     6522.115    1049.6187 
  238500    295.62068            0    3204.3594    6361.6599    995.06697 
  238600    304.60115            0    3249.8657    6503.0798    1035.3422 
  238700    292.47634            0    3228.6821    6352.4004    1009.3355 
  238800    302.13716            0    3219.2682    6446.1663    1006.8971 
  238900    303.84584            0    3300.6165    6545.7637    1032.4089 
  239000    296.24393            0    3257.9356    6421.8926    1049.1209 
  239100    294.44696            0    3190.2733    6335.0382    999.55574 
  239200    301.45525            0    3220.6654    6440.2805    1026.5769 
  239300    297.97556            0      3276.17    6458.6212     1018.625 
  239400    297.94438            0     3255.919    6438.0373    996.16153 
  239500    299.71804            0    3264.8789    6465.9402    1029.3498 
  239600    299.34628            0    3263.7443    6460.8351    1030.5576 
  239700    295.70675            0    3198.6056    6356.8253    976.33119 
  239800    300.01646            0    3267.4588    6471.7074    1029.2336 
  239900    299.24044            0    3283.8406    6479.8011     1059.705 
  240000    303.18735            0    3239.8239    6477.9382    1032.9491 
  240100    295.42101            0    3171.2662    6326.4341    998.40764 
  240200    301.72899            0    3241.5194    6464.0581    1047.9971 
  240300    295.34849            0    3234.5078    6388.9013    1032.8436 
  240400    303.91332            0    3270.4769    6516.3448     1046.761 
  240500    296.09571            0    3284.0888    6446.4628    1037.5912 
  240600    293.70443            0    3199.1857    6336.0202    990.34979 
  240700    301.59274            0    3250.2516    6471.3351    1015.1856 
  240800    296.49599            0    3328.2297    6494.8788     1020.752 
  240900    309.84868            0    3181.4789    6490.7379     967.2831 
  241000     301.2109            0    3272.8752    6489.8807    1023.8795 
  241100    295.89592            0    3188.0377    6348.2778    984.12954 
  241200    302.29702            0    3215.0207    6443.6262    1024.4081 
  241300    295.73269            0    3234.2891     6392.786    1028.9923 
  241400    302.16216            0    3242.6987    6469.8638    1020.8247 
  241500    297.36238            0    3296.0899    6471.9923     1088.986 
  241600    301.27094            0    3272.9332    6490.5799    1082.1528 
  241700    303.67517            0    3202.0785     6445.403     1047.325 
  241800     297.3572            0    3208.9015    6384.7484    1024.4604 
  241900    309.73782            0    3273.0166    6581.0915    1054.4821 
  242000    296.44982            0    3279.5906    6445.7466    1076.9378 
  242100    299.43798            0    3147.9654    6346.0356    984.28478 
  242200    299.40338            0     3293.432    6491.1326    1074.6335 
  242300    305.18307            0    3240.6824    6500.1116    1016.2364 
  242400    297.27609            0    3241.5083     6416.489    991.07018 
  242500    304.45914            0    3258.7043    6510.4017    1041.5977 
  242600    296.53519            0    3269.7705    6436.8381    1084.9369 
  242700    299.32711            0    3230.2231    6427.1093    1030.6168 
  242800     304.4912            0    3177.1582     6429.198    952.86619 
  242900    294.81263            0     3303.974    6452.6444    1069.2703 
  243000     303.1459            0    3239.3323    6477.0039      1013.22 
  243100    298.13099            0    3252.1176    6436.2288    990.12034 
  243200    294.55103            0    3363.7937    6509.6701    1086.1937 
  243300    310.80648            0    3189.9878    6509.4764    1062.0899 
  243400    293.12337            0    3115.1886    6245.8172    1003.3226 
  243500    298.18605            0    3288.8251    6473.5244    1051.8221 
  243600    302.94878            0    3368.3632    6603.9296    1115.5676 
  243700    292.55575            0    3228.3343    6352.9006    1062.4838 
  243800    302.13806            0    3223.5378    6450.4455    1066.2326 
  243900    298.54343            0    3278.6462    6467.1624    1084.0223 
  244000    302.39464            0    3238.6019    6468.2499    1073.5219 
  244100    297.76177            0    3228.7603    6408.9282    1064.3132 
  244200    304.20903            0    3255.7161    6504.7422     1102.703 
  244300    299.78587            0     3234.624    6436.4097    1040.9685 
  244400    305.65831            0    3209.5935    6474.0983    999.55738 
  244500    298.62366            0    3240.4078    6429.7808    1028.5617 
  244600    296.80947            0    3274.2972    6444.2943    1034.9665 
  244700    302.68193            0    3251.0309    6483.7473     1017.083 
  244800    294.74487            0     3243.033    6390.9797    1019.6853 
  244900    302.13863            0    3274.0651    6500.9789     1053.836 
  245000    300.56789            0    3197.9255    6408.0634    1024.6891 
  245100    298.72157            0    3207.5236    6397.9423    1047.2233 
  245200    302.31918            0    3282.1507    6510.9928    1065.2811 
  245300    300.35792            0     3255.525    6463.4205    1007.0345 
  245400    290.49859            0    3188.7857     6291.381    979.87979 
  245500    304.10622            0    3249.8709     6497.799    1026.1031 
  245600    302.44716            0    3229.0891    6459.2981    1024.0546 
  245700    295.56039            0    3227.1289    6383.7855    1014.0085 
  245800    297.94199            0    3265.0434    6447.1361    1059.3742 
  245900    293.53342            0    3282.8315    6417.8396    1047.1213 
  246000    301.57317            0    3234.0015    6454.8761    1023.0987 
  246100    299.70578            0    3188.6036     6389.534    1034.8062 
  246200     300.5528            0    3314.7229    6524.6997    1091.7751 
  246300    296.10609            0    3277.8458    6440.3306    1057.4421 
  246400    301.05142            0    3188.6272    6403.9293    1037.3602 
  246500    289.34013            0    3191.4626    6281.6854    1021.3557 
  246600    303.69708            0    3266.0972    6509.6557    1044.1109 
  246700     305.5962            0    3264.8986    6528.7401    1072.8041 
  246800    294.19216            0    3250.7145    6392.7581    1033.1998 
  246900    299.38227            0    3179.4752    6376.9504    1013.6795 
  247000    299.08107            0    3246.2837     6440.542    1064.4007 
  247100     307.2578            0    3308.2338    6589.8216    1085.0511 
  247200    294.57388            0    3259.8033    6405.9237    1046.0832 
  247300    303.31386            0    3162.4527    6401.9182     983.4152 
  247400    294.54042            0    3260.3447    6406.1078    1029.1354 
  247500    294.77906            0    3276.2927    6424.6045    1027.2933 
  247600    297.79753            0    3184.4956    6365.0454    1045.7348 
  247700    294.72698            0    3226.5359    6374.2915    1035.3246 
  247800    298.79878            0    3169.0321    6360.2755    1014.1419 
  247900     302.3189            0    3321.1168     6549.956    1054.0294 
  248000    306.90788            0     3299.149    6576.9996    1030.1579 
  248100    292.16083            0     3206.926    6327.2745     979.2738 
  248200    305.61972            0    3221.1217    6485.2143    1009.3552 
  248300    295.07109            0    3276.1339    6427.5647     1036.903 
  248400    300.90637            0    3254.1761    6467.9291    1050.4121 
  248500    298.62811            0    3293.9842    6483.4048    1075.1062 
  248600    301.76687            0    3268.9256     6491.869    1007.2349 
  248700    299.28675            0    3234.2758    6430.7308    1011.0623 
  248800    298.44078            0    3225.2074    6412.6273    977.68374 
  248900    301.62212            0    3272.0003    6493.3977    1025.7294 
  249000    292.89026            0    3263.0716    6391.2106     983.6543 
  249100    300.96302            0    3222.5766    6436.9347    1014.6219 
  249200    303.92593            0    3250.5627    6496.5653    1057.7842 
  249300    294.35331            0    3237.5948    6381.3595     1074.146 
  249400    304.81335            0    3256.8834    6512.3639    1082.1217 
  249500    298.12392            0    3237.3229    6421.3587    1049.8075 
  249600    297.44691            0    3262.4552    6439.2602    1037.6924 
  249700    293.95726            0    3211.9412     6351.476    1019.3502 
  249800    298.46692            0     3251.682    6439.3811    1074.2179 
  249900    309.94848            0    3277.7604    6588.0853    1090.9252 
  250000     298.1183            0     3253.137    6437.1128    1019.7679 
  250100    295.69648            0     3172.004    6330.1141    973.67305 
  250200    300.27809            0    3264.3452    6471.3879    1033.6357 
  250300    303.26479            0    3260.7152    6499.6566    1006.5731 
  250400     297.3599            0    3234.4327    6410.3084    1025.8363 
  250500    302.56479            0    3260.3836    6491.8489    1047.0221 
  250600    299.38606            0    3274.2818    6471.7976    1001.6855 
  250700    294.23674            0    3300.8909    6443.4106    1018.9364 
  250800    301.53686            0    3227.3654    6447.8522    1036.0819 
  250900     302.6261            0    3281.4281    6513.5482    1053.8464 
  251000    306.08129            0    3163.8894    6432.9118    1015.8658 
  251100    303.24778            0    3243.3622     6482.122    1021.1296 
  251200    298.35651            0    3245.7719    6432.2917    968.97249 
  251300    298.86058            0    3256.2505    6448.1539    1004.2623 
  251400    302.39561            0    3260.1474    6489.8058    1028.8243 
  251500    297.57031            0    3188.9721    6367.0952    1018.3143 
  251600    300.61336            0    3179.0747    6389.6982    1051.6449 
  251700    297.40891            0    3252.4208      6428.82    1046.3122 
  251800    301.52066            0    3288.4826    6508.7963    1021.1413 
  251900    308.04259            0    3275.5825    6565.5521    1017.6025 
  252000    297.79667            0    3211.8348    6392.3754    1013.8809 
  252100    302.02785            0    3241.4398    6467.1704    1029.4124 
  252200    297.52101            0    3219.0321    6396.6286    1008.3155 
  252300    297.46038            0    3220.3206    6397.2695    1043.9999 
  252400    304.89418            0    3277.7603    6534.1041    1066.9471 
  252500    296.50434            0    3249.5885    6416.3267    1003.5851 
  252600    296.94135            0    3266.1499    6437.5556    1014.2503 
  252700    305.84671            0     3231.464     6497.981    1055.8706 
  252800    300.95345            0    3237.0245    6451.2803    1019.4472 
  252900    295.83828            0    3234.1593    6393.7838    1007.2482 
  253000    294.06068            0    3341.7723    6482.4116    1094.4332 
  253100    305.36241            0    3273.1715    6534.5161    1068.6881 
  253200    299.10049            0    3264.4823     6458.948    1056.1951 
  253300    304.06887            0    3285.2062    6532.7354    1081.0373 
  253400    294.22939            0    3211.3494    6353.7906     1020.882 
  253500    294.58047            0    3235.7804    6381.9712    1013.6668 
  253600    304.89041            0    3311.5001    6567.8036    1086.6853 
  253700    299.59769            0    3231.5552    6431.3311    1045.4253 
  253800    298.81383            0    3215.2686    6406.6727    993.73839 
  253900    297.11599            0    3280.8919    6454.1627    1026.2021 
  254000    298.83235            0    3224.2326    6415.8346    1016.2146 
  254100    306.95914            0    3225.7404    6504.1384    990.30994 
  254200    298.99068            0    3222.4817    6415.7747    979.64568 
  254300    296.72619            0    3269.9399    6439.0475    1037.0042 
  254400     312.7467            0    3249.1547    6589.3652    1010.4547 
  254500    300.28267            0    3267.4956    6474.5873    981.93837 
  254600    288.91076            0    3192.6065    6278.2434    1006.4151 
  254700    301.88995            0    3237.9278    6462.1857    1015.0457 
  254800    298.70907            0    3295.3129    6485.5982    981.87525 
  254900    300.12378            0    3305.6961    6511.0909    1069.5808 
  255000    300.76871            0    3243.1776    6455.4603    1054.0222 
  255100    300.76738            0    3197.5601    6409.8287    987.13839 
  255200    306.81416            0    3258.2483    6535.0979    1049.4629 
  255300    304.37033            0    3251.5064    6502.2552    1031.3164 
  255400    294.89578            0    3186.2903    6335.8487    945.48197 
  255500    306.93716            0    3240.4677     6518.631    1026.2058 
  255600    300.32476            0     3245.003    6452.5443    1067.3105 
  255700    302.34608            0    3193.5734    6422.7029    987.62614 
  255800    299.51307            0    3230.6923    6429.5645    1028.9759 
  255900    298.08335            0    3303.4239    6487.0264    1031.0354 
  256000    294.45583            0    3244.1335    6388.9932    991.66862 
  256100    301.17147            0     3177.379    6393.9633    1011.6628 
  256200    291.43102            0    3162.4768    6275.0307    1036.0879 
  256300     302.8472            0    3228.8995    6463.3811    1012.5289 
  256400    300.03981            0    3323.9526    6528.4505    1037.1853 
  256500    301.43716            0    3205.9774    6425.3994    976.45399 
  256600    301.06913            0    3280.5768    6496.0681    1054.2205 
  256700    302.00222            0    3153.0141     6378.471    1042.5155 
  256800    298.12151            0    3204.9148    6388.9247    1044.4518 
  256900    294.28689            0    3364.4933    6507.5486    1055.1571 
  257000    304.62763            0    3230.1146    6483.6116    999.94053 
  257100    294.93042            0    3186.0654    6335.9938    988.78579 
  257200    296.78686            0    3273.9947    6443.7503    1093.3033 
  257300    306.53964            0    3183.9874    6457.9051    1037.1201 
  257400    293.19209            0    3179.3155     6310.678    1042.5204 
  257500    300.95456            0    3265.1773     6479.445    1045.4168 
  257600    292.67833            0    3327.4801    6453.3557    1007.4989 
  257700    302.19368            0    3262.2479    6489.7497    1009.0232 
  257800    292.58079            0    3283.7541    6408.5879    1058.7138 
  257900      305.014            0    3200.2053    6457.8288    1047.3396 
  258000    289.48886            0    3230.2514    6322.0627    1065.4729 
  258100    301.59498            0    3256.0274    6477.1349    1069.1047 
  258200    295.81381            0     3263.495    6422.8582    1059.5178 
  258300    304.32393            0    3229.3524    6479.6058    1064.4916 
  258400    298.29971            0    3246.6695    6432.5827    1057.2326 
  258500    297.31978            0    3279.6032    6455.0505    1017.2088 
  258600    303.56889            0    3265.2251    6507.4145    1029.0318 
  258700     298.5238            0    3212.7733    6401.0798     1009.525 
  258800    295.80369            0    3311.9652    6471.2203    998.00084 
  258900    302.46871            0    3258.0019     6488.441    981.08525 
  259000    297.11197            0    3247.6336    6420.8615    988.72328 
  259100    301.57522            0    3197.1338    6418.0302    983.88176 
  259200    305.60923            0    3217.8221    6481.8028    1050.7484 
  259300     295.8311            0    3318.2667    6477.8146    1051.5899 
  259400    302.75844            0    3174.1728    6407.7063    1002.7847 
  259500    298.81401            0    3226.2268    6417.6328    1004.9064 
  259600    297.48451            0    3281.4546    6458.6613    1075.5119 
  259700     299.5118            0    3168.4186    6367.2772    995.06619 
  259800    297.83717            0    3235.6716    6416.6447    1009.5702 
  259900    303.62633            0    3292.3408    6535.1436    1062.3136 
  260000    294.48626            0    3203.3751    6348.5597    1004.4395 
  260100    297.11408            0    3222.4996    6395.7499    1016.9711 
  260200    298.89261            0    3184.2278    6376.4733    1008.6502 
  260300    301.49997            0    3208.9277    6429.0205    988.75262 
  260400    300.05402            0    3258.3926    6463.0422    1010.3541 
  260500    297.54911            0    3246.9482    6424.8448    1041.9709 
  260600    301.85604            0    3230.1777    6454.0733    1079.9587 
  260700    286.58967            0    3229.6503    6290.4975    1022.6096 
  260800    300.52725            0     3275.634    6485.3379    1060.5689 
  260900    302.38567            0    3205.2539    6434.8062     1015.067 
  261000    300.38021            0    3297.9838    6506.1172    979.16031 
  261100    296.91143            0    3280.5125    6451.5986    1000.6476 
  261200    305.70915            0    3227.2716    6492.3193    1034.5974 
  261300    299.77902            0     3169.308    6371.0206     964.6442 
  261400    298.72648            0    3298.5317    6489.0029    1023.7913 
  261500    303.83432            0    3239.1962    6484.2205    1043.5889 
  261600    298.89589            0    3218.4758    6410.7563    1027.7997 
  261700     297.3162            0    3190.2881    6365.6972    999.31267 
  261800    300.15746            0    3311.7683    6517.5228    1064.3863 
  261900    290.35274            0    3287.0625    6388.1002    1043.7916 
  262000    299.86169            0     3249.199    6451.7946    1051.2362 
  262100    299.30949            0    3184.4221      6381.12    1024.6114 
  262200    299.95936            0     3258.326    6461.9648    1027.0734 
  262300    296.13391            0    3311.7337    6474.5156    1027.0624 
  262400     307.2392            0    3216.0616    6497.4508    1002.9846 
  262500    302.27366            0    3261.6515    6490.0074    1020.8252 
  262600    298.52187            0    3264.6338    6452.9198     1039.364 
  262700    303.50899            0    3182.5928    6424.1424    1051.6527 
  262800    294.22211            0    3298.9219    6441.2853    1045.9399 
  262900    299.06067            0    3287.5879    6481.6283    972.07232 
  263000    307.19337            0    3256.1793     6537.079    1037.5496 
  263100    300.50141            0    3206.7517    6416.1796    1019.5162 
  263200    303.13019            0    3182.7319    6420.2358    1016.8335 
  263300    294.79242            0    3211.7615     6360.216    1032.9016 
  263400    304.68833            0    3267.1295    6521.2748    1031.9908 
  263500    296.94855            0    3281.6889    6453.1714    992.87006 
  263600    299.48056            0    3222.5523    6421.0773    1029.8863 
  263700    301.67274            0    3195.9204    6417.8584    1039.3035 
  263800    295.84488            0    3276.2221    6435.9171    1034.6331 
  263900    298.27877            0    3184.2477    6369.9373    998.82524 
  264000    307.53129            0    3222.2762    6506.7849     1052.617 
  264100    294.52472            0    3242.9079    6388.5033    1031.1827 
  264200    304.06436            0    3256.7385    6504.2196    998.81324 
  264300    296.85962            0    3268.0331    6438.5658    1016.2797 
  264400     300.4614            0    3282.1978    6491.1984    994.12271 
  264500    302.40344            0    3229.2355    6458.9775    946.59225 
  264600    295.33762            0    3251.5432    6405.8206    1015.6383 
  264700    304.08693            0    3244.0887    6491.8108    1043.2076 
  264800    298.86172            0     3262.999    6454.9146    996.70169 
  264900    305.51059            0    3316.1706    6579.0979    1033.3504 
  265000    295.83385            0    3222.5744    6382.1517    1026.5088 
  265100    305.99093            0    3228.0917     6496.149    1060.8262 
  265200    292.80897            0    3277.1036    6404.3744    1030.6716 
  265300    303.15237            0    3228.5879    6466.3287    1024.3344 
  265400    295.45702            0      3196.85    6352.4026    987.58189 
  265500    295.96185            0    3235.6302    6396.5745    999.95757 
  265600    308.28173            0    3197.8321    6490.3557    966.24598 
  265700    298.88594            0    3273.8871    6466.0614    998.06319 
  265800    302.76287            0    3295.7298    6529.3106    1016.7886 
  265900     311.9759            0     3162.436    6494.4143    969.93352 
  266000    294.19353            0    3173.8778     6315.936    1001.9549 
  266100    301.68938            0     3275.779    6497.8947    1030.6078 
  266200    293.26392            0    3349.7751    6481.9049    993.65243 
  266300    302.18639            0    3243.8398    6471.2637    1011.1303 
  266400    298.55583            0    3212.3269    6400.9754    1009.7163 
  266500    300.51777            0    3296.3307    6505.9333    1012.1588 
  266600    291.36077            0    3191.3155    6303.1191    946.18933 
  266700    302.66193            0    3285.4668    6517.9696    1006.0492 
  266800    298.51841            0    3256.3054    6444.5544    973.13162 
  266900    299.81703            0    3172.9379    6375.0564    994.68369 
  267000    299.41514            0    3218.5554    6416.3816    1087.3114 
  267100    300.65151            0    3256.9587    6467.9897    1031.9606 
  267200      297.817            0    3270.5703    6451.3281    1025.0654 
  267300    307.98677            0    3216.4502    6505.8235    1052.6761 
  267400    291.96345            0    3296.5608    6414.8013    1060.5289 
  267500    303.19138            0    3225.9894    6464.1468    1039.2542 
  267600    298.53935            0    3207.7978    6396.2703    1041.7103 
  267700     309.9723            0    3220.9758    6531.5552    1086.4013 
  267800    300.41363            0    3317.1566     6525.647    1077.3493 
  267900    300.85057            0    3251.6027    6464.7598    1076.9231 
  268000    299.05281            0    3237.2746    6431.2311    1054.1544 
  268100    296.43054            0    3254.2292    6420.1793    1070.5286 
  268200    300.11818            0    3183.0578    6388.3928    957.87607 
  268300    299.77447            0     3258.766      6460.43    1002.0284 
  268400    297.64673            0    3357.3173    6536.2565    1021.4591 
  268500     303.6989            0    3229.3525    6472.9304     969.1193 
  268600    301.03503            0    3177.1414    6392.2685    973.00941 
  268700    296.66672            0    3276.5436    6445.0161    1023.6169 
  268800    301.76162            0    3313.8037     6536.691    998.87473 
  268900    296.91319            0    3222.4808    6393.5857    961.92129 
  269000    298.80737            0    3210.4407    6401.7759    1014.0924 
  269100    307.10093            0    3243.3738    6523.2861    1007.5451 
  269200    300.18104            0    3285.1074    6491.1137    998.31402 
  269300    295.31675            0    3173.0155      6327.07    1028.3995 
  269400    298.69401            0    3167.9311    6358.0556    1048.5354 
  269500    296.28661            0    3306.7758    6471.1886    1026.6797 
  269600    301.92034            0    3301.8878    6526.4702     1046.922 
  269700    302.32548            0     3282.348    6511.2574    1057.4543 
  269800    298.57321            0    3191.2498     6380.084    1011.8575 
  269900     301.1342            0    3147.3261    6363.5123    1069.8071 
  270000    298.04037            0     3272.089    6455.2324    1082.4798 
  270100    298.74704            0    3311.1371    6501.8279      1028.13 
  270200    300.89334            0    3243.3924    6457.0062    1056.7996 
  270300    292.60434            0    3129.6319    6254.7173    1016.0186 
  270400    298.90373            0    3257.3037     6449.668    1041.5523 
  270500    297.81549            0    3304.5919    6485.3336    1039.4423 
  270600    301.74421            0    3321.5175    6544.2188     1046.663 
  270700    302.16726            0    3218.9169    6446.1364    995.75431 
  270800    296.80812            0    3302.6463     6472.629    1065.8957 
  270900    306.06834            0    3290.3701    6559.2541    1063.6115 
  271000    295.22552            0    3240.8799      6393.96    1019.5296 
  271100    294.81153            0    3141.0151    6289.6737    986.38951 
  271200    303.61255            0    3224.4597    6467.1153      1047.62 
  271300    301.42805            0    3321.8697    6541.1943    1045.4538 
  271400    299.40258            0    3215.5238    6413.2159     1005.045 
  271500    305.09564            0    3195.4084    6453.9038    1040.5836 
  271600     300.6375            0    3227.8669    6438.7483    990.65344 
  271700    292.08261            0     3355.524    6475.0371    1023.9253 
  271800    301.61085            0    3253.4423    6474.7192    942.27245 
  271900    306.57177            0    3188.0686    6462.3294     978.2001 
  272000    297.72803            0    3274.5527    6454.3603    1043.3696 
  272100    294.47747            0    3269.0565    6414.1472    1031.9037 
  272200    305.58448            0    3216.4662    6480.1825    1061.9169 
  272300    295.29954            0    3263.9507    6417.8214    1014.4989 
  272400    297.33099            0    3230.8682    6406.4353    990.10495 
  272500    304.05193            0    3208.0183    6455.3666     956.4753 
  272600    292.74926            0    3247.9413    6374.5743      1007.41 
  272700    303.22757            0    3201.6806    6440.2245    1009.7023 
  272800     297.4322            0    3214.1529    6390.8009    964.83086 
  272900    307.53962            0    3291.8902    6576.4879    1049.7262 
  273000    300.60165            0    3247.6301    6458.1286    1034.6311 
  273100    302.58889            0    3197.0617    6428.7844    1011.4772 
  273200    296.39973            0    3267.1362    6432.7571    1029.7529 
  273300    291.78549            0    3271.5525    6387.8923    1055.3851 
  273400    300.28608            0    3256.8045    6463.9327      1041.29 
  273500    301.41516            0    3277.9261    6497.1131    1018.6192 
  273600    298.32646            0     3225.832     6412.031     998.6141 
  273700    299.60953            0    3222.0799    6421.9823    1014.0749 
  273800    305.10835            0     3214.601    6473.2322    995.55376 
  273900     300.5528            0    3266.3931    6476.3699    1004.9116 
  274000    295.79549            0    3259.8263    6418.9938    1004.9356 
  274100    308.16124            0    3232.4772    6523.7139    1023.2925 
  274200    299.02784            0     3234.668    6428.3579    992.70524 
  274300    294.55463            0    3230.7069    6376.6218    991.45271 
  274400    299.10526            0    3253.9615    6448.4781     1013.552 
  274500    303.85894            0    3264.9732    6510.2603    1009.5322 
  274600    297.09498            0    3237.4603    6410.5067      978.375 
  274700     299.0085            0    3274.3634    6467.8466      1013.48 
  274800    303.95435            0     3232.398    6478.7042    1035.4276 
  274900    293.60004            0    3276.9775    6412.6971    1038.9452 
  275000    300.08918            0    3205.7316    6410.7568    1022.2122 
  275100    296.69392            0    3247.3443    6416.1073    1018.3394 
  275200    301.30129            0     3299.973    6517.9438     998.2196 
  275300    305.25747            0    3201.5882    6461.8119    1035.7402 
  275400    293.03133            0    3171.1075    6300.7531    1049.0626 
  275500    302.69154            0    3256.9396    6489.7587    1074.0092 
  275600    298.80062            0     3267.629    6458.8921    1042.3744 
  275700    300.34115            0    3272.6561    6480.3724    1043.6386 
  275800    303.36329            0    3267.8505    6507.8439    1056.6316 
  275900    299.47146            0    3204.2965    6402.7243    1056.4734 
  276000    301.61652            0    3242.3896    6463.7271     1065.314 
  276100    300.74891            0      3262.74    6474.8113    1037.6378 
  276200    297.16591            0    3269.1917    6442.9957      1062.16 
  276300    308.03819            0    3277.2345     6567.157     1049.578 
  276400    302.41515            0    3305.1544    6535.0215    1063.8213 
  276500    297.70758            0    3252.9094    6432.4986    1009.6403 
  276600    301.57558            0    3208.4557     6429.356    1010.7174 
  276700    299.31446            0    3248.2035    6444.9546    1000.3225 
  276800    296.32832            0    3309.5964    6474.4546    1033.4309 
  276900    292.42806            0    3271.5841    6394.7867    979.93043 
  277000    306.57542            0    3174.7778    6449.0777    978.13165 
  277100     296.7035            0    3199.3631    6368.2284    1008.7738 
  277200    301.82501            0      3252.69    6476.2542    1023.2847 
  277300    296.88314            0    3259.8875    6430.6714    1019.1366 
  277400    298.68219            0    3243.1232    6433.1214    1034.5527 
  277500    307.13285            0    3261.6201    6541.8733    1050.8775 
  277600    297.39328            0    3218.7783    6395.0106     1003.554 
  277700    304.88738            0    3221.8457    6478.1168     1053.719 
  277800    300.57146            0    3221.1611    6431.3371     1047.918 
  277900     293.3167            0    3321.5409    6454.2343    1051.4845 
  278000    301.40873            0    3213.3666    6432.4849    1101.9258 
  278100    303.61109            0    3222.3913    6465.0314    1122.8342 
  278200    301.28585            0    3252.1152    6469.9211    1034.8145 
  278300    301.08734            0    3282.2809    6497.9667     1022.888 
  278400    303.76433            0    3197.6021    6441.8788    1067.7769 
  278500    308.25875            0    3251.7141    6543.9923    1012.5911 
  278600    300.91602            0    3292.6736    6506.5297    1062.0677 
  278700    293.70652            0    3217.6792    6354.5361    1041.5306 
  278800    303.29197            0    3173.3795    6412.6113    1011.9055 
  278900    289.89161            0    3213.9887    6310.1014    990.84184 
  279000    301.59358            0    3295.4844    6516.5769    1064.6419 
  279100    296.53267            0    3289.2289    6456.2697    1024.5381 
  279200    298.40626            0    3184.1199    6371.1711    983.25184 
  279300    301.63172            0    3268.4008    6489.9007    1004.6132 
  279400    298.16222            0    3273.6101     6458.055    1003.9884 
  279500    301.57344            0    3200.9093    6421.7868    972.34767 
  279600     303.2975            0    3252.4761    6491.7669    1031.9694 
  279700    294.59798            0    3262.4887    6408.8665    1019.0322 
  279800    294.45294            0    3249.4778    6394.3065    1004.0306 
  279900    301.08047            0    3214.7885     6430.401    960.25866 
  280000    302.15166            0     3256.382     6483.435    1005.5845 
  280100    297.95705            0    3258.7202    6440.9737    1035.5175 
  280200    294.94648            0    3220.4237    6370.5236    1034.8334 
  280300    305.53559            0    3229.3825    6492.5766    1019.8322 
  280400    298.96822            0    3224.3356    6417.3887    1021.8988 
  280500    302.01848            0    3315.2818    6540.9124    1045.8648 
  280600    300.23862            0    3228.5869    6435.2082    1017.4892 
  280700    297.35838            0    3192.2772    6368.1368    1026.4183 
  280800    297.23723            0    3234.7378    6409.3035    1011.2716 
  280900    302.78706            0    3295.6042    6529.4433    978.26142 
  281000    302.03976            0    3229.9723    6455.8301    1005.5517 
  281100    299.34595            0    3174.2489    6371.3362    1005.3966 
  281200    302.82236            0    3279.1468     6513.363    1041.8972 
  281300    299.02046            0    3211.6626    6405.2736    1014.1876 
  281400    297.73875            0     3273.854     6453.776    1087.3862 
  281500    297.84227            0    3178.2126    6359.2403    1029.1583 
  281600    297.85673            0    3279.1583    6460.3404    1075.6428 
  281700    290.19171            0    3197.9747    6297.2926    986.22438 
  281800     293.7802            0    3160.2696    6297.9133    1019.0428 
  281900    302.59582            0    3245.4101    6477.2068    1007.0723 
  282000    298.82431            0    3259.2149    6450.7309    989.90128 
  282100    298.93437            0    3233.4984    6426.1899    1042.5238 
  282200    301.65215            0    3191.9859     6413.704    1014.6298 
  282300    301.06182            0    3172.3947     6387.808    925.73428 
  282400    302.07962            0    3298.9451    6525.2287    1062.4857 
  282500    299.79564            0    3182.7834    6384.6735    1011.2161 
  282600    300.91367            0    3322.3754    6536.2063    1038.5871 
  282700    300.19251            0    3270.4322    6476.5609    1035.8956 
  282800    306.93606            0    3180.2751    6458.4266    1006.7185 
  282900    295.85033            0     3264.618    6424.3712    958.05282 
  283000    306.93204            0    3312.5665    6590.6751    1030.0558 
  283100    292.00468            0    3231.7107    6350.3914    988.81513 
  283200    304.65329            0    3204.0751    6457.8461     983.3236 
  283300    294.80327            0    3269.5426     6418.113    1035.6501 
  283400    303.16497            0    3265.2201    6503.0954    1033.4918 
  283500    299.08856            0    3198.1193    6392.4576    995.77252 
  283600    299.75629            0    3208.4856    6409.9554    1052.1135 
  283700    301.81492            0    3195.1763    6418.6328    1010.7521 
  283800    295.47482            0    3266.4064    6422.1491    995.78925 
  283900    304.12913            0    3273.9927    6522.1655    1028.4944 
  284000    301.85557            0    3214.8362    6438.7269    1011.6481 
  284100    300.40646            0    3228.1455    6436.5593    1010.2749 
  284200    299.09562            0    3233.6207    6428.0344    1068.0727 
  284300    299.80773            0    3286.9748     6488.994    1088.1163 
  284400    303.76676            0     3218.016    6462.3187    1027.1694 
  284500    305.25921            0    3256.2789    6516.5213    1037.7959 
  284600    307.36523            0    3286.5034    6569.2386    1057.6175 
  284700    299.71633            0    3189.8932    6390.9363    1017.4477 
  284800    302.35843            0     3267.631    6496.8924    1023.6448 
  284900    301.24922            0    3322.9013    6540.3159    1038.3652 
  285000     298.2667            0    3289.4097    6474.9704      1017.02 
  285100     300.8102            0    3175.0078    6387.7336     972.0609 
  285200     300.1519            0    3185.1844    6390.8795    984.25767 
  285300    301.47612            0    3328.0426    6547.8807    1057.9325 
  285400    301.45703            0    3265.7614    6485.3955    1046.8935 
  285500    298.56606            0    3180.2499    6369.0078    990.98529 
  285600    302.39892            0    3191.1313     6420.825     1036.818 
  285700    296.44826            0     3255.946    6422.0853    1039.2586 
  285800    310.20902            0    3310.3708    6623.4784    1027.7493 
  285900    294.68829            0    3188.8212    6336.1636    983.07702 
  286000    304.46494            0     3194.656    6446.4153    1014.5627 
  286100    297.75772            0    3287.7101    6467.8347    1029.2017 
  286200    297.82591            0    3214.1474    6395.0004    1051.0809 
  286300    299.68819            0    3252.4391    6453.1816    1081.3927 
  286400    298.92253            0    3203.1592    6395.7242     1011.058 
  286500    306.99876            0    3240.0389      6518.86    1071.5186 
  286600     291.2751            0    3191.1984    6302.0871     1033.809 
  286700    301.25857            0    3319.3793    6536.8938    1082.6636 
  286800    297.29374            0    3264.9002    6440.0695    1091.0356 
  286900    293.13183            0    3215.3479     6346.067    1056.0686 
  287000    305.02153            0    3243.4738    6501.1778    1027.2217 
  287100    298.63775            0    3195.6338    6385.1575    1017.4589 
  287200    298.67653            0    3237.9207    6427.8585      1054.75 
  287300    300.52654            0    3271.3814    6481.0777     1029.146 
  287400    298.84696            0    3225.9037    6417.6617    1040.1087 
  287500     306.5652            0    3223.3411    6497.5318     1055.797 
  287600    297.80643            0    3225.1239    6405.7688    1034.3981 
  287700    301.71515            0    3263.2931     6485.684    1049.7259 
  287800     300.4948            0    3199.1839    6408.5412    1042.7092 
  287900    299.97371            0    3289.1859    6492.9777    1087.4135 
  288000    307.78008            0    3258.4004    6545.5663    1003.9629 
  288100    297.19895            0     3276.435    6450.5918    1023.3467 
  288200    306.10788            0    3248.2808    6517.5871    1054.0362 
  288300    297.22802            0    3236.1017     6410.569    992.85074 
  288400    296.91039            0    3262.2679    6433.3429    1061.1481 
  288500    304.58761            0    3221.9425     6475.012    1066.4965 
  288600    296.68081            0    3168.4977    6337.1207    1017.5792 
  288700    303.10383            0    3276.1458    6513.3681    1055.4305 
  288800    304.39719            0     3271.422    6522.4578    1028.3802 
  288900    300.92532            0     3246.578    6460.5334    996.63649 
  289000    298.57121            0    3275.5591     6464.372    1041.1613 
  289100    308.79884            0    3253.1374    6551.1839    1065.2832 
  289200     297.9155            0    3191.5558    6373.3656    1017.4988 
  289300    295.62477            0    3194.8084    6352.1526    1047.5096 
  289400    303.11632            0    3296.5571    6533.9129    1052.1851 
  289500    296.77768            0    3301.0134    6470.6709    1034.5957 
  289600    308.05317            0    3264.3359    6554.4184    1032.6136 
  289700    298.48489            0    3218.6489    6406.5399    1098.1229 
  289800    300.94178            0    3179.9723    6394.1035    1059.9872 
  289900    300.16144            0    3229.6939    6435.4909    1069.9856 
  290000    299.71136            0    3291.6424    6492.6323    1071.5195 
  290100    303.77557            0    3252.8695    6497.2662    1063.9551 
  290200      297.354            0    3178.1454    6353.9582    1032.7106 
  290300    294.12268            0    3255.2469    6396.5485    1027.0105 
  290400    305.13497            0    3235.4371    6494.3526    1013.1735 
  290500    297.82394            0    3302.7539    6483.5857    1020.7122 
  290600    302.68381            0    3230.2201    6462.9566    983.18023 
  290700    302.13663            0    3193.1922    6420.0846    1020.8939 
  290800    300.96017            0    3227.2032    6441.5307     1046.597 
  290900    295.09563            0    3267.4718    6419.1647    1016.6444 
  291000    302.88952            0    3251.6454     6486.579    1020.4748 
  291100    300.51563            0    3217.1661    6426.7459    974.82758 
  291200    291.23115            0    3249.5666    6359.9859    1009.4138 
  291300    298.45684            0    3268.0711    6455.6625    1040.7912 
  291400    298.62158            0    3252.7392      6442.09    1060.0592 
  291500    294.72588            0    3225.4228    6373.1666    1029.9791 
  291600    300.59378            0    3212.0018    6422.4162    1046.5068 
  291700    296.07849            0    3213.8275    6376.0175    1023.6084 
  291800    301.09499            0    3328.2239    6543.9914    1085.2946 
  291900    301.49156            0    3222.3244    6442.3273    1040.2237 
  292000    298.74546            0    3203.0554    6393.7294    998.22585 
  292100    306.38009            0    3287.6004    6559.8141    1063.1552 
  292200    297.59668            0    3255.7573     6434.162    1038.0042 
  292300    301.29742            0    3178.2288    6396.1583    986.72737 
  292400    296.44107            0    3234.1205    6400.1831    1028.1339 
  292500    306.63944            0    3241.4021    6516.3856    1027.6613 
  292600    294.85861            0    3318.7707     6467.932    1050.3054 
  292700     306.6069            0    3276.3106    6550.9467    1072.6631 
  292800    295.29622            0    3225.6055    6379.4407    1050.9625 
  292900    302.54963            0    3305.3846     6536.688    1060.9272 
  293000    300.17756            0    3178.9519     6384.921    992.78436 
  293100    302.94221            0    3244.5568     6480.053    1021.4699 
  293200    298.58231            0    3336.4255    6525.3569    1078.2277 
  293300    303.37681            0    3235.0951     6475.233    1028.5527 
  293400    293.52284            0    3251.7875    6386.6826    1033.4887 
  293500    294.86456            0    3262.9523    6412.1773    1030.2618 
  293600    303.47187            0    3242.6856    6483.8388     1044.742 
  293700    303.65059            0    3222.2322    6465.2941    1040.3559 
  293800    296.22415            0    3323.1031    6486.8488    1058.0372 
  293900    309.19174            0    3223.6573    6525.9001    1027.5738 
  294000    301.53538            0    3212.9783    6433.4493    997.63604 
  294100    298.76743            0    3249.1447    6440.0532    999.20738 
  294200    307.99078            0    3311.5914    6601.0076    1088.2592 
  294300    299.32139            0    3217.8312    6414.6562    1013.6896 
  294400    304.52105            0    3257.5513      6509.91    1041.3618 
  294500    292.12282            0    3279.1119    6399.0544    1036.2363 
  294600    301.35971            0    3189.7567    6408.3515    993.73446 
  294700    301.25302            0    3212.8394    6430.2947    1038.1727 
  294800    295.84189            0    3206.5328    6366.1959    1079.9251 
  294900    300.33581            0    3219.6503    6427.3096    1034.6957 
  295000    307.23944            0    3243.0112     6524.403    1032.5519 
  295100    303.73329            0    3252.4783    6496.4235    1089.9745 
  295200    300.02836            0    3264.9227    6469.2983    1006.4435 
  295300    301.74013            0    3225.8509    6448.5087    1025.6704 
  295400    298.43234            0    3253.4979    6440.8277    1046.9455 
  295500     298.8563            0    3203.0435    6394.9012    1015.3067 
  295600    290.40155            0    3287.2064    6388.7653    1068.4563 
  295700    302.52247            0    3277.7218    6508.7351    1113.1577 
  295800    298.40747            0    3235.9437    6423.0078    1076.8914 
  295900    305.29259            0    3208.4013    6469.0001    1093.5407 
  296000    298.90247            0    3218.4464    6410.7973    1050.8182 
  296100    301.76814            0    3311.7133    6534.6701    1048.3669 
  296200    299.63019            0    3215.8477    6415.9708    1022.7691 
  296300    304.32841            0    3219.7443    6470.0455    1043.6555 
  296400    295.76141            0    3235.7884     6394.592    998.19552 
  296500    306.12232            0    3235.5776    6505.0382     1008.546 
  296600    298.52297            0    3225.7763    6414.0741    1066.0911 
  296700    300.05533            0    3313.0317    6517.6953    1082.7784 
  296800    300.39315            0    3221.8935    6430.1652    1028.5978 
  296900    289.17366            0    3263.6767    6352.1215    1054.2784 
  297000    300.17309            0    3191.4658    6397.3872     1052.968 
  297100    303.29095            0    3290.5774    6529.7982    1050.3032 
  297200    299.80722            0    3197.2736    6399.2874    1053.7436 
  297300    295.33901            0    3312.2209    6466.5131    1105.1605 
  297400    301.27412            0    3202.3111    6419.9917    1008.2733 
  297500    302.75084            0    3293.1294    6526.5817    1097.8677 
  297600    301.15951            0    3134.3247    6350.7813    1006.5646 
  297700    297.71025            0      3311.06    6490.6777    982.09919 
  297800    301.12403            0    3290.0246    6506.1022    1002.1562 
  297900    304.58017            0    3278.1481    6531.1382    1069.1747 
  298000    297.89751            0    3188.6319    6370.2496    1047.3916 
  298100    309.57863            0    3173.7473    6480.1221    1099.8983 
  298200    300.59282            0    3306.5243    6516.9285    1114.4823 
  298300    298.66316            0    3323.7306    6513.5256    1037.7353 
  298400     296.5324            0     3295.536    6462.5739    1037.1203 
  298500     301.8587            0    3214.2768    6438.2009    1043.8228 
  298600    296.85186            0    3290.8412     6461.291      1010.59 
  298700    296.53909            0     3281.449    6448.5584    1009.9837 
  298800     300.5629            0    3251.1266    6461.2112    1026.6454 
  298900    305.21696            0    3231.0366    6490.8277    1028.3745 
  299000    293.13461            0    3230.2735    6361.0222    999.17188 
  299100    304.38442            0    3239.1603    6490.0597    1069.7414 
  299200    291.62994            0    3254.7319    6369.4103    1010.9678 
  299300    301.38141            0    3250.8313    6469.6578    957.37081 
  299400     297.3962            0    3242.2247    6418.4882    974.92868 
  299500    297.32958            0    3220.1126    6395.6646    1014.6336 
  299600    303.11229            0    3249.2203     6486.533    1042.8108 
  299700    297.55276            0    3304.8528    6482.7884    1083.8289 
  299800     304.0589            0    3169.1321    6416.5549    1031.9139 
  299900    301.10761            0    3219.8605    6435.7628    996.66958 
  300000    306.03014            0    3289.6112    6558.0873    1031.3424 
Loop time of 73.0042 on 8 procs for 300000 steps with 3584 atoms

Pair  time (%) = 0.51193 (0.701234)
Bond  time (%) = 40.6113 (55.6288)
Neigh time (%) = 3.4922 (4.78357)
Comm  time (%) = 19.7946 (27.1143)
Outpt time (%) = 0.26441 (0.362185)
Other time (%) = 8.32972 (11.4099)

Nlocal:    448 ave 479 max 434 min
Histogram: 3 0 2 0 1 1 0 0 0 1
Nghost:    1659 ave 1673 max 1628 min
Histogram: 1 0 0 0 1 0 1 1 1 3
Neighs:    8.375 ave 26 max 0 min
Histogram: 2 2 0 1 1 1 0 0 0 1

Total # of neighbors = 67
Ave neighs/atom = 0.0186942
Ave special neighs/atom = 157.056
Neighbor list builds = 2916
Dangerous builds = 0
unfix           NVT
# −−−−−−−−−−−−−−− Equilibration in nve −−−−−−−−−−−−−−−−−
fix             NVE all nve
run             300000
Memory usage per processor = 10.9571 Mbytes
Step Temp E_pair E_mol TotEng Press 
  300000    306.03014            0    3289.6112    6558.0873    1031.3424 
  300100    304.92219            0    3301.4633    6558.1062      1110.64 
  300200    297.25077            0    3383.3836    6558.0939    1087.8857 
  300300    309.75507            0    3249.8296    6558.0888    1082.6815 
  300400    301.04889            0    3342.8071    6558.0822    1093.8478 
  300500    300.63543            0    3347.2492    6558.1084    1097.4855 
  300600    302.57332            0    3326.5324    6558.0889    1055.6347 
  300700    306.09803            0     3288.873    6558.0742    997.24652 
  300800    300.54377            0    3348.2282    6558.1085    1039.9526 
  300900    310.63756            0    3240.3999    6558.0843    1024.1767 
  301000    300.10807            0    3352.8604    6558.0873     1010.452 
  301100     306.8159            0    3281.2206    6558.0888    1036.0735 
  301200     309.4627            0    3252.9404    6558.0771    1048.3267 
  301300    303.81406            0    3313.2693    6558.0771    1011.0514 
  301400    306.17751            0    3288.0427    6558.0927    1060.9734 
  301500     303.2212            0    3319.6055    6558.0814    1039.3138 
  301600    303.00176            0    3321.9537     6558.086    1004.7046 
  301700    307.41682            0    3274.7866    6558.0727    988.10454 
  301800    306.92274            0    3280.0829    6558.0922    1053.1216 
  301900    302.47308            0    3327.5997    6558.0855    1059.6087 
  302000    304.81117            0    3302.6152    6558.0724    1016.5518 
  302100    307.23298            0    3276.7674    6558.0902    1055.7798 
  302200    306.97138            0    3279.5582     6558.087    1037.3087 
  302300    301.28071            0    3340.3417    6558.0928     1073.148 
  302400    304.63022            0    3304.5761    6558.1008    1033.9875 
  302500    305.40028            0    3296.3499     6558.099    1006.8219 
  302600     304.2247            0    3308.9005     6558.094    1009.7361 
  302700    303.54722            0    3316.1361     6558.094    1048.8475 
  302800    304.99421            0    3300.6736    6558.0857    1023.2846 
  302900    307.19277            0    3277.1825    6558.0758    1033.1793 
  303000     305.8693            0     3291.327    6558.0853    1054.6421 
  303100    305.26603            0    3297.7679     6558.083    1034.2254 
  303200    303.74508            0    3314.0138    6558.0849    1037.8022 
  303300    308.67682            0      3261.35    6558.0933    1067.0486 
  303400     305.5805            0    3294.4154    6558.0892    1068.0057 
  303500    302.34757            0    3328.9352    6558.0805     1044.691 
  303600    303.42729            0    3317.4105    6558.0876    1053.1531 
  303700    305.82127            0    3291.8421    6558.0873    1067.1745 
  303800     307.5961            0    3272.8783    6558.0792    1042.9263 
  303900    303.04589            0    3321.4878    6558.0914    1092.3006 
  304000    307.67038            0    3272.0839    6558.0781    1082.4409 
  304100    303.07656            0    3321.1635    6558.0947    1073.3349 
  304200    304.25642            0    3308.5636    6558.0958    1045.1799 
  304300    307.75013            0    3271.2341    6558.0801    1042.3249 
  304400    303.42724            0     3317.426    6558.1025    1035.4825 
  304500    310.65547            0    3240.2013    6558.0771     1039.215 
  304600    301.99136            0    3332.7519    6558.0927    1022.0055 
  304700    303.82259            0    3313.1904    6558.0894    959.86089 
  304800    305.60515            0    3294.1558    6558.0928    1025.6555 
  304900     307.7334            0    3271.4198    6558.0871    1089.1662 
  305000    306.62531            0    3283.2603    6558.0929     1015.325 
  305100    306.64177            0    3283.0646     6558.073    1008.5693 
  305200    303.30951            0    3318.6611    6558.0802    1064.2063 
  305300    307.30743            0    3275.9655    6558.0833    1020.9562 
  305400    305.78307            0    3292.2426    6558.0799    1049.8337 
  305500    304.76576            0    3303.1231    6558.0952    1099.6679 
  305600    301.09908            0    3342.2792    6558.0903    1076.4538 
  305700    307.62236            0    3272.5948    6558.0761    1029.8141 
  305800    307.15444            0    3277.5991     6558.083    1076.0678 
  305900    300.61907            0    3347.3989    6558.0834    1054.2113 
  306000     307.3541            0    3275.4613    6558.0776    1045.4526 
  306100    304.49205            0    3306.0421     6558.091    1132.0324 
  306200    303.29341            0    3318.8405    6558.0877    1112.4813 
  306300    306.61052            0    3283.4002    6558.0748    1057.4309 
  306400    306.85174            0    3280.8287    6558.0796    1045.8279 
  306500    302.99478            0    3322.0306    6558.0883       1088.8 
  306600    308.92097            0    3258.7193    6558.0701    1070.1761 
  306700    305.69958            0    3293.1527    6558.0983    1073.4893 
  306800    308.32496            0    3265.0662    6558.0516     1025.587 
  306900    302.94483            0    3322.5728    6558.0971    1045.3308 
  307000    301.67936            0    3336.0768    6558.0855    1019.6894 
  307100    310.55551            0    3241.2552    6558.0633    1003.4298 
  307200    302.50614            0    3327.2594    6558.0984    1101.0402 
  307300    308.32791            0    3265.0498    6558.0666    1057.8791 
  307400    306.65676            0    3282.9115    6558.0801    1025.0267 
  307500    306.13619            0    3288.4777    6558.0864    1072.7282 
  307600    307.61296            0    3272.6965    6558.0775    1087.5345 
  307700    300.66096            0    3346.9533    6558.0853    1048.7217 
  307800    307.52899            0    3273.6091    6558.0932    1078.3518 
  307900    308.05816            0    3267.9537    6558.0896    1104.6762 
  308000    300.17528            0     3352.144    6558.0887    1039.9818 
  308100    304.52056            0    3305.7293    6558.0827    1065.9652 
  308200    308.03023            0    3268.2481    6558.0856    1074.9296 
  308300    307.85358            0    3270.1269    6558.0777    1018.1589 
  308400    302.36809            0    3328.7255      6558.09    1041.7103 
  308500    308.19413            0    3266.4861    6558.0742    1027.1709 
  308600    303.96453            0     3311.683    6558.0978    1048.8946 
  308700    309.32154            0    3254.4516    6558.0806    1002.2292 
  308800    304.74332            0    3303.3655     6558.098    1088.4829 
  308900    303.37831            0    3317.9159    6558.0698    1013.4491 
  309000    307.82926            0    3270.3888    6558.0798     994.1782 
  309100     304.6243            0    3304.6128    6558.0742    1026.6584 
  309200    305.21607            0    3298.3082    6558.0898    1064.0802 
  309300    307.64513            0    3272.3708    6558.0953    1050.2262 
  309400    301.05224            0      3342.78    6558.0909    1021.1725 
  309500    304.95165            0    3301.1484    6558.1059    1047.8539 
  309600      303.086            0    3321.0568    6558.0887    1087.7135 
  309700    305.23029            0    3298.1608    6558.0942     1069.041 
  309800    306.40886            0     3285.561    6558.0819    1032.2367 
  309900    303.95898            0     3311.724    6558.0797    1053.8754 
  310000    306.38604            0    3285.8251    6558.1024    1029.2566 
  310100    304.84661            0    3302.2475    6558.0832    990.61861 
  310200    303.90921            0    3312.2587    6558.0827    1031.9421 
  310300    304.32665            0    3307.8067    6558.0891    1071.6975 
  310400    304.45392            0    3306.4544    6558.0961    1076.8378 
  310500    304.83625            0    3302.3555    6558.0806    1041.9076 
  310600    302.39358            0    3328.4623    6558.0991    1077.7817 
  310700    301.77156            0    3335.1093    6558.1028    1059.3235 
  310800    306.50461            0    3284.5359    6558.0795    1036.0232 
  310900    306.12989            0    3288.5424    6558.0837     1049.929 
  311000    302.80833            0    3324.0198    6558.0862    1054.1406 
  311100     306.7742            0    3281.6441    6558.0669    1027.3902 
  311200    305.60358            0    3294.1703    6558.0906    1102.9604 
  311300    304.62792            0    3304.5839    6558.0839    1044.9046 
  311400    303.17123            0    3320.1449    6558.0871     1036.414 
  311500    307.83056            0     3270.374     6558.079    1045.0313 
  311600    300.91628            0    3344.2279    6558.0867    1058.5094 
  311700    306.19707            0    3287.8246    6558.0836    1027.3237 
  311800    304.97307            0    3300.9027     6558.089    1027.6775 
  311900    307.32626            0    3275.7632    6558.0822    1102.3552 
  312000    305.36327            0     3296.735    6558.0887    1074.0049 
  312100    306.56284            0    3283.9154    6558.0808    1011.0277 
  312200    300.20062            0    3351.8793    6558.0946    1038.2363 
  312300    307.44862            0    3274.4666    6558.0924    1067.3721 
  312400    306.36963            0    3285.9758    6558.0777    1058.2636 
  312500    303.59902            0    3315.5881    6558.0993    1064.5896 
  312600    304.01468            0    3311.1376     6558.088    1077.9188 
  312700    303.44392            0    3317.2364     6558.091    1063.3249 
  312800      305.181            0    3298.6795    6558.0866    1025.0745 
  312900    303.18263            0    3320.0181    6558.0821    1064.3563 
  313000    308.85226            0    3259.4642    6558.0812    1055.3011 
  313100    305.11155            0    3299.4146    6558.0799    1047.1794 
  313200    300.90002            0    3344.4108     6558.096    1056.6448 
  313300    309.33678            0    3254.2758    6558.0676    1020.8804 
  313400    303.67128            0    3314.7941     6558.077    1059.9579 
  313500    303.96717            0    3311.6407    6558.0837    1055.7944 
  313600    307.97908            0    3268.7769    6558.0681     1043.737 
  313700    300.38097            0    3349.9561    6558.0977    1049.2732 
  313800    303.48292            0    3316.8172    6558.0884    1054.4497 
  313900    307.14614            0    3277.6875    6558.0827    1035.7302 
  314000    306.82719            0    3281.0979    6558.0867    1010.0447 
  314100     308.1039            0    3267.4425    6558.0669    987.04968 
  314200    300.66888            0    3346.8777    6558.0942    1052.4272 
  314300    307.26404            0    3276.4336     6558.088    1037.2222 
  314400    305.60934            0    3294.1014    6558.0832    1036.7956 
  314500    302.48393            0      3327.49    6558.0917    1008.7066 
  314600    303.25923            0     3319.201    6558.0831    1015.3485 
  314700    309.92312            0    3248.0079    6558.0619     1024.315 
  314800    305.83608            0    3291.6734    6558.0769    1090.3518 
  314900    306.16582            0      3288.17    6558.0951    1086.4804 
  315000    298.44288            0    3370.6556     6558.098    1052.7711 
  315100    303.98022            0    3311.5006     6558.083    1046.1602 
  315200    307.39072            0    3275.0864    6558.0938    1064.7938 
  315300    304.56451            0    3305.2504    6558.0732    1073.2815 
  315400    306.36303            0    3286.0357    6558.0672    1041.0317 
  315500    304.44602            0    3306.5292    6558.0865    1041.2383 
  315600    305.16012            0    3298.8918    6558.0759    1023.8134 
  315700    304.77717            0    3302.9905    6558.0847    1040.4362 
  315800    305.69819            0    3293.1319    6558.0627    1052.2693 
  315900    303.76097            0     3313.842    6558.0828    1076.3635 
  316000    306.20636            0    3287.7221    6558.0802    1060.8657 
  316100    304.67635            0    3304.0673    6558.0846    1039.9107 
  316200    303.69293            0    3314.5765    6558.0907    1045.9148 
  316300    305.40619            0    3296.2671    6558.0793     1068.479 
  316400    300.08497            0    3353.1196    6558.0998    1084.1675 
  316500    308.19977            0    3266.4232    6558.0714    1037.2549 
  316600    304.33354            0    3307.7265    6558.0825    1028.5194 
  316700    304.32403            0    3307.8324    6558.0868    1043.2226 
  316800    302.61839            0    3326.0409    6558.0786    1034.6557 
  316900    311.04523            0    3236.0486    6558.0871    1033.4247 
  317000    305.06609            0    3299.9054    6558.0852    1060.4093 
  317100    306.64223            0    3283.0713    6558.0847    1037.2387 
  317200    300.73429            0    3346.1837    6558.0988    1071.1062 
  317300    304.39059            0    3307.1124    6558.0776    1038.2494 
  317400    307.80123            0    3270.6883    6558.0801    1056.6889 
  317500     309.8641            0    3248.6472     6558.071    1062.4416 
  317600    301.95879            0    3333.0957    6558.0888    1037.2514 
  317700     301.0319            0    3342.9916    6558.0852    1070.0496 
  317800    306.93078            0    3279.9899     6558.085     1052.617 
  317900     306.4968            0    3284.6092    6558.0693    1035.1138 
  318000    302.90032            0    3323.0298    6558.0786    1094.5371 
  318100    306.33324            0    3286.3752    6558.0885    1098.2206 
  318200    304.56177            0    3305.2918    6558.0853    1009.8539 
  318300    300.93408            0    3344.0547    6558.1036    1074.8874 
  318400    306.93026            0    3279.9872    6558.0769    1061.8534 
  318500    307.29471            0    3276.0903    6558.0723    1019.3876 
  318600    305.15724            0    3298.9338    6558.0872    1068.5474 
  318700    302.70267            0    3325.1386    6558.0765    1076.5398 
  318800    302.88873            0    3323.1637    6558.0887    1028.7802 
  318900    304.00632            0    3311.2165    6558.0777    1097.6674 
  319000     303.5462            0    3316.1294    6558.0764     1115.007 
  319100    308.68016            0    3261.2896    6558.0685    1063.2071 
  319200    304.48161            0    3306.1358    6558.0731    1086.0008 
  319300     302.8568            0    3323.5007    6558.0848     1106.279 
  319400     306.3484            0    3286.2136    6558.0887    1050.9191 
  319500    296.96164            0    3386.4811    6558.1035    1058.7672 
  319600    308.22143            0     3266.189    6558.0685    1061.2449 
  319700     302.5004            0    3327.2987    6558.0764    1055.6795 
  319800    305.45221            0    3295.7737    6558.0773    1018.9519 
  319900    305.49202            0    3295.3468    6558.0756    1079.9339 
  320000    306.91659            0     3280.151    6558.0946     1114.269 
  320100    301.74271            0    3335.3999    6558.0852    1081.3008 
  320200    308.21511            0    3266.2646    6558.0766    1092.6747 
  320300    304.15808            0    3309.5932    6558.0752    1136.7697 
  320400    308.45217            0    3263.7339    6558.0779    1043.5316 
  320500    302.20342            0    3330.4781     6558.084    1049.4654 
  320600    307.29729            0     3276.079    6558.0885     1096.384 
  320700    303.88714            0    3312.5061    6558.0944    1060.5063 
  320800      303.288            0    3318.8869    6558.0762    988.41978 
  320900    308.02569            0    3268.2888    6558.0779    1036.5516 
  321000    304.06963            0     3310.531    6558.0684    1024.1383 
  321100    300.60647            0    3347.5371    6558.0871    1030.5866 
  321200    308.42519            0     3264.024    6558.0798    1063.7784 
  321300    306.25851            0    3287.1727    6558.0878    1081.0625 
  321400    306.88126            0    3280.5062    6558.0724    1030.7548 
  321500    302.59003            0     3326.347    6558.0819    1059.0075 
  321600    309.21231            0    3255.6157    6558.0781    1040.9908 
  321700    301.39372            0    3339.1255    6558.0834    997.37675 
  321800     302.4767            0    3327.5609    6558.0854    991.22662 
  321900    305.77257            0    3292.3592    6558.0844     1024.318 
  322000    304.68385            0    3303.9914    6558.0887    965.73414 
  322100    301.28364            0    3340.3142    6558.0965    999.62334 
  322200    307.62367            0    3272.5944    6558.0897    1033.4281 
  322300    301.91795            0    3333.5334    6558.0903    1041.2943 
  322400    310.91264            0    3237.4373    6558.0596    1003.2523 
  322500    302.76192            0    3324.5068    6558.0775    1084.5618 
  322600    308.64439            0    3261.6876    6558.0845    1026.3789 
  322700    305.52652            0    3294.9858    6558.0831    1026.5966 
  322800    305.82675            0    3291.7696    6558.0734    1059.8591 
  322900    309.67878            0    3250.6267    6558.0711     1046.961 
  323000    306.69744            0    3282.4837    6558.0866    1035.0271 
  323100    301.45543            0    3338.4679    6558.0849    1009.2717 
  323200    303.05212            0    3321.4253    6558.0955    1015.2145 
  323300    309.69664            0    3250.4323    6558.0675    1029.1619 
  323400    304.59317            0    3304.9697    6558.0986     1016.612 
  323500    302.86952            0    3323.3589    6558.0787    997.72791 
  323600    306.18006            0    3288.0019    6558.0791    1080.9359 
  323700    305.31637            0    3297.2313    6558.0842    1072.2552 
  323800    309.31606            0    3254.4952    6558.0657    1018.1338 
  323900    302.92873            0    3322.7295    6558.0817    1073.3745 
  324000    302.72445            0    3324.9242    6558.0947    1048.6586 
  324100    305.71958            0    3292.9325    6558.0917    1025.1648 
  324200    302.03334            0    3332.3093    6558.0986    1091.7764 
  324300    310.72828            0    3239.4025    6558.0559    1008.0072 
  324400    300.39253            0    3349.8185    6558.0835    1019.9298 
  324500    306.73531            0    3282.0744    6558.0818    1030.5981 
  324600    306.28172            0    3286.9171    6558.0801    1032.2197 
  324700    302.14763            0    3331.0685    6558.0785    1037.8187 
  324800    304.73404            0    3303.4311    6558.0645    1065.2672 
  324900    308.63352            0    3261.8004    6558.0812    1088.8207 
  325000    304.62504            0     3304.607    6558.0763    1044.6173 
  325100    303.29314            0      3318.84    6558.0843    1056.6265 
  325200    304.96848            0    3300.9367    6558.0741    1093.2996 
  325300    305.54358            0     3294.802    6558.0815    1092.0993 
  325400     303.2296            0    3319.5393    6558.1049    1092.3511 
  325500    302.79698            0    3324.1321    6558.0773     1093.908 
  325600    303.95256            0    3311.8009     6558.088    1086.5473 
  325700    302.86906            0    3323.3664    6558.0814    1048.2178 
  325800    308.88292            0    3259.1405     6558.085    1038.9302 
  325900    305.97799            0    3290.1591    6558.0782    1082.6261 
  326000    308.88827            0     3259.065    6558.0666    1031.8203 
  326100     302.1224            0    3331.3359    6558.0764    1042.5429 
  326200    309.90408            0    3248.2322    6558.0828    1028.4407 
  326300    300.39221            0    3349.8279    6558.0895    1036.1757 
  326400    305.27045            0    3297.7206    6558.0829    1041.2138 
  326500     302.3838            0    3328.5505    6558.0828     1050.013 
  326600    303.13398            0    3320.5393    6558.0837    1046.2988 
  326700    307.90731            0    3269.5525    6558.0772    1039.0859 
  326800    304.85323            0    3302.1645    6558.0709    1059.7756 
  326900    306.39039            0    3285.7598    6558.0834    1076.1473 
  327000    306.66521            0    3282.8127    6558.0716    1078.3525 
  327100    299.63773            0    3357.8938    6558.0974    1114.5056 
  327200    305.02915            0     3300.298    6558.0832    1069.8629 
  327300     305.0164            0    3300.4246    6558.0737    1058.7734 
  327400    306.44885            0    3285.1373    6558.0853    1083.4594 
  327500    308.41716            0    3264.0874    6558.0575    1048.5544 
  327600    302.11677            0    3331.4165    6558.0968    1097.8306 
  327700    304.04158            0     3310.836    6558.0738    1061.1351 
  327800    309.86013            0    3248.6868    6558.0681    1076.0063 
  327900    306.35219            0    3286.1516    6558.0673    1061.3925 
  328000    305.40571            0    3296.2735    6558.0805    1107.8241 
  328100    303.51216            0    3316.4913    6558.0748    1094.1798 
  328200    307.63102            0    3272.4993    6558.0732    1076.8809 
  328300    306.26525            0    3287.0824    6558.0694    1077.1389 
  328400    304.83179            0    3302.4019    6558.0794    1068.4138 
  328500    305.50348            0    3295.2264    6558.0777    1071.6368 
  328600    303.53451            0    3316.2633    6558.0855    1104.3206 
  328700    305.51466            0    3295.1133    6558.0839    1104.9508 
  328800    301.25137            0    3340.6439    6558.0816     1056.491 
  328900    301.99823            0     3332.671    6558.0854    1043.4817 
  329000     304.2818            0    3308.2843    6558.0876    1054.9396 
  329100    304.91669            0    3301.4985    6558.0827    1050.1987 
  329200    304.14558            0    3309.7299    6558.0784    1043.3904 
  329300    300.93771            0     3344.006    6558.0938     1087.698 
  329400    308.02866            0    3268.2731    6558.0939    1052.7107 
  329500    301.97697            0    3332.9029    6558.0901    1056.4856 
  329600    310.62923            0     3240.471    6558.0664    1018.2879 
  329700    298.99628            0     3364.745    6558.0977    1050.6492 
  329800    306.28633            0    3286.8596    6558.0718    1076.9532 
  329900    308.19211            0    3266.5165     6558.083    1081.2227 
  330000    305.45416            0    3295.7549    6558.0794    1064.2474 
  330100    304.64373            0    3304.4143    6558.0831    1087.3556 
  330200    303.20106            0    3319.8246    6558.0855    1060.0123 
  330300    307.66225            0    3272.1708    6558.0782    1009.4785 
  330400     305.2585            0    3297.8461    6558.0809    1030.1858 
  330500    301.78061            0    3334.9927    6558.0828    1004.3697 
  330600    310.14475            0    3245.6505    6558.0717    989.88133 
  330700    305.81934            0    3291.8542    6558.0788    1023.2045 
  330800    297.72723            0    3378.2937    6558.0927     1075.075 
  330900    311.90741            0    3226.8259    6558.0727    1066.1884 
  331000    306.87897            0    3280.5341    6558.0759    1058.0337 
  331100    308.94628            0    3258.4447    6558.0658    1023.1691 
  331200    301.52632            0    3337.7086    6558.0828    1013.6925 
  331300    303.60678            0    3315.4978    6558.0918     1049.814 
  331400    302.72879            0    3324.8537    6558.0706    1042.8794 
  331500    307.94137            0    3269.2005    6558.0889    1037.5176 
  331600     305.7904            0    3292.1544      6558.07    1053.0975 
  331700    304.48239            0     3306.152    6558.0978    1045.2915 
  331800    301.26333            0    3340.5416     6558.107    1061.0693 
  331900    305.79019            0    3292.1688    6558.0822    1007.2195 
  332000    304.30783            0    3307.9969    6558.0783    1050.4619 
  332100    305.62491            0    3293.9303    6558.0784    1070.1786 
  332200    303.11002            0    3320.8145     6558.103     1116.632 
  332300    305.61631            0    3294.0278    6558.0841    1075.0026 
  332400    303.90347            0    3312.3174    6558.0802    1046.7231 
  332500    309.36508            0    3253.9894    6558.0834    1025.2246 
  332600    302.88631            0     3323.191    6558.0902     1045.087 
  332700    308.65416            0      3261.57    6558.0712    1028.9848 
  332800    305.62843            0    3293.9073    6558.0931    1079.6282 
  332900    303.51569            0    3316.4625    6558.0836    1040.8199 
  333000    304.30491            0    3308.0317    6558.0819     1074.459 
  333100    309.39896            0    3253.6232    6558.0791    1087.2482 
  333200    303.82475            0     3313.172    6558.0939    1064.8868 
  333300    311.13438            0    3235.0726    6558.0631    1030.6761 
  333400    299.41516            0    3360.2665    6558.0929    1058.3218 
  333500    308.40233            0    3264.2718    6558.0834     1018.247 
  333600    301.60653            0    3336.8697    6558.1005    1036.8889 
  333700    302.07847            0    3331.8118     6558.083    1011.3646 
  333800    306.80487            0    3281.3394    6558.0898    1055.4927 
  333900    311.74975            0    3228.5095    6558.0724     1012.422 
  334000    300.89634            0    3344.4417    6558.0876    1017.4465 
  334100    303.82314            0    3313.1906    6558.0954    1050.0372 
  334200    302.70234            0    3325.1569    6558.0912    1105.1266 
  334300    311.79967            0    3227.9843    6558.0804    1087.8339 
  334400    299.78094            0    3356.3621    6558.0952    1100.9506 
  334500     307.3484            0    3275.5285    6558.0839    1027.3049 
  334600    307.87048            0     3269.933    6558.0643     1001.017 
  334700    302.59103            0    3326.3465     6558.092    1043.3537 
  334800    297.85067            0    3376.9725    6558.0899    1014.5644 
  334900    314.01253            0    3204.3277    6558.0576    1001.2176 
  335000    303.58356            0    3315.7535    6558.0995    1111.8107 
  335100     304.2306            0    3308.8271    6558.0836    1092.7448 
  335200    303.36332            0    3318.1019    6558.0956    1055.1017 
  335300    310.11059            0    3246.0166    6558.0729    1061.4563 
  335400    308.17357            0    3266.7229    6558.0913    1108.5917 
  335500    301.77693            0    3335.0475    6558.0983    1056.1414 
  335600    306.07836            0    3289.0823    6558.0734    1026.6886 
  335700    305.07578            0    3299.7974    6558.0807     1045.845 
  335800    304.03978            0    3310.8682    6558.0868    1024.4438 
  335900    309.16365            0    3256.1371    6558.0798     1039.161 
  336000    305.15938            0    3298.9105    6558.0866    1068.3753 
  336100    303.05952            0    3321.3266    6558.0758    1086.7075 
  336200    308.57061            0    3262.4784    6558.0873    1048.6692 
  336300    300.66052            0    3346.9716    6558.0988    1106.1779 
  336400    309.16599            0    3256.0932    6558.0609    1063.3886 
  336500    308.32671            0    3265.0684    6558.0723    1052.6379 
  336600    304.68087            0     3304.027    6558.0925     1096.591 
  336700    304.41737            0    3306.8381    6558.0893     1092.568 
  336800    300.51814            0    3348.4895    6558.0962    1070.4542 
  336900    298.22629            0    3372.9644    6558.0935    1080.2293 
  337000    300.96859            0    3343.6804    6558.0978    1156.3912 
  337100    307.37982            0    3275.1886    6558.0795    1077.7442 
  337200    307.36206            0    3275.3723    6558.0736    1070.5172 
  337300     306.0797            0    3289.0739    6558.0793    1101.7169 
  337400    301.62649            0    3336.6312    6558.0752    1076.8533 
  337500    303.37212            0    3317.9999    6558.0877    1051.6914 
  337600     305.5216            0    3295.0349    6558.0796    1054.9981 
  337700    302.45977            0    3327.7359    6558.0796    1079.7117 
  337800    307.17801            0     3277.335    6558.0707    1073.8605 
  337900    303.75999            0     3313.857    6558.0873    1092.3418 
  338000    304.44762            0    3306.5058    6558.0802    1064.1032 
  338100     302.8732            0    3323.3186    6558.0778    1069.5843 
  338200    308.57133            0    3262.4568    6558.0735    1052.8674 
  338300    303.20984            0    3319.7259    6558.0806    1065.1652 
  338400    306.83351            0    3281.0071    6558.0634    1016.9625 
  338500    309.10935            0     3256.708    6558.0709     1051.586 
  338600    303.66467            0    3314.8751    6558.0874    1096.7895 
  338700    305.73952            0    3292.6954    6558.0677    1063.4436 
  338800     304.0849            0     3310.389    6558.0894    1063.1846 
  338900    305.84471            0    3291.5921    6558.0878    1096.2799 
  339000    300.85752            0    3344.8497     6558.081    1046.1878 
  339100    306.00549            0    3289.8624    6558.0752    1009.5391 
  339200    307.50766            0     3273.838    6558.0943    1092.6677 
  339300    307.47275            0    3274.1927    6558.0762    1069.9135 
  339400    306.52343            0    3284.3216    6558.0661    1026.4425 
  339500    306.71278            0    3282.3194    6558.0862    1067.6192 
  339600    306.27049            0    3287.0345    6558.0777    1066.7392 
  339700    301.93511            0     3333.345    6558.0853    1052.4517 
  339800    307.04376            0    3278.7705    6558.0722    1069.9744 
  339900    306.79452            0    3281.4442    6558.0841    1105.1146 
  340000    306.23826            0     3287.366    6558.0648    1034.4676 
  340100    300.89975            0    3344.4206    6558.1029    1065.9524 
  340200     307.5616            0     3273.237    6558.0695    1095.9411 
  340300    303.96776            0    3311.6364    6558.0857    1094.6878 
  340400    302.88843            0    3323.1677    6558.0895    1087.1575 
  340500    307.43621            0    3274.5859    6558.0792    1110.0701 
  340600    304.45401            0    3306.4347    6558.0774    1079.2667 
  340700    302.69294            0    3325.2539    6558.0879    1075.8928 
  340800     306.3854            0    3285.8059    6558.0763    1047.1766 
  340900    301.36274            0     3339.457    6558.0842    1044.0865 
  341000    303.63837            0    3315.1522    6558.0836    1000.6226 
  341100    308.43055            0    3263.9572    6558.0703    1096.8718 
  341200    306.20218            0    3287.7517    6558.0652     1095.106 
  341300    302.41996            0    3328.1674    6558.0859    1090.2448 
  341400    305.15933            0    3298.9052    6558.0809    1068.0158 
  341500    305.98494            0    3290.1004    6558.0938    1123.5639 
  341600     304.5257            0    3305.6674    6558.0756    1087.3142 
  341700    306.46264            0    3284.9912    6558.0865    1049.9449 
  341800    299.70518            0    3357.1711    6558.0951    1077.8951 
  341900    304.82311            0    3302.5082    6558.0929    1061.8932 
  342000    303.72674            0    3314.2201    6558.0953    1098.1902 
  342100    307.06929            0    3278.4971    6558.0716    1101.8187 
  342200    307.89205            0    3269.7203     6558.082     1083.222 
  342300    299.52244            0    3359.1448     6558.117    1081.7891 
  342400    305.27388            0    3297.6734    6558.0724    1078.6311 
  342500    307.66642            0    3272.1301    6558.0821    1063.4313 
  342600    305.90563            0    3290.9363    6558.0826    1019.0632 
  342700    308.25123            0    3265.8707    6558.0686    1022.0129 
  342800    302.69966            0    3325.1849    6558.0906    1057.1544 
  342900    302.97805            0    3322.1919    6558.0709    1084.0275 
  343000    311.69927            0    3229.0372    6558.0609    1083.2328 
  343100    304.09782            0    3310.2502    6558.0886    1076.3602 
  343200    307.66645            0     3272.133    6558.0852    1042.5895 
  343300    306.90044            0    3280.3098    6558.0808    1053.0892 
  343400     300.9636            0    3343.7187    6558.0829    1058.8199 
  343500     304.8029            0    3302.7224    6558.0913    1083.1221 
  343600     301.5793            0    3337.1579    6558.0979    1089.9943 
  343700    304.39455            0    3307.0773    6558.0849    1046.4444 
  343800    304.18362            0     3309.336    6558.0908    1098.4243 
  343900    305.65097            0    3293.6578    6558.0842    1088.7928 
  344000    301.00693            0    3343.2662    6558.0932    1045.6444 
  344100    304.99017            0    3300.7146    6558.0835      1039.73 
  344200    310.24567            0      3244.57     6558.069     1059.935 
  344300    296.87573            0    3387.3897    6558.0944     1088.483 
  344400    308.49085            0    3263.3215    6558.0786    1044.4093 
  344500    305.98288            0      3290.11    6558.0813    1060.6488 
  344600    303.33949            0    3318.3327     6558.072    1034.0326 
  344700    308.12747            0    3267.2008    6558.0768    1026.9059 
  344800    302.86689            0    3323.4022     6558.094    1065.3304 
  344900    307.30734            0    3275.9555    6558.0724    1005.9659 
  345000    308.16343            0    3266.8124    6558.0725    1075.9467 
  345100    302.36607            0     3328.748    6558.0909    1073.8932 
  345200    305.14478            0    3299.0535    6558.0737    1115.8106 
  345300    308.40445            0    3264.2453    6558.0796    1089.4332 
  345400    302.79482            0    3324.1568    6558.0789    1132.5924 
  345500    305.92222            0    3290.7584    6558.0819     1107.457 
  345600    306.37382            0    3285.9433    6558.0899    1101.8965 
  345700    302.47927            0    3327.5376    6558.0895    1066.6415 
  345800    305.93376            0    3290.6405    6558.0873    1114.6043 
  345900    301.05701            0    3342.7421    6558.1039    1152.8263 
  346000    308.77651            0     3260.273     6558.081    1082.7516 
  346100     300.7845            0    3345.6481    6558.0995    1115.9263 
  346200    304.52712            0    3305.6554    6558.0788    1066.9875 
  346300    306.50881            0    3284.4941    6558.0825    1065.9482 
  346400    309.45099            0    3253.0535    6558.0651    1064.4928 
  346500    302.22329            0    3330.2787    6558.0967    1086.7249 
  346600    304.65074            0    3304.3246    6558.0684    1026.6775 
  346700    305.99404            0    3289.9906    6558.0811    1055.4281 
  346800    303.93244            0    3312.0021    6558.0742    1064.3461 
  346900    305.44906            0    3295.8213    6558.0913    1100.8676 
  347000    307.29933            0    3276.0368    6558.0681    1084.1608 
  347100     306.4081            0    3285.5577    6558.0705    1082.2452 
  347200    302.58653            0    3326.3958    6558.0933    1092.2285 
  347300    303.03429            0    3321.6043     6558.084    1083.8737 
  347400    307.12567            0    3277.8982    6558.0748    1092.0122 
  347500    303.93578            0    3311.9926    6558.1003    1124.4661 
  347600    299.54992            0    3358.8306    6558.0963    1103.3593 
  347700    309.98589            0     3247.342    6558.0665    1061.7421 
  347800    301.04778            0    3342.8325    6558.0958    1114.2686 
  347900    305.40226            0     3296.296    6558.0662    1091.5593 
  348000    308.42664            0    3264.0078    6558.0791     1098.726 
  348100    302.14761            0    3331.0752    6558.0849    1123.6106 
  348200    308.93982            0     3258.529    6558.0812    1078.2681 
  348300    305.96715            0    3290.2683    6558.0716    1033.5204 
  348400    304.27668            0    3308.3335    6558.0823    1094.7927 
  348500    304.17384            0    3309.4418    6558.0922    1088.3689 
  348600    303.89723            0    3312.3884    6558.0845    1060.3612 
  348700    305.81104            0    3291.9386    6558.0746    1076.6431 
  348800    307.36153            0    3275.3811    6558.0768    1082.4672 
  348900    301.90738            0    3333.6431    6558.0871    1094.1462 
  349000    298.16978            0    3373.5727    6558.0982    1084.8229 
  349100    306.57352            0    3283.7888    6558.0683    1045.3199 
  349200    304.76476            0    3303.1127    6558.0742    1052.3511 
  349300    302.88492            0    3323.2032    6558.0876    1118.8026 
  349400     302.7345            0    3324.7996    6558.0775    1108.4953 
  349500    307.12249            0    3277.9324    6558.0749    1076.3366 
  349600    306.27409            0    3287.0105     6558.092    1114.6592 
  349700    306.28225            0    3286.9125    6558.0812    1075.1124 
  349800    302.63413            0    3325.8698    6558.0757     1063.775 
  349900    309.64758            0    3250.9633    6558.0746    1058.6213 
  350000    303.22475            0    3319.5681    6558.0819    1082.8905 
  350100    305.93387            0    3290.6241     6558.072    1044.7557 
  350200    300.37686            0    3349.9839    6558.0815    1050.6467 
  350300    307.21772            0    3276.9213    6558.0811    1098.9125 
  350400    308.27964            0    3265.5727     6558.074    1075.5661 
  350500    298.66981            0    3368.2024    6558.0684    1072.6697 
  350600    307.72873            0    3271.4767    6558.0942    1130.9021 
  350700    305.08564            0    3299.6912    6558.0798    1139.6282 
  350800    308.68782            0    3261.2103     6558.071    1079.8693 
  350900     305.6337            0     3293.846    6558.0879    1106.9911 
  351000     303.2247            0    3319.5537     6558.067    1077.3313 
  351100    302.10931            0    3331.4649    6558.0656    1087.0559 
  351200     305.0647            0     3299.912     6558.077    1101.5196 
  351300    306.09595            0    3288.9049    6558.0838     1134.952 
  351400    305.19736            0    3298.4953    6558.0771    1122.6748 
  351500    305.66025            0    3293.5592    6558.0848    1142.0382 
  351600    304.48352            0    3306.1172    6558.0751    1116.0715 
  351700    305.06186            0    3299.9434    6558.0781    1093.7103 
  351800    307.21994            0    3276.8977    6558.0811    1069.8561 
  351900    302.04013            0    3332.2175    6558.0792    1133.3398 
  352000     303.6153            0    3315.3944    6558.0794    1140.5383 
  352100    303.02458            0    3321.7133    6558.0893    1132.3223 
  352200    309.74986            0    3249.8756    6558.0792      1164.46 
  352300    304.22158            0    3308.9066    6558.0668    1157.4966 
  352400    305.25702            0    3297.8522    6558.0712    1109.1235 
  352500    306.47363            0    3284.8618    6558.0744    1101.0904 
  352600    308.74714            0    3260.5801    6558.0744    1074.6565 
  352700    307.82442            0    3270.4337    6558.0731    1067.2781 
  352800    304.15436            0    3309.6384    6558.0807    1076.9177 
  352900    303.59524            0    3315.5988    6558.0695    1071.5753 
  353000    305.32642            0     3297.122    6558.0822    1099.8629 
  353100    305.06129            0      3299.95    6558.0786     1092.527 
  353200     301.9415            0    3333.2782    6558.0866     1111.922 
  353300    306.31307            0    3286.5749    6558.0728    1087.1516 
  353400    306.10355            0    3288.8238     6558.084    1067.4805 
  353500    304.42541            0    3306.7379    6558.0751    1075.2016 
  353600    303.14326            0    3320.4417    6558.0853    1119.5037 
  353700    307.50584            0    3273.8404    6558.0772    1068.9757 
  353800    299.93006            0    3354.7707    6558.0964     1110.051 
  353900     308.1052            0    3267.4402    6558.0785    1068.7465 
  354000     299.3252            0    3361.2143      6558.08    1093.7311 
  354100    307.06392            0    3278.5626    6558.0797    1080.1867 
  354200     302.4278            0    3328.0761    6558.0783    1098.6328 
  354300    303.16996            0    3320.1532    6558.0819    1082.1757 
  354400    312.22338            0    3223.4536     6558.075    1086.8925 
  354500    303.78543            0    3313.5931    6558.0951    1085.3069 
  354600    297.95738            0    3375.8358    6558.0928    1107.7155 
  354700    309.23826            0    3255.3282    6558.0678    1089.5039 
  354800     304.7121            0    3303.6812    6558.0803    1074.8529 
  354900    305.93902            0    3290.5602    6558.0632    1064.3429 
  355000    303.44497            0    3317.2161    6558.0819    1076.8998 
  355100    306.95594            0    3279.7118    6558.0757    1058.7038 
  355200    306.79476            0     3281.423    6558.0655    1070.6362 
  355300    303.91987            0    3312.1414    6558.0793     1071.436 
  355400    305.74355            0    3292.6673    6558.0825    1066.6276 
  355500    306.10179            0     3288.833    6558.0744    1063.5997 
  355600    306.93604            0     3279.937    6558.0883    1063.1046 
  355700    306.66446            0    3282.8302    6558.0809    1064.5135 
  355800    303.38439            0    3317.8651    6558.0839    1062.7293 
  355900    304.49364            0     3306.028     6558.094    1076.6119 
  356000     304.2168            0    3308.9618     6558.071    1073.5581 
  356100    307.64002            0    3272.4119    6558.0818    1050.9934 
  356200    303.94196            0    3311.9084    6558.0822    1037.9963 
  356300    303.92292            0    3312.1238    6558.0942    1037.1417 
  356400    304.17662            0    3309.3972    6558.0773    1066.2354 
  356500    309.47699            0     3252.785    6558.0743    1051.7611 
  356600    299.74149            0    3356.7789    6558.0906    1076.8984 
  356700    309.35168            0    3254.1332    6558.0841    1067.6268 
  356800    304.80836            0    3302.6561    6558.0832     1058.289 
  356900    300.37483            0    3350.0209    6558.0969    1061.1345 
  357000    308.35257            0    3264.8006    6558.0808    1058.1068 
  357100    303.45294            0    3317.1337    6558.0847    1028.6994 
  357200    304.56051            0     3305.291    6558.0711    1013.4722 
  357300    310.40487            0    3242.8696    6558.0689    1050.2894 
  357400    303.72309            0    3314.2457    6558.0819    1050.8548 
  357500    305.48667            0    3295.3978    6558.0695    1016.7482 
  357600    307.41111            0    3274.8512    6558.0763     1129.994 
  357700    307.02971            0    3278.9215    6558.0732     1109.335 
  357800    307.45756            0    3274.3645    6558.0858    1056.7517 
  357900    303.59343            0    3315.6423    6558.0937    1051.8862 
  358000    300.87698            0    3344.6436    6558.0827    1071.4878 
  358100    308.94169            0     3258.509    6558.0811    1010.9518 
  358200    304.84262            0    3302.2899     6558.083    1050.8802 
  358300    301.04409            0    3342.8631     6558.087    1062.8247 
  358400    307.43933            0    3274.5589    6558.0854    1003.9638 
  358500    302.54114            0    3326.8632    6558.0759    1041.4952 
  358600    305.89071            0    3291.0845    6558.0714    1079.5186 
  358700    308.08224            0    3267.6907    6558.0837     1076.187 
  358800    307.30775            0    3275.9644    6558.0856    1065.2109 
  358900    303.56502            0    3315.9331    6558.0811    1083.0038 
  359000    305.97405            0     3290.197     6558.074    1068.3558 
  359100    303.56106            0    3315.9756    6558.0813    1025.7312 
  359200    303.22448            0    3319.5922    6558.1031    1075.5753 
  359300    308.76762            0    3260.3674    6558.0804    1054.1426 
  359400      299.887            0    3355.2316    6558.0975    1071.6777 
  359500    304.54059            0    3305.5286    6558.0959    1083.3529 
  359600    306.15571            0    3288.2716    6558.0888    1032.1749 
  359700    301.02038            0    3343.1192    6558.0898    1012.3252 
  359800    309.27778            0    3254.9213     6558.083    1011.0001 
  359900    301.39177            0    3339.1673    6558.1044    1059.6615 
  360000    302.93198            0    3322.7145    6558.1016    1069.9055 
  360100    307.09863            0    3278.1952     6558.083    1046.0128 
  360200    300.41469            0    3349.5975    6558.0991    1107.4367 
  360300      307.094            0    3278.2445    6558.0829    1019.5557 
  360400    301.42082            0    3338.8515     6558.099    1045.4765 
  360500    305.38351            0    3296.5199    6558.0898    1062.9942 
  360600    304.68025            0     3304.024     6558.083    1038.2859 
  360700    308.96345            0    3258.2736    6558.0781    987.77165 
  360800    304.42986            0    3306.6895    6558.0741    998.16779 
  360900     302.8716            0    3323.3388    6558.0809    1032.2972 
  361000    312.34271            0    3222.1777    6558.0736    1038.3556 
  361100    307.52801            0     3273.598    6558.0716    1019.4992 
  361200    301.35494            0    3339.5452     6558.089    1020.8331 
  361300    305.44992            0    3295.8136    6558.0928    1030.3413 
  361400    305.40608            0    3296.2812    6558.0921    1065.5841 
  361500    301.73266            0    3335.5135    6558.0915    1095.8454 
  361600     314.0029            0     3204.435    6558.0621    1078.3813 
  361700    302.45245            0    3327.8194    6558.0849    1078.9542 
  361800    305.97229            0    3290.2063    6558.0645    1034.4888 
  361900    305.54987            0    3294.7362    6558.0828     1062.919 
  362000    308.69382            0    3261.1567    6558.0815    1032.1313 
  362100    303.84844            0    3312.9045    6558.0795    1069.9944 
  362200    306.52598            0    3284.3015    6558.0732    1088.8458 
  362300      304.791            0    3302.8449    6558.0867    1075.3464 
  362400    300.76378            0    3345.8396    6558.0697     1015.199 
  362500    307.81287            0    3270.5616    6558.0776    1065.6649 
  362600    306.84771            0    3280.8775    6558.0855    1086.4275 
  362700    307.02572            0    3278.9795    6558.0887     1070.453 
  362800    302.62517            0    3325.9838     6558.094    1074.0502 
  362900    306.09992            0    3288.8559    6558.0773    1012.8164 
  363000    306.24156            0    3287.3515    6558.0856    1026.0066 
  363100    303.23738            0    3319.4438    6558.0926    1084.3527 
  363200     306.6109            0    3283.4185    6558.0972    1053.9641 
  363300    304.73262            0    3303.4727    6558.0909    1080.3885 
  363400    305.55581            0    3294.6641    6558.0742    1073.9285 
  363500    304.59059            0    3304.9863    6558.0876    1041.8832 
  363600    306.18198            0    3287.9803    6558.0781    1066.2073 
  363700    304.16488            0    3309.5274    6558.0821    1128.6535 
  363800    303.99636            0    3311.3452       6558.1    1097.5314 
  363900    307.04888            0    3278.7351    6558.0916    1061.9136 
  364000    298.57984            0     3369.188    6558.0931    1074.3103 
  364100     306.5638            0    3283.9158    6558.0915    1005.8548 
  364200    302.25266            0    3329.9562    6558.0879    1026.8769 
  364300     306.1518            0    3288.3019    6558.0773    1060.4239 
  364400    306.38449            0    3285.8322    6558.0929    1062.0116 
  364500    302.75543            0    3324.5853    6558.0866    1060.3026 
  364600    304.85242            0     3302.197    6558.0948    1095.6259 
  364700    305.96323            0    3290.3092    6558.0706    1083.2891 
  364800    306.97347            0    3279.5309     6558.082    1052.8151 
  364900     301.5227            0    3337.7577    6558.0932    1095.8672 
  365000    304.82783            0    3302.4518    6558.0869    1088.3066 
  365100    307.08025            0    3278.3928    6558.0843    1069.6344 
  365200    306.82728            0     3281.084    6558.0737    1062.5359 
  365300    307.59648            0    3272.8745    6558.0794    1044.2289 
  365400    302.33775            0    3329.0455     6558.086    1003.6164 
  365500    305.02252            0    3300.3763    6558.0908    1054.5342 
  365600    308.46031            0    3263.6484    6558.0793     1043.715 
  365700    302.54045            0    3326.9015    6558.1069    1065.7309 
  365800    305.16469            0    3298.8585    6558.0914    1067.8368 
  365900    305.29425            0    3297.4736    6558.0903    1023.0547 
  366000    304.51264            0    3305.8265    6558.0953    1030.0735 
  366100    305.49738            0    3295.2917    6558.0778    1027.7527 
  366200    305.19727            0    3298.5111    6558.0919    1076.7245 
  366300    307.99797            0    3268.5949    6558.0878    1072.5757 
  366400    299.78971            0    3356.2631    6558.0899    989.94068 
  366500    305.62165            0    3293.9594    6558.0727    971.52201 
  366600    304.59052            0     3304.983    6558.0836     1014.931 
  366700    304.61611            0    3304.6991     6558.073    1035.3609 
  366800    314.37068            0    3200.5097    6558.0648    1045.5562 
  366900    302.37501            0     3328.649    6558.0874    1081.0619 
  367000    304.88242            0    3301.8714    6558.0895    1030.2387 
  367100    304.93045            0    3301.3623    6558.0935    1033.5007 
  367200    305.37772            0    3296.5713    6558.0794    1039.3962 
  367300    306.54801            0    3284.0697    6558.0768    1071.2539 
  367400    305.66532            0    3293.5185    6558.0981    1054.0882 
  367500    306.36353            0    3286.0549    6558.0917    1043.8443 
  367600    303.68277            0    3314.6723    6558.0779    1044.2736 
  367700    306.78613            0    3281.5347     6558.085    996.03186 
  367800    304.71905            0    3303.5983    6558.0716    1004.3836 
  367900    307.87511            0    3269.8928    6558.0737    1019.9103 
  368000    303.29939            0    3318.7832    6558.0943    1021.9622 
  368100    302.12288            0    3331.3376    6558.0832    1029.8239 
  368200    308.18685            0    3266.5687    6558.0789    1030.8819 
  368300    304.74476            0    3303.3354    6558.0834     993.2042 
  368400    304.17344            0    3309.4339      6558.08    1070.1441 
  368500    304.09776            0    3310.2573    6558.0951     1062.064 
  368600     307.0593            0    3278.6057    6558.0734    1011.6831 
  368700    306.66543            0    3282.8238    6558.0849    1021.3756 
  368800    302.66123            0    3325.5851    6558.0804    1016.8077 
  368900    301.36745            0    3339.3995     6558.077    1008.9577 
  369000    305.88417            0    3291.1709    6558.0881    1059.5022 
  369100    306.31438            0    3286.5732    6558.0851    1055.7807 
  369200    305.44116            0    3295.8952    6558.0809    985.77616 
  369300     304.0382            0    3310.8869    6558.0887    1014.3745 
  369400    309.02942            0    3257.5724    6558.0815    1101.4596 
  369500    306.39702            0    3285.6878    6558.0823    1073.5107 
  369600    305.22193            0    3298.2507    6558.0949     1027.487 
  369700    301.11707            0    3342.0812    6558.0845       1043.4 
  369800     313.2191            0    3212.8151    6558.0711    1037.0802 
  369900     301.5713            0    3337.2357    6558.0903    1046.1816 
  370000    299.75494            0    3356.6466     6558.102    1081.8654 
  370100    305.96241            0    3290.3223     6558.075    1052.1868 
  370200    305.60484            0    3294.1449    6558.0787    1092.8946 
  370300    303.72796            0     3314.205    6558.0933    1080.8027 
  370400    305.16147            0    3298.8672    6558.0657    1009.5095 
  370500    307.12585            0    3277.8989    6558.0774    1002.2346 
  370600    304.19383            0    3309.2319    6558.0957    1054.0994 
  370700    304.63159            0    3304.5445    6558.0838    1046.8509 
  370800    303.18186            0    3320.0255    6558.0813    1054.5095 
  370900    310.69165            0    3239.8101    6558.0722    1037.0155 
  371000     301.6072            0     3336.862       6558.1     1035.361 
  371100    304.75195            0    3303.2578    6558.0826       1046.4 
  371200    305.29731            0    3297.4259    6558.0751    1050.8558 
  371300    306.97456            0     3279.521    6558.0838    1059.8194 
  371400    307.62145            0    3272.5965    6558.0682    1049.6777 
  371500    309.93119            0     3247.933    6558.0732    1031.8968 
  371600    299.64675            0    3357.7949    6558.0948    1075.7244 
  371700     308.2159            0     3266.244    6558.0645    1000.5172 
  371800     305.8138            0    3291.9172    6558.0826    1017.3487 
  371900    304.56426            0    3305.2685    6558.0886    1065.4756 
  372000    307.67936            0    3271.9842    6558.0743    1036.6061 
  372100    306.80467            0    3281.3352    6558.0834    1032.1635 
  372200    304.23781            0    3308.7605    6558.0941    1045.9168 
  372300    305.79824            0    3292.0706      6558.07    966.69658 
  372400    301.81371            0     3334.659    6558.1026    1024.7747 
  372500    308.89104            0    3259.0486    6558.0798    1030.3517 
  372600    306.22475            0    3287.5151    6558.0696    1029.9816 
  372700    299.66248            0    3357.6286    6558.0966    1046.6246 
  372800    307.40738            0    3274.8908    6558.0762    1055.9535 
  372900    300.43786            0    3349.3398     6558.089    1077.5023 
  373000     310.0078            0    3247.1303    6558.0888     1082.721 
  373100    304.76662            0    3303.1023    6558.0837    1072.4306 
  373200    301.41181            0    3338.9397    6558.0909     1057.285 
  373300     305.8924            0    3291.0766    6558.0816    1029.6999 
  373400    311.01227            0    3236.3852    6558.0717     1029.211 
  373500    308.28698            0    3265.5064    6558.0861    1062.8591 
  373600    302.57483            0    3326.5235    6558.0961    1046.5185 
  373700    299.75661            0    3356.6248     6558.098    1023.9196 
  373800    309.75452            0    3249.8273    6558.0807    1013.2489 
  373900    301.86967            0    3334.0575    6558.0987    1047.7818 
  374000    299.75873            0    3356.6107    6558.1065    1052.5255 
  374100    308.77269            0    3260.3174    6558.0846    1051.6564 
  374200    300.03733            0    3353.6446    6558.1159     1129.213 
  374300    307.16744            0    3277.4602    6558.0829    1067.0726 
  374400    301.62643            0    3336.6554    6558.0987    1080.2785 
  374500    302.81005            0    3324.0021    6558.0868    1046.0415 
  374600    305.87425            0    3291.2787    6558.0898    959.82858 
  374700    304.63299            0    3304.5323    6558.0864    981.80273 
  374800    307.04807            0    3278.7492    6558.0969    1037.4974 
  374900    302.25816            0    3329.8924    6558.0829    1041.0851 
  375000    309.22593            0    3255.4695    6558.0774    1083.8561 
  375100    305.73004            0    3292.8022    6558.0731    1066.3928 
  375200    306.42006            0    3285.4368    6558.0774     1031.626 
  375300    304.25454            0    3308.5634    6558.0756    1053.2719 
  375400    308.75032            0    3260.5459    6558.0742    1058.9286 
  375500    303.31881            0    3318.5791    6558.0975    1108.3485 
  375600    303.30738            0    3318.6808    6558.0771    1059.0726 
  375700    307.49041            0    3274.0145    6558.0866    1063.2453 
  375800    301.56819            0    3337.2718    6558.0932    1042.9403 
  375900    305.62744            0    3293.8941    6558.0692    1063.6998 
  376000    304.33708            0    3307.7059    6558.0996    1087.2104 
  376100    303.47309            0     3316.916    6558.0822    1047.3234 
  376200    304.76711            0    3303.0948    6558.0814     1042.127 
  376300    303.39127            0    3317.7995    6558.0918    1081.3574 
  376400    306.25079            0    3287.2383     6558.071    1080.2594 
  376500    302.30335            0    3329.4111    6558.0841    1089.3056 
  376600    308.52098            0    3262.9932    6558.0721    1046.9446 
  376700    305.78819            0     3292.192     6558.084    1046.0945 
  376800     304.4562            0    3306.4062    6558.0723    966.81111 
  376900    300.75248            0      3345.98    6558.0894     1032.742 
  377000    306.76576            0    3281.7529    6558.0856    1077.0732 
  377100    310.26047            0    3244.4061    6558.0631    1030.6839 
  377200    304.00829            0    3311.2153    6558.0976    1086.5248 
  377300    301.74392            0    3335.3941    6558.0923    1115.8281 
  377400    305.71036            0    3293.0184    6558.0791    1081.3526 
  377500     304.7028            0    3303.7958    6558.0956    1095.9807 
  377600    304.54981            0    3305.4158    6558.0816    1061.4845 
  377700    303.04867            0    3321.4662    6558.0994    1098.9138 
  377800     300.2322            0    3351.5361    6558.0887    1070.0623 
  377900    310.42486            0    3242.6718    6558.0846    1022.8757 
  378000    300.66083            0    3346.9676    6558.0981    1030.4347 
  378100    307.05077            0    3278.6971    6558.0738    1003.7322 
  378200    305.76334            0     3292.443    6558.0695    1061.9955 
  378300    306.72775            0     3282.162    6558.0887    1044.0698 
  378400    303.56229            0    3315.9607    6558.0795    1020.2456 
  378500    307.36551            0    3275.3392    6558.0773    1011.1443 
  378600    304.35368            0    3307.5122    6558.0834    1016.4886 
  378700    302.49395            0    3327.3781    6558.0869     1010.708 
  378800    305.12145            0    3299.3132    6558.0843    1050.6707 
  378900     308.1388            0     3267.065    6558.0621    1038.2924 
  379000    303.67246            0    3314.7936    6558.0892    1036.4183 
  379100    308.36257            0     3264.692     6558.079    1052.2913 
  379200    307.36216            0    3275.3579    6558.0602     1034.805 
  379300    305.65103            0    3293.6394    6558.0665    1030.5317 
  379400    306.95583            0    3279.7182    6558.0809    1091.0589 
  379500     304.8773            0    3301.9206    6558.0841    1089.6951 
  379600     303.4642            0    3317.0072    6558.0784    1083.2495 
  379700    299.03662            0    3364.3134     6558.097    1081.1064 
  379800    305.49161            0    3295.3484    6558.0728    1092.5573 
  379900    308.70532            0    3261.0101    6558.0578    1046.1878 
  380000    304.25102            0    3308.6006    6558.0753    1102.6804 
  380100    304.39398            0    3307.0771    6558.0786    1107.5427 
  380200    302.33199            0    3329.1073    6558.0862    1095.2751 
  380300    308.71936            0    3260.8715    6558.0691    1037.9534 
  380400    306.34349            0    3286.2538    6558.0766    1074.9131 
  380500    305.47392            0    3295.5457    6558.0812    1051.1813 
  380600    305.25748            0    3297.8472    6558.0711    1003.0842 
  380700    296.95975            0    3386.4952    6558.0973    1067.2585 
  380800    309.56578            0    3251.8345    6558.0721    1031.2416 
  380900    305.06105            0    3299.9558    6558.0818    1086.0015 
  381000    307.58781            0    3272.9554    6558.0677    1059.5116 
  381100    300.45593            0    3349.1499    6558.0921      1074.27 
  381200    300.59279            0    3347.6854    6558.0893    1072.1606 
  381300    309.95161            0    3247.7009    6558.0592    1084.8626 
  381400    311.79201            0    3228.0438     6558.058    1069.4412 
  381500     304.6426            0    3304.4349    6558.0917    1080.8297 
  381600    303.19611            0    3319.8694    6558.0773    1035.1196 
  381700    306.98494            0    3279.3974     6558.071    983.69275 
  381800    304.68952            0    3303.9213    6558.0793    1039.4055 
  381900    307.71081            0    3271.6644    6558.0904    1102.2276 
  382000    308.34548            0    3264.8819    6558.0864    1066.1881 
  382100    302.73324            0    3324.8297     6558.094    1045.3823 
  382200    303.10947            0    3320.7941    6558.0767    1019.4737 
  382300    312.15894            0     3224.127    6558.0601    1003.1765 
  382400    305.07491            0    3299.8092    6558.0831    1013.0776 
  382500    308.94548            0    3258.4748    6558.0874    1061.7833 
  382600    299.82686            0    3355.8793    6558.1029    1063.0285 
  382700    301.95589            0    3333.1345    6558.0966    1018.3145 
  382800    304.79996            0    3302.7494    6558.0869    1020.7932 
  382900     306.0127            0    3289.8054    6558.0951     1025.527 
  383000    302.76868            0    3324.4495    6558.0924    976.37334 
  383100     300.8482            0    3344.9623     6558.094    1015.4687 
  383200    309.91547            0    3248.1061    6558.0784    1037.4954 
  383300    298.96303            0    3365.0931    6558.0907     1042.706 
  383400    304.35636            0    3307.5019    6558.1016    1083.8384 
  383500    308.68351            0    3261.2704    6558.0851    1066.0458 
  383600    305.13591            0    3299.1654    6558.0909     1070.744 
  383700    309.55725            0    3251.9318    6558.0782    1039.2784 
  383800    305.66629            0    3293.4838    6558.0739    993.69593 
  383900    297.84962            0    3376.9942    6558.1003     988.2595 
  384000    312.47764            0    3220.7376    6558.0745    1031.5082 
  384100    303.99525            0    3311.3362    6558.0792    1046.9287 
  384200    306.09607            0    3288.9138     6558.094    1055.3311 
  384300    304.06682            0    3310.5916    6558.0989    1074.8773 
  384400    305.13316            0    3299.1916    6558.0877    1073.3907 
  384500    304.37223            0    3307.3196    6558.0888    1051.4586 
  384600    302.80161            0    3324.0998    6558.0944    1054.8981 
  384700    306.31565            0    3286.5661    6558.0915    1024.1557 
  384800    305.53291            0     3294.929    6558.0945    1062.7932 
  384900    304.11151            0    3310.0896    6558.0742    1075.6116 
  385000    306.60082            0    3283.5194    6558.0905    1059.3508 
  385100    306.24369            0    3287.3144    6558.0713     1045.753 
  385200    308.94928            0    3258.4274    6558.0806      1065.04 
  385300    304.04222            0    3310.8529    6558.0974    1040.5492 
  385400    305.90187            0    3290.9657    6558.0718    1010.1433 
  385500    305.08261            0    3299.7231    6558.0793     1030.046 
  385600    303.89364            0    3312.4335    6558.0913    1041.6003 
  385700    306.25867            0    3287.1669    6558.0837    1042.3234 
  385800    305.97522            0    3290.1947    6558.0842    1046.7257 
  385900    307.08999            0    3278.2896    6558.0852    1035.7547 
  386000    304.09271            0    3310.3204    6558.1042     1036.986 
  386100    304.32128            0     3307.855      6558.08    1000.3198 
  386200    307.62916            0    3272.5246    6558.0786    1004.9313 
  386300    301.58898            0    3337.0465    6558.0899    1054.0928 
  386400    310.66359            0    3240.1087    6558.0711     1052.811 
  386500    303.28672            0     3318.932    6558.1077    1064.2832 
  386600    302.04258            0    3332.2062    6558.0942    1010.1115 
  386700     305.5877            0    3294.3303     6558.081    968.22987 
  386800    306.04731            0    3289.4229    6558.0824    993.75533 
  386900    309.22472            0    3255.4812    6558.0762    1056.7006 
  387000    304.82123            0    3302.5165    6558.0811    1061.3445 
  387100    302.51667            0    3327.1288    6558.0801    1044.7001 
  387200    305.08495            0    3299.7058     6558.087    1082.0515 
  387300    305.92334            0    3290.7474    6558.0829    1080.7399 
  387400    304.46416            0     3306.341     6558.092    1070.2511 
  387500    305.89695            0    3291.0316    6558.0852     1081.071 
  387600    304.35098            0    3307.5493    6558.0916    1109.9836 
  387700    311.81709            0    3227.7743    6558.0563    1050.1351 
  387800    305.82014            0    3291.8529    6558.0861    1073.7392 
  387900    306.63855            0    3283.1072    6558.0812    1044.6177 
  388000    300.11325            0     3352.801    6558.0833    1051.6056 
  388100    307.34391            0    3275.5803    6558.0878    1031.2586 
  388200    303.78149            0    3313.6346    6558.0945     1041.054 
  388300    307.37107            0    3275.2786    6558.0762    1012.8753 
  388400    303.65283            0    3314.9887    6558.0744    996.52416 
  388500    305.78904            0    3292.1839    6558.0849    1044.5396 
  388600    310.71594            0    3239.5582    6558.0798    1037.9715 
  388700    296.79134            0    3388.2912    6558.0946    1073.2733 
  388800     307.4304            0     3274.653    6558.0841    1048.7695 
  388900    301.42377            0     3338.824    6558.1029    1043.3848 
  389000    309.95899            0     3247.622    6558.0592    962.07591 
  389100    308.35937            0    3264.7247    6558.0775    1018.9492 
  389200    305.03122            0    3300.2958    6558.1032    1062.3559 
  389300    303.25925            0    3319.1874    6558.0698    1038.0524 
  389400    305.11337            0    3299.3973    6558.0821    1058.1317 
  389500    304.39576            0    3307.0651    6558.0856    1043.8416 
  389600    302.40923            0     3328.278    6558.0819     1022.943 
  389700    303.72789            0    3314.2095     6558.097    1068.7452 
  389800    307.64092            0    3272.4112    6558.0908    1061.2668 
  389900    306.15423            0    3288.2797     6558.081    1043.3335 
  390000    308.39126            0    3264.3891    6558.0825    1036.7561 
  390100    301.26576            0    3340.4845    6558.0758    1056.0339 
  390200      303.329            0    3318.4609    6558.0882    1037.5821 
  390300    303.00731            0    3321.9027    6558.0942    1102.3693 
  390400    311.34882            0    3232.7871     6558.068    1075.7672 
  390500    302.52693            0    3327.0184    6558.0793    1086.8421 
  390600    308.37908            0    3264.5068    6558.0701    1092.3971 
  390700    306.62632            0    3283.2161    6558.0595    1051.9822 
  390800    303.33077            0    3318.4358    6558.0819    1056.5993 
  390900    312.81568            0    3217.1096    6558.0569    1049.2157 
  391000    303.50725            0     3316.555     6558.086    1127.7797 
  391100    306.50492            0    3284.5343    6558.0811    1117.5304 
  391200    302.70045            0    3325.1693    6558.0834    1064.6575 
  391300    302.51642            0    3327.1349    6558.0836    1007.4757 
  391400    306.21193            0    3287.6725    6558.0901      1045.57 
  391500    303.46348            0    3317.0262    6558.0898    1111.0872 
  391600    305.16033            0    3298.8936    6558.0799    1089.7991 
  391700    310.32212            0    3243.7477    6558.0632    1041.4577 
  391800    303.85633            0    3312.8278    6558.0871    1046.2416 
  391900    307.89567            0    3269.6683    6558.0687    1017.5941 
  392000    305.96863            0    3290.2552    6558.0743    1052.8827 
  392100    302.95529            0    3322.4539    6558.0899    1056.5762 
  392200    311.19312            0      3234.44    6558.0579    977.37893 
  392300    304.79798            0    3302.7566    6558.0729     1071.517 
  392400    307.00193            0    3279.2125    6558.0675    1085.0799 
  392500     306.8316            0    3281.0454    6558.0813     1087.627 
  392600    307.08484            0    3278.3366    6558.0771    1129.5688 
  392700    302.59984            0    3326.2329    6558.0725    1101.4476 
  392800    306.40222            0    3285.6385    6558.0885    1041.5073 
  392900    303.83362            0    3313.0614    6558.0782    1034.8336 
  393000    300.44349            0    3349.2833    6558.0926    1052.9045 
  393100     304.7038            0    3303.7823    6558.0927    1084.0629 
  393200    305.77069            0      3292.37    6558.0751    1099.1327 
  393300    305.25449            0    3297.8953    6558.0872    1111.6382 
  393400    308.73716            0    3260.6789    6558.0666    1056.0747 
  393500    304.25895            0    3308.5144    6558.0738    1053.0711 
  393600    305.52978            0    3294.9318    6558.0639    1032.7176 
  393700    304.21887            0    3308.9567     6558.088    1094.2775 
  393800    307.28045            0    3276.2492    6558.0789    1052.7645 
  393900    306.66379            0    3282.8351    6558.0787    1044.3324 
  394000    303.15022            0    3320.3673    6558.0851    1061.3128 
  394100    300.52717            0     3348.388     6558.091    1062.4553 
  394200    299.75417            0    3356.6508     6558.098    1050.5882 
  394300    311.85911            0    3227.3452    6558.0761    1033.6177 
  394400    307.05516            0    3278.6468    6558.0704    1047.3193 
  394500    300.32226            0    3350.5781    6558.0927    1055.4926 
  394600    308.80786            0    3259.9333    6558.0761    1076.2884 
  394700    298.26838            0    3372.5078    6558.0865    1082.7753 
  394800    302.23107            0    3330.1828    6558.0839    1073.9244 
  394900     308.2122            0    3266.2859     6558.067    1029.7784 
  395000     309.9648            0    3247.5663    6558.0655    1041.2999 
  395100    305.15359            0    3298.9677     6558.082    1036.6077 
  395200    302.84831            0    3323.5951    6558.0884    1017.1466 
  395300    302.34548            0    3328.9664    6558.0894    1055.8208 
  395400    302.77809            0     3324.343    6558.0864    1089.8049 
  395500    311.49285            0    3231.2531    6558.0723    1079.9208 
  395600    303.53225            0    3316.2883    6558.0863    1077.8524 
  395700    306.96018            0    3279.6619    6558.0711    1027.6966 
  395800    305.23285            0    3298.1076    6558.0684    1017.6088 
  395900    306.44106            0     3285.218    6558.0829    1080.8841 
  396000    304.62538            0    3304.6146    6558.0875    1083.5091 
  396100    304.01269            0    3311.1632    6558.0925    1057.5331 
  396200    310.00483            0    3247.1448    6558.0715    1029.1843 
  396300    301.95874            0    3333.1011    6558.0937    1062.8509 
  396400    305.77125            0    3292.3703    6558.0813    1033.0414 
  396500    305.78653            0    3292.1994    6558.0736    1039.0536 
  396600    307.13031            0    3277.8548    6558.0809    1057.9712 
  396700    303.06168            0    3321.3201    6558.0924     1022.244 
  396800    307.93206            0    3269.2885    6558.0775    1034.6824 
  396900    303.83964            0    3313.0062    6558.0872    1057.1331 
  397000     304.3202            0    3307.8649    6558.0784    1080.8916 
  397100    309.00974            0    3257.7743    6558.0732    1073.2969 
  397200    303.72518            0    3314.2312    6558.0898    1054.3135 
  397300    307.24893            0    3276.5793    6558.0724    1042.3108 
  397400     302.2769            0    3329.7109    6558.1014    1106.5896 
  397500    304.32477            0    3307.8157    6558.0779    1019.4096 
  397600    301.20654            0      3341.15    6558.1088     1075.104 
  397700    301.41619            0    3338.9001    6558.0981    1077.0166 
  397800    305.05795            0    3299.9876    6558.0804    1031.1955 
  397900    304.54981            0    3305.4166    6558.0824    1068.8912 
  398000     301.7242            0    3335.6045     6558.092    1115.2396 
  398100     306.4837            0     3284.764    6558.0842    1055.8158 
  398200    305.17272            0    3298.7586    6558.0772    1063.5902 
  398300    305.53286            0    3294.9212    6558.0862      1053.59 
  398400    306.69803            0    3282.4904    6558.0997    1045.8149 
  398500    300.31632            0    3350.6403    6558.0914    1069.1697 
  398600    303.27233            0    3319.0759    6558.0979    1053.6018 
  398700    304.21975            0    3308.9571    6558.0978    1044.0253 
  398800    304.40056            0    3307.0066    6558.0784    1039.8361 
  398900    309.44407            0    3253.1469    6558.0845    1086.9706 
  399000    302.91188            0    3322.9098    6558.0821    1059.0644 
  399100    304.91152            0     3301.556     6558.085     1089.606 
  399200    306.94501            0    3279.8253    6558.0724    1073.8772 
  399300    306.80207            0    3281.3563    6558.0768    1032.3575 
  399400     302.6163            0    3326.0745    6558.0899    1091.8115 
  399500    309.09182            0    3256.8898    6558.0653    1087.2509 
  399600    304.02422            0    3311.0368    6558.0892    1040.4433 
  399700    299.89359            0    3355.1552    6558.0914    1042.6038 
  399800    309.48185            0    3252.7289    6558.0701    1046.2553 
  399900    304.84179            0    3302.3087    6558.0929    1057.1925 
  400000    305.11167            0    3299.4324     6558.099    1036.9454 
  400100     304.0773            0    3310.4733    6558.0926    1048.2658 
  400200    305.11965            0    3299.3424    6558.0942    1020.1183 
  400300    302.55994            0    3326.6757    6558.0892    1009.2084 
  400400    308.00814            0    3268.4757    6558.0773    1030.4212 
  400500    300.78745            0    3345.6049    6558.0878      1056.06 
  400600    303.74027            0    3314.0713    6558.0911    1048.8891 
  400700    307.09658            0    3278.2167    6558.0826    1090.4966 
  400800    304.46657            0    3306.3111    6558.0879    1079.2481 
  400900    302.81372            0    3323.9587    6558.0826    1045.2889 
  401000    303.79013            0    3313.5328     6558.085    1087.2364 
  401100    306.76851            0    3281.7242    6558.0862    1074.0374 
  401200    304.05275            0    3310.7352    6558.0922    1057.5247 
  401300    300.49883            0    3348.7018    6558.1021     1051.777 
  401400     302.2316            0    3330.1801    6558.0869    1088.7481 
  401500     302.9298            0    3322.7261    6558.0898    1126.3371 
  401600     308.3547            0    3264.7762    6558.0791    1128.2031 
  401700    306.03724            0    3289.5156    6558.0676    1060.5066 
  401800    302.69848            0    3325.1808    6558.0739    1083.3908 
  401900    300.43289            0    3349.3909     6558.087    1112.0217 
  402000    305.25654            0    3297.8732    6558.0871    1098.0486 
  402100    308.21844            0    3266.2305    6558.0781    1115.5884 
  402200    305.65132            0    3293.6574    6558.0876    1120.1516 
  402300    302.84658            0    3323.6078    6558.0826    1067.3592 
  402400    306.72457            0    3282.1679    6558.0606    1047.4625 
  402500     306.4123            0    3285.5122    6558.0699    1056.0706 
  402600    304.48147            0    3306.1387    6558.0746    1077.6659 
  402700    303.41273            0    3317.5593    6558.0808    1068.1429 
  402800    306.74507            0    3281.9606    6558.0723    1075.3437 
  402900    305.86375            0    3291.3768    6558.0758    1042.5878 
  403000    304.99693            0    3300.6436    6558.0848    1070.8544 
  403100    304.82078            0    3302.5254    6558.0852    1099.8213 
  403200    301.10665            0    3342.1867    6558.0788    1052.6729 
  403300    308.73609            0    3260.7037      6558.08    1053.0059 
  403400    303.70819            0     3314.398    6558.0751    1075.1076 
  403500    303.01499            0    3321.8024    6558.0759    1069.8159 
  403600    308.51972            0    3263.0056    6558.0711    1070.3429 
  403700    301.42652            0    3338.7604    6558.0687     1094.343 
  403800    308.87885            0    3259.1743    6558.0753    1078.2584 
  403900    304.90805            0    3301.5934    6558.0852    1041.9737 
  404000    299.74126            0     3356.786    6558.0953    1090.6567 
  404100    307.44606            0    3274.4895     6558.088    1058.3658 
  404200    300.14791            0    3352.4213    6558.0738    1043.4013 
  404300    309.34384            0    3254.2166    6558.0837    1056.4685 
  404400    307.10094            0    3278.1698    6558.0824    1130.9662 
  404500    309.38803            0    3253.7213    6558.0605    1023.0284 
  404600    303.85478            0    3312.8465    6558.0892    1072.0779 
  404700    300.29425            0    3350.8682    6558.0836    1051.6333 
  404800     305.7591            0    3292.4902    6558.0715    1007.5739 
  404900     313.2202            0    3212.8054     6558.073    1038.5788 
  405000    294.61463            0    3411.5495    6558.1052    1068.2897 
  405100    305.78216            0    3292.2675    6558.0951    1045.9798 
  405200    307.44753            0    3274.4675    6558.0816     1068.091 
  405300     302.0456            0    3332.1703    6558.0905    1051.7194 
  405400    303.19957            0    3319.8426    6558.0876    1050.8854 
  405500    309.58828            0    3251.5974    6558.0753    1076.1251 
  405600    303.11661            0    3320.7308    6558.0896    1096.5363 
  405700    302.40919            0    3328.2834     6558.087    1026.3303 
  405800    301.89353            0    3333.7889    6558.0849    1027.3628 
  405900     306.1769            0    3288.0332    6558.0767    1078.0316 
  406000    309.97221            0    3247.4819    6558.0603    1054.8578 
  406100    306.20969            0    3287.6906    6558.0843    1045.7647 
  406200    299.12726            0    3363.3289    6558.0805    1039.3797 
  406300    307.59638            0    3272.8708    6558.0748    995.58206 
  406400    303.28572            0    3318.9355    6558.1005    1013.7889 
  406500    306.23883            0    3287.3702    6558.0751    1050.9613 
  406600    305.44825            0    3295.8217     6558.083    1031.8171 
  406700    300.93329            0    3344.0589    6558.0993    1089.9856 
  406800    307.46901            0    3274.2472    6558.0908    1100.3815 
  406900    303.28972            0     3318.862    6558.0697    1080.4762 
  407000    303.88603            0    3312.5075     6558.084    1055.2492 
  407100     305.8557            0    3291.4714    6558.0844    1057.5438 
  407200    301.31272            0    3340.0093    6558.1022     1068.777 
  407300    304.15618            0    3309.6315    6558.0932     1064.911 
  407400    306.83818            0    3280.9772    6558.0833     1051.405 
  407500    308.09508            0    3267.5387    6558.0688    1039.8165 
  407600    303.07948            0    3321.1194    6558.0817    1041.5344 
  407700    305.36494            0    3296.7121    6558.0837    1038.7798 
  407800    303.43551            0    3317.3181    6558.0829    1061.0849 
  407900    310.23429            0    3244.6908    6558.0682    1019.6964 
  408000    304.85797            0    3302.1149    6558.0719    1035.4666 
  408100    304.41506            0    3306.8536    6558.0803     1058.351 
  408200    307.31206            0    3275.9149    6558.0822    1074.7124 
  408300    302.43334            0    3328.0266     6558.088     1074.046 
  408400    305.45658            0    3295.7333    6558.0836    1065.1746 
  408500    304.67541            0    3304.0712    6558.0785    1039.0064 
  408600    303.07823            0    3321.1518    6558.1008    1028.0569 
  408700      303.547            0    3316.1344    6558.0899    1049.6285 
  408800    301.82489            0    3334.5174    6558.0804    1021.4454 
  408900    309.00267            0    3257.8562    6558.0796    1003.5194 
  409000    301.43203            0    3338.7322    6558.0994     1023.666 
  409100    306.33329            0      3286.38    6558.0937    1043.2673 
  409200    301.86138            0    3334.1403     6558.093    1040.7813 
  409300    311.99224            0    3225.9225    6558.0753    1023.6006 
  409400    300.73387            0    3346.1846    6558.0952    1099.3691 
  409500    307.11545            0    3278.0155    6558.0829    1083.8451 
  409600    303.43782            0    3317.3105    6558.0999    1070.0214 
  409700    300.93007            0    3344.0834    6558.0896    1082.3028 
  409800    305.96169            0    3290.3534    6558.0984    1085.6858 
  409900    302.96603            0    3322.3337    6558.0843    1116.9134 
  410000     305.5701            0    3294.5236    6558.0864    1061.7462 
  410100    304.21565            0    3308.9941     6558.091      1048.26 
  410200    305.76136            0    3292.4731    6558.0785    1060.4905 
  410300    305.39725            0    3296.3796    6558.0963    1100.5543 
  410400    304.85286            0    3302.1853    6558.0878    1065.7526 
  410500    304.33665            0    3307.6999    6558.0891    1058.3863 
  410600    305.58255            0    3294.3683    6558.0641    1055.9501 
  410700    308.74635            0    3260.6034    6558.0893    1050.8098 
  410800    303.27764            0    3319.0135    6558.0922    1015.4523 
  410900    300.15311            0    3352.3915    6558.0995     1058.365 
  411000    308.51243            0    3263.0864    6558.0739    996.16558 
  411100    301.78368            0    3334.9666    6558.0895    1031.7451 
  411200    304.58674            0    3305.0277    6558.0879    1049.3171 
  411300    307.25276            0    3276.5522    6558.0862    1057.5334 
  411400    307.83262            0    3270.3453    6558.0723    1010.2116 
  411500    307.03239            0    3278.9084    6558.0888    982.61831 
  411600    305.85017            0    3291.5376    6558.0916    1014.4666 
  411700     300.7921            0    3345.5584     6558.091    1020.9452 
  411800    299.89768            0    3355.1223    6558.1022    1041.1793 
  411900    309.86776            0    3248.6206    6558.0834    1040.0438 
  412000    305.93904            0    3290.5831    6558.0863     1055.275 
  412100    305.46784            0    3295.6179    6558.0885    1052.7484 
  412200    302.53149            0    3326.9757    6558.0853    1035.5337 
  412300    303.89223            0    3312.4483     6558.091    1065.6729 
  412400    307.09154            0    3278.2728     6558.085    1082.6059 
  412500    304.85863            0    3302.1284    6558.0925    1096.0534 
  412600    308.38608            0    3264.4449     6558.083    1065.6255 
  412700    300.97157            0    3343.6271    6558.0764    1033.9609 
  412800    308.10121            0    3267.4957    6558.0914    1038.6313 
  412900    302.16089            0    3330.9236    6558.0751    1036.2861 
  413000    307.33702            0     3275.663    6558.0969    1031.2703 
  413100    304.02953            0    3310.9939     6558.103    1036.6303 
  413200    303.50076            0    3316.6336    6558.0954    1045.5602 
  413300    305.69539            0    3293.1881    6558.0889    1045.7106 
  413400    305.31279            0    3297.2816    6558.0962    1043.1304 
  413500    304.73256            0    3303.4715     6558.089    1027.5211 
  413600    308.05701            0    3267.9638    6558.0873    1023.1981 
  413700    307.38435            0    3275.1447    6558.0841    978.31636 
  413800     304.7854            0    3302.9032    6558.0852    984.36502 
  413900    301.50983            0    3337.9021    6558.1001    1005.0211 
  414000    308.70536            0    3261.0328    6558.0809    1009.2438 
  414100    305.10488            0    3299.4888    6558.0828    1011.0137 
  414200     305.1466            0    3299.0339    6558.0736    1043.6301 
  414300    309.71908            0    3250.2019    6558.0768    1017.3126 
  414400    303.24566            0    3319.3403    6558.0774    1010.5649 
  414500    304.26979            0    3308.4027    6558.0778    983.58844 
  414600      308.242            0     3265.977    6558.0763     1016.482 
  414700    309.19768            0    3255.7758    6558.0819    1041.1953 
  414800    304.30936            0    3307.9772    6558.0749    1021.4373 
  414900    305.30875            0       3297.3    6558.0715    999.87712 
  415000     302.9362            0    3322.6502    6558.0822    1055.4415 
  415100    313.94952            0    3205.0119     6558.069    1053.0924 
  415200    297.42057            0    3381.5811    6558.1049    1091.4813 
  415300    307.41731            0    3274.7841    6558.0755     1045.633 
  415400    303.30897            0    3318.6685    6558.0819    991.11391 
  415500    306.87349            0    3280.5857     6558.069    1030.0514 
  415600    307.00879            0    3279.1518    6558.0801    1042.6759 
  415700     304.1951            0    3309.2166    6558.0941    1040.1432 
  415800     302.3433            0    3328.9994    6558.0991    1019.8413 
  415900    304.35276            0    3307.5144    6558.0756    1030.9956 
  416000    305.70125            0    3293.1305     6558.094    1044.8312 
  416100    303.63615            0    3315.1847    6558.0923    1039.2201 
  416200    299.90326            0    3355.0584    6558.0979    1031.8305 
  416300    308.02136            0      3268.34    6558.0828    1041.4759 
  416400    303.16951            0    3320.1771    6558.1009    1052.1786 
  416500    307.47529            0    3274.1661    6558.0768    1029.6451 
  416600    307.25411            0    3276.5473    6558.0957    1065.3098 
  416700    303.67428            0     3314.766    6558.0809    1064.8283 
  416800    302.66452            0    3325.5663    6558.0968    1060.4594 
  416900     310.3878            0    3243.0754    6558.0924    1023.4983 
  417000    301.06983            0    3342.5979    6558.0967     1073.543 
  417100    304.23706            0    3308.7668    6558.0924    982.01509 
  417200    304.55165            0    3305.4054    6558.0908     1068.541 
  417300    303.45776            0    3317.0918    6558.0943    1068.7745 
  417400    302.29485            0    3329.5022    6558.0845    1010.1854 
  417500    305.89076            0    3291.1042    6558.0917    1079.7942 
  417600    309.22794            0    3255.4368    6558.0661    1074.4023 
  417700    299.78002            0    3356.3805    6558.1038    1104.5879 
  417800    305.95613            0    3290.4006    6558.0862    1036.0584 
  417900    307.01381            0    3279.0919    6558.0737    1048.5102 
  418000    303.90877            0    3312.2683    6558.0876    1032.9876 
  418100    305.55022            0    3294.7305    6558.0809    1032.3914 
  418200    303.81935            0    3313.2057    6558.0701    1083.5221 
  418300    308.98297            0    3258.0793    6558.0922    1065.9046 
  418400    301.52681            0    3337.7007    6558.0801    995.79811 
  418500    310.30574            0    3243.9309    6558.0715    1001.0526 
  418600    303.07795            0     3321.147    6558.0929    1107.9262 
  418700    307.42535            0    3274.7129    6558.0901    1069.4584 
  418800    301.44056            0    3338.6383    6558.0965    1096.2223 
  418900    305.35422            0    3296.8243    6558.0814    1099.4946 
  419000     309.5325            0     3252.191    6558.0731    1032.0865 
  419100    301.47561            0     3338.254    6558.0866    1051.1292 
  419200    305.89747            0    3291.0245    6558.0836    1066.3698 
  419300    301.18988            0    3341.3052    6558.0862    1059.9802 
  419400    305.93402            0    3290.6304    6558.0799     1019.881 
  419500    307.30733            0    3275.9635    6558.0803    1071.5877 
  419600    312.69072            0     3218.444    6558.0567    1037.4405 
  419700    303.06787            0    3321.2468    6558.0851    1060.8009 
  419800    300.84299            0    3345.0246    6558.1006    1066.7353 
  419900     300.5736            0    3347.8822    6558.0811    1095.9831 
  420000    309.41937            0    3253.3966    6558.0705    1074.5764 
  420100    309.12968            0     3256.492    6558.0719    1063.4849 
  420200    301.04908            0    3342.8103    6558.0875    1084.7219 
  420300    305.65665            0    3293.5948    6558.0819    1025.3215 
  420400    309.33906            0     3254.267    6558.0832    1069.5288 
  420500     303.4241            0    3317.4426    6558.0856     1073.806 
  420600    305.75257            0    3292.5734     6558.085    1025.3076 
  420700    302.41973            0    3328.1623    6558.0782    1042.1799 
  420800    307.01275            0    3279.1004     6558.071    1084.5168 
  420900    305.17295            0    3298.7721    6558.0932    1110.4575 
  421000    307.07172            0    3278.4814    6558.0817     1065.499 
  421100    305.21518            0    3298.3111    6558.0831    1038.5387 
  421200    299.91413            0     3354.929    6558.0846    1051.8255 
  421300    308.04142            0    3268.1303    6558.0874    1059.1518 
  421400    306.59517            0    3283.5771    6558.0879    1087.9077 
  421500     301.8998            0    3333.7217    6558.0848     1039.524 
  421600     305.0727            0    3299.8298    6558.0801    990.58068 
  421700    308.40466            0    3264.2292    6558.0657    1060.4782 
  421800    305.65588            0     3293.602    6558.0809    1061.8505 
  421900    300.29307            0    3350.8831     6558.086     1012.196 
  422000    309.12907            0    3256.5029    6558.0763    1025.7106 
  422100     304.8186            0    3302.5489    6558.0855    1135.7522 
  422200    302.81548            0    3323.9589    6558.1017    1092.5668 
  422300    305.46365            0     3295.641    6558.0669      1059.36 
  422400    311.35636            0    3232.7184    6558.0798    1091.0185 
  422500    302.36773            0    3328.7235    6558.0841    1086.3606 
  422600    306.66538            0    3282.8131    6558.0737    1057.2075 
  422700    305.55223            0    3294.7101     6558.082    1098.7599 
  422800    305.60979            0    3294.0954     6558.082    1090.0844 
  422900    304.56101            0    3305.3041    6558.0896    1022.6336 
  423000    305.71595            0    3292.9607    6558.0812    989.69881 
  423100    302.19133            0    3330.6035    6558.0802    1000.0827 
  423200    300.67251            0    3346.8522    6558.1076    1025.8587 
  423300    312.86884            0    3216.5672    6558.0822    1044.2989 
  423400    301.73211            0    3335.5111    6558.0832    1064.7159 
  423500    301.41464            0    3338.9121    6558.0935    1011.1481 
  423600    305.96666            0    3290.2805    6558.0787    1024.8502 
  423700    307.57525            0    3273.1015    6558.0798    1080.6711 
  423800    301.13425            0    3341.8979    6558.0847    1062.0546 
  423900    307.39462            0    3275.0379    6558.0869    1030.7095 
  424000    306.66868            0    3282.7922     6558.088    1080.0814 
  424100    305.45711            0    3295.7225    6558.0785    1064.7512 
  424200    302.12734            0     3331.304    6558.0972    1036.7688 
  424300    306.92027            0    3280.1092     6558.092    1057.5203 
  424400    306.25122            0     3287.249    6558.0862    1059.4958 
  424500    301.49888            0    3338.0066    6558.0878    1050.6963 
  424600    311.73992            0    3228.6203    6558.0782    1062.8227 
  424700     303.8808            0    3312.5838    6558.1045     1090.797 
  424800    298.63103            0    3368.6413    6558.0931    1095.9981 
  424900    306.65286            0     3282.972    6558.0988    1092.1802 
  425000    307.01679            0    3279.0595    6558.0733     1090.931 
  425100    300.09657            0    3352.9882    6558.0923    1090.2831 
  425200    309.36353            0    3254.0004    6558.0778    1036.7511 
  425300    300.47871            0    3348.9081    6558.0935    995.84219 
  425400    303.66527            0    3314.8714    6558.0902    1042.5274 
  425500    303.96214            0    3311.7114    6558.1007    1039.1112 
  425600    302.80883            0    3324.0227    6558.0944    1086.6052 
  425700     301.7194            0    3335.6483    6558.0847    1081.0855 
  425800    305.67608            0    3293.3811    6558.0757    1031.1855 
  425900    307.32129            0    3275.8208    6558.0867    1065.9429 
  426000    303.71713            0    3314.3218    6558.0943    1068.5817 
  426100    307.12121            0     3277.939     6558.068    1033.6495 
  426200    306.11506            0    3288.6931    6558.0762    1041.8103 
  426300    302.31266            0    3329.3081    6558.0806    1069.6987 
  426400    307.23411            0    3276.7524    6558.0872    1100.4139 
  426500    307.77146            0    3271.0062      6558.08    1080.4864 
  426600    302.35612            0    3328.8476    6558.0842    1063.7085 
  426700    310.06173            0    3246.5384    6558.0728    1022.8946 
  426800    306.12723            0    3288.5673    6558.0804    1048.0435 
  426900    304.66691            0    3304.1581    6558.0745    1046.6341 
  427000    310.03361            0    3246.8527    6558.0868    1061.7276 
  427100    299.53262            0    3359.0151     6558.096    1049.1399 
  427200    306.25399            0    3287.2029    6558.0697    989.72567 
  427300    303.96099            0    3311.7201    6558.0971    1056.8042 
  427400    305.51565            0    3295.1164    6558.0976     1035.075 
  427500    304.87195            0     3301.986    6558.0924    1014.9251 
  427600    304.19817            0    3309.1724    6558.0826    1029.8889 
  427700    309.01013            0    3257.7813    6558.0844    1029.2964 
  427800    302.29628            0    3329.4819    6558.0794    1039.2467 
  427900    306.51938            0     3284.383    6558.0843    992.52642 
  428000    305.52269            0    3295.0352    6558.0916    1073.6789 
  428100    306.74683            0    3281.9412    6558.0718    1068.6032 
  428200    306.77461            0    3281.6588     6558.086    1052.1014 
  428300    303.07402            0    3321.1778    6558.0819    1043.0001 
  428400    310.53726            0    3241.4668    6558.0801    1076.5351 
  428500     300.6338            0    3347.2393    6558.0811    1080.5283 
  428600    307.83785            0     3270.289    6558.0719    1060.6547 
  428700    303.27831            0    3319.0038    6558.0897    1092.1425 
  428800    304.33951            0    3307.6561    6558.0759    1057.1898 
  428900    304.58798            0    3305.0224    6558.0959     1086.623 
  429000    303.94917            0    3311.8314    6558.0822    1048.2468 
  429100    303.64125            0    3315.1185    6558.0807    1029.8651 
  429200    304.64707            0    3304.3777    6558.0822    1003.9912 
  429300    304.59356            0    3304.9422    6558.0753    1024.7937 
  429400    308.85636            0    3259.4199    6558.0807    1038.5516 
  429500    304.04186            0    3310.8449    6558.0857     1072.436 
  429600    302.19868            0    3330.5289     6558.084    1125.1056 
  429700    310.42631            0    3242.6636    6558.0919    1073.1688 
  429800    299.30729            0     3361.422    6558.0964    1039.3337 
  429900    305.76927            0    3292.3927    6558.0826    1003.7089 
  430000    305.59963            0    3294.1991    6558.0772    1027.4435 
  430100    307.12903            0     3277.874    6558.0865    1043.7745 
  430200    303.78265            0    3313.6145    6558.0869    1029.1559 
  430300    303.46433            0    3317.0124     6558.085    1030.4964 
  430400    305.09576            0     3299.591    6558.0877    1077.2665 
  430500    305.10651            0      3299.47    6558.0815    1070.2139 
  430600    301.63173            0    3336.5856    6558.0856    1102.2351 
  430700    311.63595            0    3229.7282    6558.0757    1083.8481 
  430800    301.57079            0    3337.2481    6558.0972    1062.7421 
  430900    304.86489            0    3302.0514    6558.0823    1028.2921 
  431000    304.62541            0    3304.6218     6558.095    1059.3039 
  431100    307.75992            0    3271.1194    6558.0699    1066.7818 
  431200    304.74346            0    3303.3679     6558.102    1081.3742 
  431300     303.0434            0    3321.5095    6558.0865    1049.4158 
  431400    299.79418            0    3356.2182    6558.0927    1064.4408 
  431500    307.16377            0    3277.5009    6558.0844    1011.4252 
  431600    308.16748            0     3266.775    6558.0784    1059.1399 
  431700     298.6797            0    3368.1113    6558.0829    1035.8621 
  431800    312.60658            0    3219.3439     6558.058    1000.4982 
  431900    301.05563            0    3342.7501    6558.0973    1059.3229 
  432000    305.30032            0    3297.4081    6558.0895    1024.3729 
  432100    305.03982            0     3300.191    6558.0902    1065.2613 
  432200    305.94145            0    3290.5506    6558.0794    1074.1983 
  432300    305.77448            0    3292.3399    6558.0855    1099.3988 
  432400    307.49667            0    3273.9461    6558.0851    1097.4061 
  432500     300.9972            0    3343.3711    6558.0942    1099.8663 
  432600    307.21803            0    3276.9181    6558.0811    1060.6732 
  432700     303.7259            0    3314.2263    6558.0925       1078.9 
  432800    310.11551            0    3245.9627    6558.0715    1090.5435 
  432900    305.23562            0    3298.0814    6558.0717    1129.3827 
  433000     303.5508            0     3316.083    6558.0791    1015.3594 
  433100    304.23505            0    3308.7865    6558.0906    1076.7354 
  433200    306.38742            0    3285.7955    6558.0874    1067.3518 
  433300    303.47403            0    3316.9106    6558.0868    1067.4512 
  433400    303.62031            0    3315.3525    6558.0911    1065.2184 
  433500    305.82641            0    3291.7758     6558.076    1080.0233 
  433600    308.02164            0     3268.332    6558.0778    1052.3272 
  433700    302.77147            0     3324.402    6558.0747     1015.736 
  433800    306.65465            0    3282.9385    6558.0844     1066.193 
  433900    305.39894            0     3296.346    6558.0808     1085.018 
  434000    310.28692            0    3244.1269    6558.0665    1029.6943 
  434100    303.39026            0    3317.8001    6558.0816    1030.2383 
  434200     304.9777            0    3300.8475    6558.0832    1027.7687 
  434300     302.0748            0    3331.8524    6558.0845    1005.1908 
  434400    301.30487            0    3340.0854    6558.0944    1044.5307 
  434500    307.96242            0    3268.9733    6558.0867    1067.3566 
  434600    306.54562            0    3284.0946    6558.0761    1069.2309 
  434700     301.6069            0    3336.8635    6558.0983    1087.6349 
  434800    306.14305            0    3288.4001     6558.082    1076.2567 
  434900    304.66235            0     3304.215    6558.0827    1079.3505 
  435000    308.10864            0    3267.4148    6558.0898    1073.2784 
  435100    304.02042            0    3311.0728    6558.0846    1050.0229 
  435200    301.27122            0    3340.4351    6558.0847    1052.2354 
  435300    307.31885            0    3275.8502      6558.09    1071.6556 
  435400    306.54862            0    3284.0601    6558.0737    1032.3801 
  435500    304.81114            0    3302.6171     6558.074    1056.9372 
  435600     304.5415            0     3305.495     6558.072    1060.7641 
  435700    302.77445            0    3324.3868    6558.0914    1075.4345 
  435800    305.38677            0    3296.4751    6558.0798     1091.961 
  435900     307.0455            0    3278.7537    6558.0741    1107.8441 
  436000    304.71237            0     3303.686    6558.0879     1112.144 
  436100    306.50846            0    3284.5049    6558.0895    1094.5245 
  436200    300.64304            0    3347.1417    6558.0822    1074.9264 
  436300    308.13086            0    3267.1557    6558.0679    1045.7518 
  436400    309.15217            0    3256.2496    6558.0697     1019.857 
  436500    308.80621            0    3259.9539    6558.0791    1031.0068 
  436600    301.80581            0    3334.7222    6558.0814    1052.9446 
  436700    309.05006            0    3257.3479    6558.0774    1021.3693 
  436800    304.62446            0     3304.629    6558.0921    1078.2955 
  436900    306.74639            0    3281.9477    6558.0736    1037.7268 
  437000    305.26399            0    3297.7779    6558.0713    991.22146 
  437100    301.06196            0    3342.6882     6558.103     1062.039 
  437200    307.68523            0    3271.9139    6558.0668    1044.1105 
  437300      306.951            0     3279.778    6558.0891    1064.4404 
  437400    303.53889            0    3316.2156    6558.0845    1003.7337 
  437500    302.36701            0    3328.7317    6558.0847    986.19675 
  437600    304.43275            0    3306.6713    6558.0868    1040.9289 
  437700    310.85643            0    3238.0481    6558.0701    1058.2007 
  437800    306.26847            0    3287.0628    6558.0844    1075.2362 
  437900    301.76371            0    3335.1708    6558.0804    1086.1806 
  438000    304.73613            0    3303.4288    6558.0846    1006.5087 
  438100    305.96682            0    3290.2851    6558.0849     1023.212 
  438200    301.67539            0    3336.1292    6558.0955    1128.0448 
  438300    305.28748            0    3297.5469    6558.0912    1121.1081 
  438400    304.38914            0    3307.1425    6558.0923    1074.5054 
  438500    302.50561            0    3327.2531    6558.0864    1074.3293 
  438600    307.03845            0    3278.8411    6558.0862    1085.2317 
  438700    307.66589            0    3272.1346    6558.0809    1087.6521 
  438800    299.28425            0     3361.669    6558.0973    1099.9885 
  438900    308.37323            0    3264.5796    6558.0805    1049.0346 
  439000    305.86898            0    3291.3349    6558.0898    1020.6397 
  439100    302.93767            0    3322.6447    6558.0924    1060.3919 
  439200    303.31734            0    3318.5828    6558.0855    1043.6085 
  439300    305.25688            0    3297.8721    6558.0896    1062.9991 
  439400    302.76066            0    3324.5315    6558.0888    1059.6533 
  439500    308.87683            0    3259.1938    6558.0732    1040.9119 
  439600    305.48196            0    3295.4489    6558.0702    1056.4935 
  439700    309.55591            0    3251.9361    6558.0683    995.51434 
  439800    299.14863            0    3363.1056    6558.0855    1027.1948 
  439900    305.51284            0    3295.1508     6558.102    984.71099 
  440000    301.56378            0    3337.3031    6558.0774    1023.4868 
  440100    308.93981            0    3258.5383    6558.0903    1049.3658 
  440200    302.12114            0    3331.3705    6558.0976     1037.075 
  440300    301.89923            0    3333.7263    6558.0833    1032.5299 
  440400    305.91007            0    3290.8828    6558.0765    1032.4952 
  440500    304.34041            0    3307.6537     6558.083    1068.8132 
  440600    308.71497            0    3260.9207    6558.0714    1049.4456 
  440700    308.95134            0    3258.3992    6558.0744    1051.4222 
  440800    303.10832            0    3320.8073    6558.0777    1058.3448 
  440900    307.58021            0    3273.0522    6558.0834    1068.8575 
  441000     307.3507            0    3275.4937    6558.0737    1036.1309 
  441100    302.81037            0    3324.0103    6558.0985    1063.9467 
  441200     308.4425            0    3263.8172    6558.0579    1044.4834 
  441300    305.85064            0    3291.5247    6558.0836     1067.176 
  441400    300.00239            0    3353.9888     6558.087    1075.1292 
  441500    304.82277            0    3302.5112    6558.0923    1076.8886 
  441600    304.16252            0    3309.5645     6558.094    1077.0377 
  441700    306.86811            0    3280.6552     6558.081    1053.8405 
  441800    303.47062            0    3316.9366    6558.0764    1075.3152 
  441900    306.35442            0    3286.1444    6558.0839    1054.6107 
  442000    307.42776            0    3274.6646    6558.0676    1024.6096 
  442100    304.24218            0    3308.7015    6558.0817    1033.0815 
  442200    305.77648            0    3292.3279    6558.0949    1101.7545 
  442300     304.6846            0    3303.9781    6558.0835     1081.334 
  442400    304.24656            0    3308.6608    6558.0879    1026.2446 
  442500    302.05586            0    3332.0548    6558.0846    1009.0596 
  442600    303.14449            0    3320.4438    6558.1005    1052.4878 
  442700    308.55659            0    3262.6252    6558.0845    1043.3124 
  442800    299.50025            0     3359.358    6558.0933    1061.1152 
  442900    307.73896            0    3271.3692    6558.0959    1042.7823 
  443000    307.86126            0    3270.0533    6558.0861    1039.3329 
  443100    303.94037            0    3311.9222    6558.0791    1024.0588 
  443200    303.53323            0     3316.285    6558.0935    1034.1796 
  443300    304.58301            0    3305.0717    6558.0921    1024.5152 
  443400    307.37022            0    3275.2963    6558.0848    1008.4997 
  443500    303.53832            0     3316.225    6558.0879    1040.6518 
  443600    301.49397            0    3338.0797    6558.1084    1046.6053 
  443700    300.37309            0    3350.0478    6558.1053    1123.0674 
  443800    311.07729            0     3235.693    6558.0739     1060.196 
  443900    299.90635            0    3355.0333    6558.1058    1066.2273 
  444000    302.74443            0    3324.6981     6558.082    1054.1742 
  444100    307.60482            0    3272.8033    6558.0973    1106.7336 
  444200     304.6961            0    3303.8466    6558.0748    1060.0745 
  444300    305.74289            0    3292.6806    6558.0887    1043.5869 
  444400    304.75112            0    3303.2685    6558.0844    1042.5503 
  444500    309.57699            0    3251.7182    6558.0755    1049.4082 
  444600    306.16965            0    3288.1121    6558.0782    1044.2434 
  444700      304.407            0    3306.9302    6558.0707    1053.4851 
  444800    302.65563            0    3325.6629    6558.0984    1089.3515 
  444900    306.81148            0     3281.263    6558.0839    1061.7161 
  445000    307.05912            0     3278.608    6558.0738    1100.7234 
  445100    300.72396            0    3346.2836    6558.0885    1083.9265 
  445200    307.63851            0    3272.4113    6558.0652    1055.3986 
  445300    306.17424            0    3288.0613    6558.0764    1072.3037 
  445400    303.38303            0    3317.8805    6558.0848    1100.2847 
  445500    308.28713            0    3265.4829    6558.0642    1007.5887 
  445600    307.28754            0    3276.1759    6558.0814    1081.9089 
  445700    306.31553            0     3286.569    6558.0931    1123.9044 
  445800    304.80953            0    3302.6396    6558.0793    1019.6607 
  445900    302.12216            0    3331.3378    6558.0758    1027.8875 
  446000    309.52903            0    3252.2415    6558.0866    1098.7894 
  446100    299.46452            0     3359.739    6558.0927     1091.366 
  446200    308.34716            0    3264.8623    6558.0847    1038.5371 
  446300    300.17675            0    3352.1461    6558.1066    1118.8182 
  446400    303.29515            0     3318.826    6558.0917    1074.0567 
  446500    306.02664            0    3289.6459    6558.0845     1025.574 
  446600    303.58631            0    3315.7134    6558.0887     1064.138 
  446700    303.73451            0    3314.1198    6558.0781    1067.5432 
  446800    310.27885            0      3244.23    6558.0834    1048.5509 
  446900    299.69642            0    3357.2699    6558.1003    1066.5409 
  447000    306.99758            0    3279.2762    6558.0848    1035.6608 
  447100    307.24129            0    3276.6793    6558.0907    1022.7485 
  447200    305.39072            0    3296.4281    6558.0751    1038.1082 
  447300     303.1507            0    3320.3604    6558.0834    1049.0689 
  447400    306.26554            0     3287.097    6558.0872     1057.668 
  447500    302.38562            0    3328.5306    6558.0823     1089.154 
  447600    300.88136            0    3344.6126    6558.0984    1125.5217 
  447700    303.02597            0    3321.6924    6558.0833    1045.4546 
  447800    301.92447            0    3333.4631    6558.0897     1067.172 
  447900    308.58381            0    3262.3369    6558.0868    1095.3773 
  448000    303.49175            0    3316.7035     6558.069    1036.2591 
  448100    303.71905            0    3314.2997    6558.0928    1047.4843 
  448200    307.84855            0    3270.1829    6558.0801    1069.6989 
  448300    304.25228            0    3308.5999     6558.088    1093.5459 
  448400    305.29639            0    3297.4411    6558.0805    1034.5409 
  448500    300.60334            0    3347.5611    6558.0776    1057.6062 
  448600    310.93515            0    3237.2113    6558.0741    1066.8878 
  448700    305.72044            0    3292.9041    6558.0725    1077.1679 
  448800    304.70097            0    3303.8012    6558.0815    1038.6251 
  448900    305.28812            0    3297.5222    6558.0733     1051.792 
  449000    304.01514            0    3311.1305    6558.0859    1070.6704 
  449100    304.30456            0    3308.0348    6558.0812    1085.8919 
  449200    306.93883            0    3279.9078    6558.0889    1047.0093 
  449300    303.87654            0    3312.6052    6558.0803    1063.8612 
  449400    305.44914            0    3295.8199    6558.0908    1059.2749 
  449500    298.25003            0    3372.7067    6558.0893    1075.1748 
  449600    301.14143            0    3341.8314    6558.0948    1041.6146 
  449700    311.89164            0    3226.9879    6558.0662    1024.1219 
  449800    304.84564            0    3302.2551    6558.0804    1066.6011 
  449900    304.08702            0    3310.3626    6558.0858    1037.2461 
  450000    305.99174            0    3290.0141      6558.08    1042.9922 
  450100    300.96444            0     3343.726    6558.0991     1062.465 
  450200    302.84053            0    3323.6728     6558.083    1069.3806 
  450300    306.23506            0    3287.4277    6558.0923    1117.8992 
  450400    300.47725            0    3348.9214    6558.0913    1090.6135 
  450500    308.63114            0    3261.8188    6558.0741    1029.7047 
  450600    300.78941            0     3345.598    6558.1018    1096.7338 
  450700    306.50903            0    3284.4961    6558.0868    1056.8802 
  450800    308.93196            0    3258.6059    6558.0741     1033.672 
  450900    304.03849            0    3310.8799    6558.0846    1060.6517 
  451000    306.23628            0    3287.3964    6558.0742    1065.5773 
  451100    308.74491            0    3260.6077    6558.0782    1003.5205 
  451200    308.94494            0    3258.4664    6558.0732    1034.7899 
  451300    306.04246            0    3289.4801    6558.0878    1042.3932 
  451400     302.5082            0    3327.2282    6558.0891    1081.1684 
  451500    303.62188            0    3315.3315    6558.0868    1023.6778 
  451600      303.856            0    3312.8437    6558.0994    1058.7987 
  451700    300.90975            0    3344.3109    6558.0999    1078.5444 
  451800    304.01049            0    3311.1829    6558.0886     1031.154 
  451900    306.74815            0    3281.9372    6558.0818    1026.6845 
  452000     304.7111            0    3303.6825    6558.0709     1068.496 
  452100    307.44659            0    3274.4787    6558.0828     1037.703 
  452200    305.77778            0    3292.3027    6558.0835    1038.7096 
  452300    307.95105            0    3269.0842    6558.0761    1096.1991 
  452400    306.23624            0    3287.4035    6558.0807    1101.4491 
  452500    303.52107            0    3316.4082    6558.0868    1067.6984 
  452600    307.51056            0    3273.7953    6558.0826    1067.4297 
  452700     305.5317            0    3294.9374    6558.0901    1035.6105 
  452800    304.17007            0    3309.4851    6558.0952     1027.588 
  452900    305.71985            0    3292.9105    6558.0727    1005.3893 
  453000    306.46024            0    3285.0059    6558.0755    1045.4386 
  453100     301.7395            0    3335.4439    6558.0949    1068.3895 
  453200    303.23154            0    3319.4975    6558.0838    1016.9272 
  453300    300.20486            0    3351.8381    6558.0988    1085.0034 
  453400    310.13952            0    3245.7055    6558.0708    1043.8169 
  453500    304.45563            0    3306.4195    6558.0794    1034.2402 
  453600    307.65665            0    3272.2388    6558.0864    1061.9405 
  453700    300.29362            0    3350.8932    6558.1019    1065.2284 
  453800    306.03746            0    3289.5232    6558.0774    1049.1427 
  453900    304.02473            0    3311.0329    6558.0908    1069.7901 
  454000     303.1695            0    3320.1682    6558.0919    1110.4982 
  454100     305.2377            0    3298.0778    6558.0905    1074.2157 
  454200     304.2271            0    3308.8587    6558.0779    1040.9102 
  454300    303.70621            0    3314.4454    6558.1013    1055.1027 
  454400    304.40848            0    3306.9244    6558.0807    1014.3214 
  454500     310.5922            0    3240.8807    6558.0806    1015.5986 
  454600    299.44495            0    3359.9486    6558.0933    1078.9062 
  454700    306.83764            0    3280.9807     6558.081    1068.8061 
  454800    306.49967            0    3284.5832    6558.0741    1043.5852 
  454900    300.96361            0    3343.7442    6558.1085    1111.6544 
  455000    309.54684            0    3252.0375    6558.0727    1068.2587 
  455100     303.2072            0    3319.7636      6558.09     1063.777 
  455200    307.80441            0    3270.6585    6558.0842     1061.883 
  455300    309.49413            0    3252.6084    6558.0807    1050.1987 
  455400    304.37021            0    3307.3429    6558.0906    1024.8313 
  455500    303.78698            0    3313.5733    6558.0918    1080.3317 
  455600    302.18106            0    3330.7297    6558.0966    1067.5594 
  455700    308.31875            0    3265.1558    6558.0747    942.01011 
  455800    300.55879            0    3348.0478    6558.0885    1041.5138 
  455900    311.16691            0    3234.7344    6558.0724    1007.8694 
  456000    301.78885            0    3334.9171    6558.0951    1018.1252 
  456100    306.97136            0     3279.559    6558.0875    1049.3704 
  456200    307.87905            0    3269.8619    6558.0848    1112.1606 
  456300    298.81081            0     3366.718      6558.09    1090.1213 
  456400    307.53396            0    3273.5555    6558.0928    1054.7304 
  456500    302.98593            0     3322.115    6558.0782    1082.5046 
  456600    302.59163            0    3326.3254    6558.0774     1053.249 
  456700    306.39368            0    3285.7236    6558.0824    1085.2217 
  456800    310.55718            0    3241.2503    6558.0763    1069.1437 
  456900    300.20702            0    3351.8071    6558.0909    1131.6842 
  457000    309.07966            0    3257.0273     6558.073    1061.6234 
  457100    302.29769            0     3329.469    6558.0816    1071.5033 
  457200    306.94434            0    3279.8366    6558.0765     1062.266 
  457300    302.65519            0    3325.6648    6558.0956     1063.632 
  457400    308.00505            0    3268.5086    6558.0772    1041.2402 
  457500    307.76092            0    3271.1205    6558.0817    1041.7389 
  457600    303.43524            0    3317.3366    6558.0986    1033.6786 
  457700    303.22478            0    3319.5738    6558.0879    1051.7295 
  457800    307.10511            0    3278.1215    6558.0785    1034.7122 
  457900    308.08659            0    3267.6476    6558.0871    1066.6161 
  458000     304.6806            0     3304.027    6558.0896    1119.7328 
  458100    302.49218            0    3327.4019    6558.0916    1098.2603 
  458200     303.1353            0    3320.5454    6558.1039    1076.8817 
  458300    304.70585            0    3303.7594    6558.0918    1050.1987 
  458400    306.16426            0    3288.1604    6558.0689    1064.5583 
  458500    300.26535            0    3351.1934    6558.1001     1074.375 
  458600    303.06605            0    3321.2552    6558.0741    1013.5832 
  458700    307.08544            0    3278.3328    6558.0797    1057.9138 
  458800    307.09877            0    3278.1939    6558.0832    1073.7015 
  458900    300.82098            0    3345.2442    6558.0852    1072.0783 
  459000    304.11477            0    3310.0835    6558.1029    1118.4279 
  459100    303.89827            0    3312.3832    6558.0903    1156.5228 
  459200    306.53004            0    3284.2858    6558.1009     1110.065 
  459300    306.45762            0    3285.0332    6558.0749    1051.5858 
  459400    304.31061            0    3307.9688    6558.0799    1095.7068 
  459500    305.71777            0    3292.9359    6558.0758    1081.8406 
  459600    302.64995            0    3325.7245    6558.0993    1055.3912 
  459700    302.44449            0    3327.9144    6558.0948    1080.2053 
  459800    311.49809            0    3231.2026    6558.0777    1063.6799 
  459900    302.72066            0    3324.9627    6558.0927    1069.4837 
  460000    307.87683            0    3269.8814    6558.0806    1058.7979 
  460100    306.54302            0    3284.1297    6558.0835    1105.1438 
  460200    304.79866            0    3302.7537    6558.0773    1073.6145 
  460300     299.0669            0    3363.9884    6558.0953    1129.4209 
  460400      306.946            0    3279.8371    6558.0947    1127.4384 
  460500    305.36162            0    3296.7487    6558.0848    1036.1773 
  460600    301.76418            0    3335.1766    6558.0912    1067.5478 
  460700    305.31489            0    3297.2496    6558.0867    1065.6911 
  460800    307.64962            0    3272.2963    6558.0688    1012.7708 
  460900    308.02874            0    3268.2708    6558.0925    1033.5155 
  461000    306.41069            0    3285.5348    6558.0753    1010.8085 
  461100     298.8959            0    3365.8235    6558.1041    1072.3416 
  461200    305.45909            0    3295.7102    6558.0873    1087.9318 
  461300     310.3131            0     3243.862    6558.0811    1067.0956 
  461400    302.77561            0    3324.3721     6558.089    1046.0156 
  461500    304.16648            0    3309.5069    6558.0786    1066.8078 
  461600    305.08252            0    3299.7307     6558.086    1083.4315 
  461700    307.31799            0    3275.8484     6558.079    1063.9404 
  461800     305.9718            0    3290.2301    6558.0831    1040.3486 
  461900    299.92898            0    3354.7717    6558.0859    1057.0028 
  462000     305.7813            0    3292.2812    6558.0995    1080.1108 
  462100    301.40927            0    3338.9703    6558.0943     1052.999 
  462200    302.30293            0    3329.4156    6558.0842    1027.7502 
  462300    306.75705            0    3281.8467    6558.0864    1050.8458 
  462400    300.47827            0    3348.9215    6558.1022    1069.2272 
  462500    304.97465            0     3300.884    6558.0872    1087.0815 
  462600    306.18056            0    3287.9991    6558.0817     1091.413 
  462700    307.82396            0    3270.4506    6558.0851    1061.1752 
  462800    301.67807            0    3336.0929    6558.0878    1048.6159 
  462900    305.07537            0    3299.8062    6558.0851    1040.7207 
  463000    307.63181            0    3272.5037    6558.0859    1055.3818 
  463100    304.02756            0    3310.9949    6558.0829    1049.4636 
  463200    304.33138            0    3307.7586    6558.0915    1084.2265 
  463300    306.86062            0    3280.7426    6558.0884    1068.9413 
  463400    300.79584            0    3345.5178    6558.0902    1066.4958 
  463500     307.0339            0    3278.8886    6558.0851    1033.8876 
  463600    300.83538            0    3345.1001    6558.0948    1067.5946 
  463700    310.77996            0     3238.869    6558.0743    1058.2319 
  463800    304.00578            0    3311.2304    6558.0858     1075.501 
  463900     301.9359            0    3333.3453    6558.0939    1036.4979 
  464000    306.98707            0    3279.3792    6558.0756    1018.5066 
  464100    303.38516            0    3317.8591    6558.0861    1064.2386 
  464200    307.44671            0    3274.4719    6558.0773    1053.0587 
  464300     305.2281            0    3298.1844    6558.0945    1073.5219 
  464400    305.21821            0    3298.2808    6558.0852    1012.2693 
  464500    303.99235            0    3311.3761    6558.0881    1005.7543 
  464600    307.01134            0    3279.1316    6558.0872     1064.904 
  464700    304.59301            0    3304.9591    6558.0863    1052.9615 
  464800    304.29577            0    3308.1227    6558.0752    1013.7013 
  464900    306.17428            0    3288.0651    6558.0807    1061.0875 
  465000    303.42371            0     3317.437    6558.0758    1086.7076 
  465100    304.93461            0    3301.3078    6558.0833    1062.6108 
  465200    306.75227            0    3281.9021    6558.0907    1068.8984 
  465300    306.04489            0    3289.4474    6558.0811    1052.1652 
  465400    301.81143            0     3334.675    6558.0943     1089.445 
  465500    304.16071            0    3309.5759     6558.086    1074.5909 
  465600    304.44527            0    3306.5414    6558.0907    1095.8948 
  465700    306.19443            0     3287.839    6558.0697    1090.8523 
  465800    295.18128            0    3405.4929    6558.1005    1098.5326 
  465900    308.79618            0    3260.0634    6558.0815    1080.0883 
  466000    303.88936            0    3312.4787    6558.0908    1091.7293 
  466100    305.39101            0    3296.4322    6558.0822    1072.4009 
  466200    308.92357            0    3258.7021    6558.0807    1065.5269 
  466300     303.4402            0    3317.2735    6558.0885    1082.2877 
  466400    304.19656            0    3309.1938    6558.0868    1071.6746 
  466500    306.48077            0     3284.794     6558.083     1069.535 
  466600    309.88729            0    3248.4068    6558.0782    1027.8532 
  466700    304.71694            0    3303.6258    6558.0767    1039.8807 
  466800    301.36172            0    3339.4855    6558.1017    1080.6196 
  466900    306.42181            0    3285.4323    6558.0916    1051.3771 
  467000    303.44718            0    3317.1965    6558.0859    1065.7278 
  467100    309.02999            0    3257.5702    6558.0855    1031.9573 
  467200    303.42423            0    3317.4512    6558.0955    1027.4771 
  467300    299.74139            0    3356.7808    6558.0914    1055.7902 
  467400     305.1836            0    3298.6569    6558.0917    1068.2185 
  467500     304.6453            0    3304.4002    6558.0858    1048.4878 
  467600    308.69363            0    3261.1621    6558.0849    1044.8029 
  467700    304.07046            0    3310.5306    6558.0768    1069.0777 
  467800    302.92435            0    3322.7882    6558.0937    1077.4374 
  467900    305.67155            0    3293.4278     6558.074    1040.2916 
  468000    300.99344            0    3343.4106    6558.0936    1064.4562 
  468100    303.06107            0    3321.3252    6558.0908    1088.4103 
  468200    308.23235            0    3266.0943    6558.0905    1068.4473 
  468300    301.14116            0    3341.8212    6558.0818    1091.3821 
  468400    310.37511            0    3243.1806     6558.062    1049.6089 
  468500    299.72575            0    3356.9429    6558.0866    1088.7032 
  468600    304.95954            0    3301.0383      6558.08    1062.5283 
  468700    307.16253            0    3277.5032    6558.0735    1080.2885 
  468800    303.12946            0    3320.5979     6558.094    1104.1112 
  468900    305.75521            0    3292.5495    6558.0893    1056.7824 
  469000    304.07568            0    3310.4716    6558.0736    1052.5504 
  469100    304.93461            0    3301.2985    6558.0741    1045.0341 
  469200    308.50878            0    3263.1279    6558.0765    1076.0203 
  469300    298.35953            0    3371.5429     6558.095    1082.8881 
  469400    302.68062            0    3325.3912    6558.0935    1080.3713 
  469500    309.07024            0    3257.1341    6558.0792    1063.2846 
  469600     305.2114            0    3298.3371    6558.0689    1066.1226 
  469700    308.24739            0    3265.9196    6558.0764    1061.6599 
  469800    300.77628            0    3345.7162    6558.0797    1036.6622 
  469900    302.00942            0    3332.5522    6558.0861    1019.6703 
  470000    309.63021            0    3251.1396    6558.0653    1067.3616 
  470100    302.98109            0    3322.1775     6558.089     1121.663 
  470200    305.05597            0    3300.0093     6558.081    1104.9284 
  470300    305.81452            0     3291.901    6558.0742    1066.7702 
  470400    307.06611            0    3278.5369    6558.0773    1071.1872 
  470500    302.58922            0    3326.3557    6558.0819      1112.07 
  470600    309.11886            0    3256.6147     6558.079    1125.6191 
  470700    298.82522            0    3366.5652     6558.091    1138.8552 
  470800    306.95213            0    3279.7552    6558.0784    1089.9996 
  470900    300.53205            0    3348.3272    6558.0824    1114.7137 
  471000    307.29723            0    3276.0722    6558.0811    1044.6333 
  471100    308.04494            0    3268.0794     6558.074    1081.9976 
  471200    301.50587            0    3337.9147    6558.0705    1115.2358 
  471300     303.6104            0    3315.4462    6558.0788    1075.9485 
  471400    304.70179            0    3303.7919    6558.0809    1098.9156 
  471500    305.55357            0    3294.6916    6558.0778    1085.4642 
  471600    304.64974            0    3304.3526    6558.0857    1093.8942 
  471700    304.43696            0    3306.6044     6558.065    1078.3785 
  471800    305.65549            0    3293.6026    6558.0774    1105.4238 
  471900    307.37114            0    3275.2746    6558.0729     1078.534 
  472000    301.10225            0    3342.2508    6558.0959    1093.9973 
  472100    303.54048            0     3316.205     6558.091    1093.5395 
  472200    302.56486            0    3326.6196    6558.0857    1092.4024 
  472300    308.58605            0    3262.3089    6558.0827    1036.4162 
  472400    306.66346            0    3282.8358    6558.0759    1047.3426 
  472500    302.30344            0    3329.3943    6558.0684     1072.898 
  472600     303.4999            0    3316.6415     6558.094    1049.9607 
  472700    308.35983            0    3264.7211    6558.0789    1046.7771 
  472800    304.70938            0    3303.7151    6558.0851    1077.9043 
  472900    300.06808            0    3353.2955    6558.0953    1080.5559 
  473000    304.00618            0    3311.2223    6558.0819    1054.8312 
  473100    304.47687            0    3306.1975    6558.0843    1085.3194 
  473200    305.53258            0    3294.9171    6558.0792     1043.704 
  473300    301.61985            0    3336.7014    6558.0745    1040.8412 
  473400    306.56955            0    3283.8491    6558.0862      1120.54 
  473500    308.17913            0    3266.6477    6558.0755    1106.3452 
  473600    304.63899            0    3304.4633    6558.0816    1066.8345 
  473700     301.2161            0    3341.0277    6558.0887     1039.603 
  473800    302.30032            0     3329.446    6558.0867     1031.885 
  473900    310.96816            0    3236.8532    6558.0685    1047.2575 
  474000    306.45441            0    3285.0695    6558.0768    1063.3578 
  474100    300.81671            0    3345.2994    6558.0948    1083.7804 
  474200     299.6719            0    3357.5231    6558.0916    1092.0679 
  474300    310.09637            0     3246.172    6558.0764    1048.4241 
  474400    305.89537            0    3291.0317    6558.0684    1043.1036 
  474500    305.60584            0    3294.1305     6558.075    1072.2619 
  474600    306.00049            0      3289.93    6558.0895    1090.7703 
  474700    305.23417            0    3298.1005    6558.0754    1096.4086 
  474800     304.2288            0    3308.8407     6558.078    1109.2894 
  474900    308.59292            0    3262.2035    6558.0507     1036.052 
  475000    306.30357            0    3286.6752    6558.0716    1039.7588 
  475100    308.39437            0    3264.3408    6558.0674     1057.654 
  475200    304.25973            0    3308.5045    6558.0721    1040.4372 
  475300    305.17163            0    3298.7844    6558.0914    1043.0537 
  475400    304.71291            0     3303.665    6558.0728    1013.8386 
  475500    304.31877            0    3307.8836    6558.0819    1031.5633 
  475600    308.64768            0    3261.6498    6558.0819    1049.0408 
  475700    305.39216            0    3296.4144    6558.0767    1090.0542 
  475800    300.94011            0     3343.965    6558.0784    1065.7523 
  475900    310.62728            0    3240.5026    6558.0772    1025.7606 
  476000    300.37778            0    3349.9899    6558.0973    1079.3693 
  476100    305.56812            0    3294.5318    6558.0735    1050.5582 
  476200    309.78702            0    3249.4741    6558.0745    1035.7283 
  476300     303.2289            0    3319.5339    6558.0921     1094.808 
  476400    305.67867            0    3293.3572    6558.0795     1093.247 
  476500    305.17263            0    3298.7727    6558.0903    1050.0545 
  476600    299.76554            0    3356.5054     6558.074     1032.773 
  476700    307.01872            0    3279.0557      6558.09    1044.3418 
  476800    309.13802            0       3256.4     6558.069    1044.0452 
  476900    305.67754            0    3293.3603    6558.0706    1040.0132 
  477000    306.03613            0    3289.5381    6558.0782      1020.03 
  477100     303.8783            0    3312.5985    6558.0924    1058.6341 
  477200    306.89459            0    3280.3753    6558.0839    1081.6334 
  477300    308.52129            0    3262.9851    6558.0673    1059.0156 
  477400    302.81266            0     3323.972    6558.0846    1072.5227 
  477500    305.03026            0    3300.2824    6558.0796    1054.3452 
  477600     303.9583            0    3311.7265    6558.0748    1065.1514 
  477700     308.4767            0    3263.4674    6558.0733    1104.8751 
  477800    301.88349            0    3333.8927    6558.0815    1107.0089 
  477900    309.27331            0    3254.9451    6558.0591    1029.6356 
  478000    307.51626            0    3273.7165    6558.0647     1033.683 
  478100    302.29353            0    3329.5093    6558.0775    1033.8749 
  478200    308.43512            0    3263.9105    6558.0723    1018.7495 
  478300    301.16205            0    3341.5982    6558.0819    1101.0417 
  478400    307.92878            0     3269.318     6558.072    1123.7791 
  478500    305.26145            0    3297.8231    6558.0895    1107.8482 
  478600     305.9713            0    3290.2085    6558.0561    1013.5822 
  478700    303.34013            0    3318.3393    6558.0854    1089.3746 
  478800    306.16618            0    3288.1291    6558.0581    1037.9675 
  478900    303.12591            0    3320.6272    6558.0854    1040.4573 
  479000    305.06163            0    3299.9415    6558.0736    1046.3053 
  479100    307.35747            0     3275.415    6558.0673    1029.0541 
  479200    303.71049            0    3314.3997    6558.1013     1049.166 
  479300    303.36479            0    3318.0821    6558.0916    1064.5146 
  479400     300.6239            0    3347.3455    6558.0816     1058.126 
  479500    306.21719            0    3287.6054    6558.0792    1062.0339 
  479600    304.61597            0    3304.7128    6558.0853    1062.2266 
  479700    303.65536            0    3314.9723    6558.0851    1096.1406 
  479800    301.11029            0    3342.1515    6558.0824    1096.4205 
  479900    307.69135            0    3271.8641    6558.0823    1082.8189 
  480000     304.9096            0    3301.5712    6558.0797    1090.7718 
  480100    307.48096            0    3274.1073    6558.0785    1087.7414 
  480200    302.74215            0      3324.73    6558.0895    1104.2755 
  480300    306.64999            0    3282.9841    6558.0803    1068.5215 
  480400    303.05625            0    3321.3781    6558.0923    1073.0369 
  480500    308.48736            0    3263.3454    6558.0652    1019.6995 
  480600    302.53675            0    3326.9154    6558.0813    1040.0813 
  480700    307.76942            0    3271.0216    6558.0736    1022.6563 
  480800    303.33574            0    3318.3882    6558.0875    1071.4222 
  480900    308.70342            0    3261.0481    6558.0754    1071.7811 
  481000    301.19517            0    3341.2339    6558.0713    1012.0645 
  481100    302.85992            0    3323.4751    6558.0926    1010.5413 
  481200    307.79679            0    3270.7356    6558.0799     1066.037 
  481300    303.46327            0    3317.0247     6558.086    1027.3314 
  481400    303.10817            0    3320.8143     6558.083    1010.8865 
  481500     300.7797            0    3345.6892    6558.0893    1026.6195 
  481600    306.57967            0    3283.7303    6558.0755      1024.84 
  481700    303.74269            0    3314.0431    6558.0886    1094.8083 
  481800    305.37633            0    3296.5935    6558.0867    1104.8446 
  481900    307.03175            0    3278.8948    6558.0684    1024.3383 
  482000    300.81061            0    3345.3536    6558.0838    1004.2484 
  482100    309.37181            0    3253.9116    6558.0775    1003.6757 
  482200    298.79439            0    3366.8951    6558.0916    1017.6726 
  482300    305.99171            0    3290.0234     6558.089    1063.9036 
  482400    309.14836            0    3256.2915    6558.0709     1058.956 
  482500    302.93763            0    3322.6391    6558.0864    1036.6685 
  482600    303.65127            0     3315.017    6558.0862    1016.7144 
  482700    303.50908            0    3316.5513    6558.1019    1068.0532 
  482800    311.74647            0    3228.5343    6558.0622    1026.1125 
  482900    301.46834            0     3338.336     6558.091     1055.384 
  483000     305.0018            0    3300.5876    6558.0807    1045.1889 
  483100    305.04984            0    3300.0867     6558.093    1061.9612 
  483200     299.9947            0    3354.0773    6558.0934    1047.2189 
  483300    309.71338            0    3250.2603    6558.0743    1047.4474 
  483400    302.53321            0    3326.9755    6558.1035    1089.8364 
  483500    306.92984            0     3279.984    6558.0691     1077.544 
  483600     305.1967            0       3298.5    6558.0748    1072.4809 
  483700    307.86855            0    3269.9686    6558.0793    1052.9762 
  483800    303.51463            0    3316.4774    6558.0873    1016.3295 
  483900    305.41519            0    3296.1822    6558.0904    1016.5531 
  484000    305.22864            0    3298.1588    6558.0747    995.38075 
  484100    298.64442            0    3368.5065    6558.1013     1043.621 
  484200    308.85364            0     3259.443    6558.0747    1004.2282 
  484300    305.62204            0    3293.9591    6558.0765    1003.9484 
  484400    310.04621            0    3246.7079    6558.0766    1052.1314 
  484500    302.55662            0    3326.7105    6558.0885    1057.1616 
  484600    309.14381            0    3256.3418    6558.0726    1063.3242 
  484700    299.53712            0    3358.9626    6558.0917    1077.8229 
  484800    308.00175            0    3268.5468    6558.0802    1030.2336 
  484900    303.80207            0    3313.4054    6558.0852     1047.866 
  485000    304.48951            0     3306.076    6558.0978     1043.923 
  485100    304.35374            0    3307.5134    6558.0852    1035.7175 
  485200     303.7924            0    3313.5177    6558.0942    1028.5197 
  485300    310.19593            0    3245.1148    6558.0825    1035.4897 
  485400    303.92629            0    3312.0682    6558.0747    989.52808 
  485500    300.35697            0    3350.1983    6558.0836    1031.2952 
  485600    310.74815            0    3239.2236    6558.0892    1053.2153 
  485700    305.54421            0    3294.7859    6558.0721    1110.7133 
  485800    309.09558            0    3256.8642      6558.08    1027.2169 
  485900    304.00089            0    3311.2905    6558.0938    1063.8835 
  486000    305.65954            0    3293.5599    6558.0778    1033.1756 
  486100    308.08853            0    3267.6068    6558.0669    1020.0126 
  486200     297.9781            0    3375.6299    6558.1083    1062.1394 
  486300    304.15992            0    3309.5956    6558.0973    1061.8198 
  486400    307.71394            0     3271.625    6558.0844    1076.2099 
  486500    302.45434            0    3327.8025    6558.0882    1034.9071 
  486600    301.07279            0    3342.5609    6558.0913    991.34442 
  486700    307.61902            0    3272.6128    6558.0585    1009.7392 
  486800    304.43167            0    3306.6887    6558.0927    1045.2303 
  486900    308.35058            0    3264.8083    6558.0672    1025.0846 
  487000    304.55104            0    3305.4117    6558.0906    1087.6152 
  487100    300.98288            0    3343.5145    6558.0847    1066.1367 
  487200    305.13756            0    3299.1461    6558.0892    1048.0886 
  487300    306.47164            0    3284.8877    6558.0791    1038.7237 
  487400    304.12514            0    3309.9525    6558.0828     1038.252 
  487500    303.69354            0    3314.5586    6558.0792    964.80086 
  487600    308.32037            0    3265.1413    6558.0776    965.01081 
  487700    303.52395            0    3316.3759    6558.0853    1023.2099 
  487800    307.83932            0    3270.2863    6558.0849    1075.4329 
  487900    304.93527            0    3301.2968    6558.0795    1062.5573 
  488000    301.56594            0    3337.3057     6558.103    1090.9976 
  488100    306.43235            0    3285.3083    6558.0801    1076.1552 
  488200    303.24925            0    3319.3171    6558.0926    1075.7929 
  488300     302.5654            0    3326.6159    6558.0877    1042.1087 
  488400    306.87397            0    3280.5964    6558.0849    1025.8629 
  488500     307.1911            0    3277.2004    6558.0758    1017.5686 
  488600    303.98436            0    3311.4528    6558.0794    994.87637 
  488700    298.69868            0    3367.9312    6558.1055    1032.0268 
  488800    310.55111            0    3241.3257    6558.0868    1058.9045 
  488900    304.87968            0    3301.9068    6558.0957    1059.1157 
  489000    305.28168            0    3297.6018    6558.0841    1011.5767 
  489100    301.12122            0    3342.0544     6558.102    1011.4935 
  489200    300.59499            0    3347.6603    6558.0877     1015.084 
  489300    306.28388            0    3286.9162    6558.1023    1053.4817 
  489400    303.43451            0    3317.3474    6558.1016    1046.0384 
  489500    304.84932            0    3302.2146    6558.0793    1052.4246 
  489600      304.258            0    3308.5377    6558.0869    1016.1427 
  489700    310.92324            0    3237.3515     6558.087    995.81719 
  489800     298.0431            0    3374.9382    6558.1108      1061.69 
  489900    302.55935            0     3326.691    6558.0982    985.90315 
  490000     307.3816            0    3275.1672    6558.0772    975.48895 
  490100    304.01652            0    3311.1255    6558.0957     1043.709 
  490200    306.57979            0    3283.7373    6558.0838    1018.7965 
  490300    301.60138            0    3336.9233    6558.0992    1041.3218 
  490400    306.81932            0    3281.1808    6558.0855    1046.1035 
  490500    306.20835            0    3287.6976     6558.077    1046.1161 
  490600    306.11322            0    3288.7452    6558.1086    1038.9712 
  490700    301.79705            0    3334.8198    6558.0854    1054.2223 
  490800    306.92308            0    3280.0608    6558.0737    1030.7362 
  490900    302.74447            0    3324.7036    6558.0879     1078.546 
  491000    309.01764            0    3257.7018    6558.0851    1086.2141 
  491100    302.87945            0    3323.2663    6558.0923    1058.8968 
  491200    303.10212            0    3320.8772    6558.0813    1047.9821 
  491300    310.42285            0    3242.6838    6558.0751    1076.0297 
  491400    301.70822            0    3335.7741    6558.0909    1092.6102 
  491500    307.99273            0    3268.6436    6558.0806    1022.8292 
  491600    303.31006            0    3318.6594    6558.0844    1022.6764 
  491700    305.46307            0    3295.6675    6558.0871    1036.2383 
  491800     305.3345            0    3297.0338    6558.0803    1062.0128 
  491900    305.19672            0    3298.5068    6558.0818    1066.8446 
  492000    303.98572            0    3311.4465    6558.0876    1061.7141 
  492100    304.08793            0    3310.3618    6558.0945     1083.968 
  492200    310.23601            0    3244.6773    6558.0731     1031.647 
  492300    304.17664            0    3309.4064    6558.0867    1017.8938 
  492400    304.08247            0    3310.4154    6558.0899    1031.6001 
  492500    304.76697            0    3303.0877    6558.0728    1068.6036 
  492600    313.66335            0    3208.0848    6558.0854    1023.6126 
  492700    299.25026            0    3362.0257     6558.091    1045.6915 
  492800    304.62468            0    3304.6215     6558.087    997.30039 
  492900    304.76885            0    3303.0803    6558.0856    1020.5847 
  493000     311.2353            0    3233.9921    6558.0606    1039.5976 
  493100    302.37516            0    3328.6553    6558.0954    1065.2013 
  493200    305.04743            0    3300.0964     6558.077    1008.3334 
  493300    304.35006            0    3307.5483    6558.0807    1063.5984 
  493400    305.96435            0    3290.3123    6558.0857    1061.9745 
  493500    303.32913            0    3318.4786    6558.1072    1059.6523 
  493600    304.79223            0    3302.8275    6558.0824    1056.6761 
  493700    308.05991            0    3267.9087    6558.0632    1071.4587 
  493800     310.0134            0    3247.0718    6558.0901    1017.8942 
  493900    302.23389            0    3330.1504    6558.0816    1034.0262 
  494000    303.10102            0    3320.8868    6558.0791    1057.0094 
  494100     308.8419            0     3259.577    6558.0833    1068.3089 
  494200    307.60123            0    3272.8284     6558.084    1042.2011 
  494300     302.0242            0    3332.3868    6558.0785     1029.405 
  494400    307.24272            0    3276.6604    6558.0872     1025.987 
  494500    301.79947            0    3334.7919    6558.0834    1028.0932 
  494600    306.51062            0    3284.4796    6558.0874    1043.2438 
  494700    303.24936            0    3319.3115    6558.0882    1069.0805 
  494800    306.80293            0    3281.3559    6558.0856    1064.3879 
  494900    304.77714            0    3302.9697    6558.0634    1091.9449 
  495000    300.68254            0    3346.7239    6558.0863    1049.3346 
  495100    306.94441            0    3279.8471    6558.0878     1053.521 
  495200    307.36031            0    3275.3985    6558.0811    1101.8825 
  495300    307.11541            0    3278.0176    6558.0847     1061.184 
  495400     302.4949            0    3327.3658    6558.0847    989.83882 
  495500    302.47133            0    3327.6312    6558.0982    1007.7888 
  495600    303.59864            0    3315.5833    6558.0903    997.01209 
  495700    299.92604            0    3354.8067    6558.0895    1055.1272 
  495800    311.36666            0    3232.6031    6558.0745    1080.2276 
  495900    306.75176            0    3281.8935    6558.0766    1076.5326 
  496000    303.99717            0    3311.3175     6558.081    1046.2274 
  496100    304.84057            0    3302.3163    6558.0874    1064.3965 
  496200    307.59724            0    3272.8651    6558.0782    1051.1244 
  496300    306.44965            0    3285.1243    6558.0808    1051.4162 
  496400    304.28505            0    3308.2413    6558.0794    1057.5945 
  496500    303.66915            0    3314.8293    6558.0894    1052.3649 
  496600     305.6681            0    3293.4599    6558.0694    1032.8287 
  496700     309.7547            0    3249.8259    6558.0812     1034.417 
  496800     307.4358            0    3274.5789    6558.0678    1055.1285 
  496900    304.88039            0     3301.884    6558.0805    1070.6226 
  497000    308.32445            0    3265.0981     6558.078    1047.8607 
  497100    305.00807            0    3300.5227    6558.0829    1015.1941 
  497200    300.62231            0    3347.3901    6558.1092    1056.7826 
  497300    309.96707            0     3247.551    6558.0744    1011.4943 
  497400    300.87088            0    3344.7242    6558.0981     1061.098 
  497500    308.95225            0    3258.4082    6558.0932    1033.0875 
  497600      302.486            0    3327.4588    6558.0826    1007.3178 
  497700    301.90352            0    3333.6975    6558.1002    1007.5061 
  497800    302.77683            0    3324.3527    6558.0826    1047.2759 
  497900     307.4782            0    3274.1391    6558.0808    1063.1959 
  498000    305.29444            0      3297.47    6558.0886    1088.2452 
  498100    304.80104            0     3302.736    6558.0849    1042.5082 
  498200    307.54301            0    3273.4464    6558.0803    1053.3791 
  498300     300.9865            0    3343.4893    6558.0981    1019.7711 
  498400    304.50029            0    3305.9465    6558.0834    1005.8104 
  498500    301.34774            0    3339.6317    6558.0986    1063.0306 
  498600    301.14408            0    3341.8132     6558.105    1115.0697 
  498700    311.56264            0    3230.5046    6558.0692    1086.9152 
  498800    299.42071            0    3360.2061    6558.0919    1081.2843 
  498900    304.53446            0    3305.5943    6558.0962    1025.8723 
  499000    305.50129            0    3295.2745    6558.1023    1049.5822 
  499100    304.04013            0    3310.8568    6558.0791    1042.4215 
  499200    310.34599            0    3243.5082    6558.0786     1073.314 
  499300    310.29355            0    3244.0641    6558.0744    1035.9906 
  499400    303.21818            0    3319.6441    6558.0878    1016.6898 
  499500    304.98646            0    3300.7628    6558.0922    1018.6069 
  499600    311.75881            0    3228.4097    6558.0693    1006.4436 
  499700    300.51425            0    3348.5287    6558.0936    1038.6313 
  499800    306.81945            0    3281.1639      6558.07    1033.1796 
  499900    303.36773            0    3318.0493    6558.0902    1019.4345 
  500000    305.32718            0    3297.1122    6558.0805    1020.8181 
  500100    313.51593            0    3209.6455    6558.0716    1042.4346 
  500200    303.78784            0    3313.5628    6558.0906    1080.6892 
  500300    304.36728            0    3307.3759    6558.0923    1073.8151 
  500400     303.3431            0    3318.3096    6558.0874    993.92085 
  500500     306.1002            0    3288.8521    6558.0764    1010.5223 
  500600     304.7676            0    3303.0857    6558.0775    1028.7658 
  500700     310.5985            0    3240.8173    6558.0846    1056.3851 
  500800    301.39552            0    3339.1162    6558.0935    1056.7329 
  500900    309.80976            0    3249.2345    6558.0778    1038.2699 
  501000    303.45903            0    3317.0764    6558.0924    1058.3187 
  501100     303.1875            0    3319.9824    6558.0984    1061.6158 
  501200    309.44822            0     3253.094     6558.076    1044.7433 
  501300    304.79663            0    3302.7908    6558.0926    999.45911 
  501400    305.43069            0    3296.0138    6558.0876    1000.7937 
  501500    303.63139            0    3315.2285    6558.0853    1053.2126 
  501600    307.02521            0    3278.9804    6558.0841    1073.8785 
  501700    309.72213            0    3250.1806     6558.088    1042.5433 
  501800    302.14482            0    3331.1159    6558.0958    1026.4736 
  501900    298.93797            0    3365.3671    6558.0971    1007.4181 
  502000    303.14259            0    3320.4592    6558.0956    1019.9352 
  502100    308.87913            0    3259.1867    6558.0906    1058.4903 
  502200    306.00988            0    3289.8376    6558.0973    1030.2524 
  502300    303.22397            0    3319.5802    6558.0857    1019.7922 
  502400    306.85946            0    3280.7431    6558.0765    973.52312 
  502500    305.43961            0    3295.9309    6558.0999    980.48116 
  502600    305.42974            0    3296.0333     6558.097    1014.5245 
  502700    307.85246            0    3270.1314    6558.0703    990.36009 
  502800    302.58577            0    3326.3946     6558.084     979.6002 
  502900    309.67942            0    3250.6297     6558.081    1019.5318 
  503000    304.82426            0    3302.4961     6558.093    1070.9373 
  503100    304.51804            0    3305.7563    6558.0828     1004.012 
  503200    305.97446            0    3290.2078    6558.0892    1003.7571 
  503300    310.92469            0    3237.3138    6558.0649    974.20571 
  503400     303.0018            0    3321.9545    6558.0872    984.94763 
  503500     303.0573            0    3321.3702    6558.0956    962.75495 
  503600    306.63359            0    3283.1649     6558.086    999.93854 
  503700     303.1542            0    3320.3262    6558.0865    1009.9259 
  503800    307.86668            0    3270.0155    6558.1063     1027.573 
  503900    299.54551            0    3358.8842    6558.1029    1061.6674 
  504000    305.04798            0       3300.1    6558.0864    1032.2513 
  504100    302.91509            0     3322.884    6558.0906    1059.5332 
  504200     310.3767            0    3243.1748    6558.0732    1025.6421 
  504300    299.56374            0    3358.6832    6558.0966    1036.8887 
  504400    308.23265            0     3266.083    6558.0825    1033.1877 
  504500    305.99183            0    3290.0044    6558.0713    1070.6093 
  504600    307.05938            0     3278.625    6558.0936    1070.7135 
  504700    309.54811            0    3252.0174    6558.0663    1001.2118 
  504800    301.79304            0    3334.8683    6558.0911    1037.0604 
  504900    305.50908            0    3295.1769    6558.0879     1066.889 
  505000    301.80812            0    3334.6991     6558.083    1084.2461 
  505100    305.21498            0    3298.3231     6558.093    1067.6657 
  505200    304.86006            0    3302.1066    6558.0859     1060.606 
  505300    303.59259            0    3315.6461    6558.0886    1044.0523 
  505400    302.17079            0    3330.8436    6558.1009    1032.8687 
  505500    302.36904            0    3328.7087    6558.0833    1089.1089 
  505600    305.36322            0    3296.7341    6558.0874    1043.5473 
  505700    304.70711            0    3303.7323    6558.0781    987.52479 
  505800    298.72498            0    3367.6435    6558.0987    1033.2227 
  505900    302.84015            0    3323.6908     6558.097    1030.4612 
  506000    304.62387            0      3304.63    6558.0868     971.4304 
  506100     308.2776            0    3265.6036    6558.0831    1022.3853 
  506200    304.70107            0    3303.8016    6558.0828    1027.3063 
  506300    307.18727            0    3277.2461    6558.0806    1015.7388 
  506400    299.39522            0    3360.4816    6558.0951    1022.6599 
  506500    309.17143            0    3256.0432     6558.069     1007.888 
  506600    302.16169            0    3330.9401    6558.1002    1077.6008 
  506700    310.56586            0     3241.149    6558.0677    1033.3171 
  506800    305.16137            0     3298.898    6558.0954     1039.351 
  506900     306.4326            0    3285.3178    6558.0922     1037.618 
  507000    305.89991            0    3290.9992    6558.0844    1062.0248 
  507100    309.04985            0     3257.359    6558.0863    1070.6065 
  507200    300.47632            0    3348.9451    6558.1051    1088.0564 
  507300    301.23357            0    3340.8535    6558.1011    1047.7371 
  507400    305.25668            0    3297.8755    6558.0908    1034.8159 
  507500    304.69313            0    3303.9056     6558.102    1047.4408 
  507600    305.91921            0    3290.7863    6558.0777    1041.6918 
  507700    303.41001            0    3317.5954    6558.0878    1020.8899 
  507800    305.05093            0    3300.0536    6558.0714     1009.195 
  507900    307.72516            0    3271.4989    6558.0782    1015.1383 
  508000    306.42675            0    3285.3689    6558.0809    1069.8126 
  508100    304.00911            0    3311.2064    6558.0973    1069.7991 
  508200    301.43631            0    3338.6627    6558.0755    1010.3846 
  508300    307.19179            0    3277.1956    6558.0784    998.96217 
  508400     310.9622            0    3236.9336    6558.0853    990.42162 
  508500    298.86612            0     3366.134    6558.0966    1044.9858 
  508600    301.53854            0    3337.6041    6558.1088     1040.333 
  508700    308.93377            0    3258.5797    6558.0672    1013.6162 
  508800    302.55559            0    3326.7218    6558.0888    1063.4427 
  508900    305.70335            0    3293.1084    6558.0943    1081.2804 
  509000    302.70488            0     3325.138    6558.0995    1083.5088 
  509100    301.18023            0    3341.4166    6558.0946    1100.7277 
  509200    308.71766            0    3260.9015    6558.0809    1065.5553 
  509300    302.44781            0    3327.8605    6558.0764    1009.5189 
  509400    310.01589            0    3247.0186    6558.0634    1030.7975 
  509500    304.68241            0    3303.9944    6558.0764    1024.8928 
  509600     306.9456            0    3279.8184    6558.0719    998.11005 
  509700    301.55768            0    3337.3778    6558.0869    1112.4395 
  509800    309.32839            0    3254.3584    6558.0606    1045.7415 
  509900    300.17513            0      3352.15    6558.0931    1063.4329 
  510000     309.8632            0    3248.6549     6558.069    1061.0631 
  510100    301.34963            0    3339.6016    6558.0887    1103.2824 
  510200    304.69429            0    3303.8875    6558.0964    1062.0785 
  510300    304.28718            0    3308.2196    6558.0804    1038.8087 
  510400    303.85999            0    3312.8009    6558.0993    1094.6096 
  510500    306.80436            0    3281.3401     6558.085    1065.6108 
  510600    301.89002            0     3333.841    6558.0997    1041.1222 
  510700    303.18538            0    3319.9975    6558.0909    1054.2874 
  510800    303.11983            0    3320.6974    6558.0907    1096.3814 
  510900    305.48695            0    3295.4159    6558.0906    1052.3867 
  511000    303.44724            0    3317.2049    6558.0949    1060.3312 
  511100    300.83244            0    3345.1313    6558.0947    1054.8565 
  511200    304.53965            0    3305.5278    6558.0851    1040.3111 
  511300    306.37191            0    3285.9527    6558.0789    1031.4289 
  511400    307.57155            0    3273.1406    6558.0794    1059.2905 
  511500    303.10729            0    3320.8302    6558.0895    1092.4362 
  511600    302.94856            0    3322.5243    6558.0883    1040.8357 
  511700    310.75524            0     3239.131    6558.0722    1020.9332 
  511800    304.17859            0     3309.371     6558.072    1038.0669 
  511900    302.13472            0    3331.2226    6558.0947    1020.9565 
  512000    306.42449            0    3285.3983    6558.0862    1034.8904 
  512100     307.2763            0    3276.3014    6558.0868    1057.0688 
  512200    304.99593            0    3300.6373    6558.0677    1035.1849 
  512300    304.81981            0    3302.5247    6558.0741    967.61638 
  512400     310.8925            0    3237.6684    6558.0756    998.26931 
  512500    303.99759            0    3311.3269    6558.0949    1075.8671 
  512600    305.65932            0    3293.5634    6558.0791    1027.9899 
  512700    303.82817            0    3313.1077    6558.0663    1046.5733 
  512800    307.53798            0    3273.5004    6558.0806     1074.702 
  512900    302.56434            0    3326.6174    6558.0779    1070.8258 
  513000    306.09028            0    3288.9591    6558.0775    1038.2562 
  513100    307.43687            0    3274.5856    6558.0859    1077.4143 
  513200    307.40177            0     3274.965    6558.0904     1051.429 
  513300    303.56665            0    3315.9288    6558.0942    1019.4445 
  513400    303.17439            0    3320.1058    6558.0818    1030.0953 
  513500    302.36026            0    3328.8276    6558.1085    1090.0337 
  513600    307.80493            0    3270.6512    6558.0825    1045.1169 
  513700    306.18826            0    3287.9096    6558.0745    1075.2994 
  513800    297.32125            0    3382.6404    6558.1034    1078.5367 
  513900    304.19679            0    3309.2057    6558.1011    1002.6543 
  514000     306.3702            0    3285.9713    6558.0793    1027.2237 
  514100    306.00122            0    3289.9097    6558.0769    1048.2755 
  514200    300.69058            0    3346.6412    6558.0895    1081.1902 
  514300    309.82688            0    3249.0457    6558.0718    1053.2041 
  514400    302.71731            0    3324.9803    6558.0745    1057.1069 
  514500    310.74382            0    3239.2523    6558.0715    1018.9147 
  514600    303.43179            0    3317.3637    6558.0887    1039.2939 
  514700    303.71459            0     3314.337    6558.0824    1036.5793 
  514800    309.92311            0     3248.015     6558.069    1020.9061 
  514900    305.23749            0     3298.058    6558.0684    1031.3649 
  515000    303.40944            0    3317.5993    6558.0857     1034.459 
  515100    299.13909            0     3363.216     6558.094    1074.8681 
  515200    313.83459            0    3206.2482    6558.0777    1023.4627 
  515300    301.77344            0    3335.0803    6558.0938    1078.0643 
  515400    308.08127            0    3267.6956    6558.0782     1069.644 
  515500    304.81187            0    3302.6063    6558.0709    1054.0227 
  515600    304.79734            0    3302.7761    6558.0855    1080.5635 
  515700     299.4434            0    3359.9614    6558.0896    1084.4072 
  515800    313.26803            0    3212.2913    6558.0698    1014.0923 
  515900    299.26768            0    3361.8387    6558.0901     1061.366 
  516000    309.12795            0    3256.5111    6558.0726    1058.1697 
  516100    304.48532            0     3306.101     6558.078    1069.6607 
  516200    301.77749            0    3335.0373     6558.094    1046.3629 
  516300    305.53727            0    3294.8702    6558.0822    1096.4978 
  516400    309.40428            0    3253.5455    6558.0581    1073.6733 
  516500    305.53024            0    3294.9434    6558.0805    1045.3808 
  516600    305.53374            0    3294.9061    6558.0805    1095.9231 
  516700    303.13575            0    3320.5286    6558.0919    1097.4938 
  516800    305.43619            0    3295.9506    6558.0832    1056.7523 
  516900     307.2951            0    3276.1019     6558.088    1083.3005 
  517000    303.32881            0      3318.45    6558.0753    1050.3274 
  517100    304.85114            0    3302.2067    6558.0908    1103.3806 
  517200    306.90869            0    3280.2232    6558.0825    1113.9705 
  517300    302.90079            0    3323.0127    6558.0665    1065.0907 
  517400     302.4836            0    3327.4781    6558.0763    1029.7252 
  517500    311.16757            0     3234.724    6558.0691    1017.3105 
  517600    305.30175            0    3297.3816    6558.0783    1066.5257 
  517700     304.0655            0    3310.5892    6558.0824    1112.9768 
  517800    303.03857            0    3321.5655    6558.0909    1134.0255 
  517900    307.96705            0    3268.9064    6558.0691    1090.6644 
  518000    302.45087            0    3327.8353    6558.0839    1077.5715 
  518100    303.07398            0    3321.1908    6558.0943    1076.6311 
  518200    301.22035            0    3340.9789    6558.0852    1057.3242 
  518300    303.04032            0    3321.5404    6558.0844    1049.7759 
  518400    311.11603            0    3235.2711    6558.0657    1092.8473 
  518500    300.07453            0    3353.2231    6558.0918    1101.9604 
  518600    306.98858            0    3279.3712    6558.0837    1052.7188 
  518700    304.98918            0    3300.7184    6558.0767     1117.345 
  518800      306.187            0     3287.928    6558.0794    1088.6169 
  518900    301.43245            0    3338.7223    6558.0939    1094.6399 
  519000      308.331            0    3265.0196    6558.0695    1086.7396 
  519100    307.63944            0    3272.4178    6558.0816     1109.602 
  519200    307.60606            0    3272.7714    6558.0787    1049.6618 
  519300     307.5368            0    3273.4963    6558.0639    1054.2199 
  519400    301.20841            0    3341.1175    6558.0964    1112.5333 
  519500    301.44196            0    3338.6314    6558.1046    1056.5365 
  519600    309.74782            0    3249.8935    6558.0753    1053.1923 
  519700    308.88178            0    3259.1342    6558.0665    1062.5112 
  519800     299.8233            0    3355.9059    6558.0914    1064.1815 
  519900    308.80685            0    3259.9285    6558.0605    1017.1984 
  520000    306.60909            0    3283.4226     6558.082    1091.9762 
  520100    305.19732            0    3298.4964    6558.0778    1111.1308 
  520200    305.80694            0    3291.9918    6558.0841    1064.7985 
  520300    301.86088            0    3334.1337    6558.0811    1054.7137 
  520400    303.09407            0    3320.9676    6558.0858    1089.1412 
  520500    308.70834            0    3260.9907    6558.0706    1043.4636 
  520600    303.46894            0     3316.976    6558.0978    1055.5406 
  520700    305.63614            0    3293.8105    6558.0786    1042.8365 
  520800    309.83739            0    3248.9492    6558.0876    1037.4679 
  520900    300.00852            0    3353.9216    6558.0853    1045.6044 
  521000    307.21079            0    3276.9956    6558.0812    1046.7473 
  521100    310.86292            0    3237.9714    6558.0627    1022.4806 
  521200    299.19681            0    3362.6061    6558.1005    1072.6702 
  521300     306.5779            0    3283.7456     6558.072     1031.034 
  521400    301.65623            0    3336.3159    6558.0776    1079.8506 
  521500    305.00465            0    3300.5591    6558.0827    1069.7713 
  521600    305.97535            0     3290.182    6558.0729    1079.9916 
  521700    308.95859            0    3258.3084     6558.061    1079.1149 
  521800    310.08536            0    3246.2802    6558.0669    1075.7109 
  521900    303.69462            0    3314.5604    6558.0926    1121.0434 
  522000    303.49999            0    3316.6338    6558.0873    1077.8138 
  522100    301.79803            0    3334.8165    6558.0926    1011.6978 
  522200    311.71552            0    3228.8836    6558.0809    1076.5885 
  522300    305.66856            0    3293.4801    6558.0944    1096.6601 
  522400    300.22806            0     3351.574    6558.0825    1009.8479 
  522500    304.09968            0    3310.2419    6558.1002    1049.2558 
  522600    304.58929            0    3304.9967    6558.0841    1087.8143 
  522700    307.85994            0    3270.0542    6558.0729    1059.9059 
  522800    306.88388            0    3280.4949    6558.0891    1049.8636 
  522900    304.25989            0      3308.52    6558.0894    1073.9614 
  523000    305.10673            0    3299.4629    6558.0767    1008.5881 
  523100    303.01344            0    3321.8378    6558.0947    1041.3016 
  523200    303.69967            0    3314.4968    6558.0829    1033.7529 
  523300    303.76402            0    3313.8228    6558.0961    1027.5641 
  523400    303.52556            0    3316.3576    6558.0841    1045.1288 
  523500    310.59104            0    3240.8828    6558.0703    1053.5493 
  523600    302.56947            0    3326.5595    6558.0748    1054.4546 
  523700    303.76829            0    3313.7578    6558.0768    1049.1686 
  523800    305.50016            0    3295.2721    6558.0878    1102.8888 
  523900     313.6422            0    3208.2953      6558.07    1095.9857 
  524000    300.02462            0    3353.7681    6558.1038    1091.5204 
  524100    304.83567            0    3302.3668    6558.0856    1057.5952 
  524200    304.69429            0    3303.8846    6558.0935    1082.0045 
  524300    305.80895            0    3291.9752     6558.089    1054.8765 
  524400    309.94208            0    3247.8097    6558.0662    1009.0275 
  524500    305.26612            0    3297.7643    6558.0804    1044.9864 
  524600    308.46623            0    3263.5766    6558.0706    1056.6998 
  524700    306.76674            0    3281.7344    6558.0776    1065.1389 
  524800    304.76094            0     3303.167    6558.0877    1099.2125 
  524900    303.37365            0    3317.9848    6558.0889    1053.8866 
  525000    310.33428            0    3243.6201    6558.0654    1035.5179 
  525100    309.76878            0    3249.6704     6558.076    1091.9461 
  525200    304.08736            0    3310.3489    6558.0756    1084.8693 
  525300    300.48556            0    3348.8503     6558.109    1081.6246 
  525400      307.014            0    3279.0908    6558.0747    1041.0665 
  525500    304.24315            0    3308.6966    6558.0872     1044.469 
  525600    300.79459            0    3345.5255    6558.0847    1046.1542 
  525700    307.31531            0     3275.871     6558.073    1037.8713 
  525800    305.07225            0    3299.8507    6558.0963     1104.798 
  525900    305.75652            0    3292.5185    6558.0722    1105.7671 
  526000    304.17282            0     3309.442    6558.0814    1099.5018 
  526100     306.8661            0    3280.6766    6558.0809    1104.2044 
  526200     306.0189            0    3289.7153    6558.0714    1087.3294 
  526300    302.83117            0    3323.7742    6558.0845    1055.0361 
  526400     306.9736            0    3279.5323    6558.0847    1052.3564 
  526500    307.52762            0    3273.6105      6558.08    1048.0826 
  526600    301.03057            0    3343.0111    6558.0906      1008.28 
  526700     307.7178            0    3271.5823     6558.083     1042.805 
  526800      304.123            0    3309.9678    6558.0751    1102.1783 
  526900    308.39394            0    3264.3588    6558.0808     1094.028 
  527000    305.92512            0     3290.729    6558.0834    1086.7869 
  527100    308.13252            0    3267.1459    6558.0759    1076.7472 
  527200    302.04424            0    3332.1796    6558.0853    1088.4108 
  527300    306.27554            0    3287.0019    6558.0989    1048.4109 
  527400    305.61362            0    3294.0486    6558.0761    1055.3518 
  527500    304.51246            0    3305.8248    6558.0916    1095.8352 
  527600    304.13725            0    3309.8151    6558.0747    1105.9655 
  527700    301.39427            0    3339.1311    6558.0949    1094.1935 
  527800    310.44296            0    3242.4618    6558.0679     1066.317 
  527900    297.74598            0    3378.0943    6558.0935    1093.7617 
  528000    308.95557            0    3258.3644    6558.0848    1071.5159 
  528100    309.94427            0    3247.7865    6558.0664    1034.0489 
  528200    299.52977            0    3359.0406    6558.0912    1075.4834 
  528300    306.56167            0    3283.9315    6558.0845    1056.2913 
  528400      308.293            0    3265.4288    6558.0728    1051.0626 
  528500    301.52858            0    3337.6803    6558.0786    1105.4008 
  528600    303.61526            0    3315.3981    6558.0826    1094.4111 
  528700    306.09959            0    3288.8561     6558.074    1031.0346 
  528800    304.87145            0    3302.0033    6558.1043     1086.759 
  528900    304.05971            0    3310.6499    6558.0813    1028.2804 
  529000    307.90089            0     3269.615    6558.0712    1021.7173 
  529100    306.46777            0    3284.9279     6558.078    1051.2676 
  529200    303.98662            0    3311.4448    6558.0956     1080.613 
  529300    302.03948            0    3332.2412    6558.0961    1096.5846 
  529400    305.37615            0    3296.5876    6558.0789    1070.3967 
  529500    303.06046            0     3321.336    6558.0952    1067.2264 
  529600    307.12769            0    3277.8771    6558.0753    1021.2056 
  529700    308.04212            0    3268.1089    6558.0734    1086.1659 
  529800    306.43326            0    3285.3005     6558.082     1084.238 
  529900     308.3362            0    3264.9706    6558.0759    977.62635 
  530000    300.51005            0    3348.5651    6558.0852    1036.0333 
  530100    303.11062            0    3320.7986    6558.0934    1089.0712 
  530200    307.40215            0    3274.9469    6558.0765    1017.1157 
  530300    304.65916            0    3304.2423     6558.076    1005.3063 
  530400    308.62084            0     3261.923    6558.0685    1074.2364 
  530500    308.25963            0    3265.7852    6558.0728    1044.5649 
  530600    302.87606            0     3323.278    6558.0677    1040.8924 
  530700    306.10344            0    3288.8307    6558.0897    1093.3018 
  530800     302.5132            0    3327.1705    6558.0848    1065.9942 
  530900    306.19758            0    3287.8132    6558.0776    1041.7521 
  531000     304.4817            0    3306.1539    6558.0922    1087.1171 
  531100    301.30499            0     3340.071    6558.0812    1086.7252 
  531200    312.15159            0    3224.2122    6558.0669    1013.2499 
  531300    300.43798            0    3349.3506    6558.1011     1070.189 
  531400    306.73813            0    3282.0386    6558.0762    1043.3933 
  531500     308.0493            0    3268.0254    6558.0665    1032.4741 
  531600    302.53893            0    3326.8971    6558.0862    1047.6291 
  531700    306.05086            0    3289.3814    6558.0788     1025.331 
  531800    303.24023            0    3319.4061    6558.0853    1007.6007 
  531900    304.49534            0    3306.0069    6558.0909    1041.2507 
  532000    305.14377            0    3299.0796     6558.089    1122.2703 
  532100    307.11255            0    3278.0381    6558.0746    1097.1915 
  532200    306.43136            0    3285.3168     6558.078    1074.9576 
  532300    301.96956            0     3332.972    6558.0801    1096.6632 
  532400    304.40949            0    3306.9152    6558.0823    1055.7423 
  532500    304.53787            0    3305.5519    6558.0901    1116.9609 
  532600    309.82315            0    3249.0804    6558.0668    1112.3505 
  532700    302.39143            0    3328.4682     6558.082    1107.1203 
  532800    305.93061            0    3290.6607    6558.0737    1067.6813 
  532900    305.21384            0    3298.3089    6558.0667    1112.9562 
  533000    306.54104            0    3284.1443    6558.0769    1082.3645 
  533100    300.98623            0    3343.4785    6558.0844    1059.9421 
  533200     307.3027            0    3275.9985    6558.0658    1136.5897 
  533300    310.10268            0    3246.1024    6558.0741    1076.8193 
  533400    300.59485            0    3347.6543    6558.0801    1091.9621 
  533500    310.05751            0    3246.5838    6558.0732     1135.852 
  533600    305.87944            0    3291.2247    6558.0913    1135.2845 
  533700    304.67465            0    3304.0773    6558.0764    1100.0529 
  533800    307.80459            0    3270.6497    6558.0774    1107.0376 
  533900    304.45362            0    3306.4382    6558.0766    1087.7831 
  534000    301.98155            0    3332.8577    6558.0939    1081.5388 
  534100    307.27629            0    3276.3071    6558.0924    1042.8461 
  534200    303.11611            0    3320.7387    6558.0923    1085.7161 
  534300    308.86112            0    3259.3592    6558.0709    1084.1867 
  534400    301.80375            0    3334.7531    6558.0904    1085.0671 
  534500    310.08233            0     3246.317    6558.0714    1059.0157 
  534600    299.87344            0     3355.372    6558.0931    1084.7076 
  534700    306.00159            0    3289.9233    6558.0945    1054.7939 
  534800    303.69593            0    3314.5285    6558.0746    1060.2663 
  534900    306.82611            0    3281.1231    6558.1003    1075.7629 
  535000    301.61013            0    3336.8228    6558.0922    1073.4072 
  535100     306.4067            0    3285.5816    6558.0794    1076.3334 
  535200    307.90013            0    3269.6427    6558.0907    1058.3783 
  535300     307.2815            0    3276.2381    6558.0791    1055.9868 
  535400     306.4556            0    3285.0596    6558.0797    1082.2145 
  535500    308.02134            0    3268.3403    6558.0829    1055.7585 
  535600    306.30122            0    3286.7184    6558.0897    1074.4015 
  535700    307.36034            0    3275.3885    6558.0715    1077.2428 
  535800    303.32608            0    3318.4978    6558.0939    1095.6489 
  535900    301.36164            0    3339.4812    6558.0965    1056.8944 
  536000    304.66337            0    3304.2106    6558.0893    1053.9428 
  536100    303.36638            0    3318.0521    6558.0786    1080.1536 
  536200    307.74538            0    3271.2714    6558.0666    1083.3005 
  536300    307.14292            0    3277.7047    6558.0656    1042.6898 
  536400    302.27378            0    3329.7352    6558.0924    1099.5896 
  536500    307.49633            0    3273.9518    6558.0872    1053.6091 
  536600    298.65272            0    3368.4084    6558.0918    1096.7909 
  536700    307.20007            0    3277.1172    6558.0884    1125.1151 
  536800    301.54084            0    3337.5606    6558.0899    1105.2793 
  536900    304.19945            0    3309.1648    6558.0887    1059.5452 
  537000    302.43593            0    3328.0023    6558.0914    1071.3222 
  537100    306.59613            0    3283.5541     6558.075    1036.6667 
  537200    305.83708            0    3291.6774    6558.0916    1071.8957 
  537300    306.81127            0    3281.2657    6558.0844    1048.3385 
  537400    302.41424            0    3328.2412    6558.0986    1084.6098 
  537500    305.41053            0    3296.2121    6558.0706    1047.7298 
  537600    308.33919            0    3264.9368    6558.0741    1043.6257 
  537700    308.22548            0    3266.1519    6558.0747    1069.8748 
  537800    301.85337            0    3334.2162    6558.0833    1103.4608 
  537900    308.74545            0    3260.5928     6558.069    1054.9761 
  538000    307.66505            0    3272.1394    6558.0768    1022.2269 
  538100    303.96332            0    3311.6856    6558.0875    1059.1247 
  538200    300.46779            0    3349.0244    6558.0933    1064.2206 
  538300    308.55138            0    3262.6665      6558.07    1056.1578 
  538400    300.77499            0    3345.7487    6558.0985    1121.2041 
  538500    303.57058            0    3315.8837    6558.0911    1074.6541 
  538600    303.84764            0    3312.9364    6558.1029    1083.0844 
  538700    303.77592            0    3313.6781    6558.0786    1059.2751 
  538800    308.32166            0    3265.1227    6558.0728    1029.6924 
  538900    301.62581            0    3336.6569    6558.0937    1093.0633 
  539000    306.40118            0    3285.6538    6558.0927    1104.4946 
  539100     307.6932            0    3271.8323    6558.0704    1051.5882 
  539200    304.56889            0    3305.2235     6558.093    1061.6938 
  539300    306.07605            0    3289.1337       6558.1    1088.6447 
  539400    305.34253            0    3296.9441    6558.0763    1055.1106 
  539500    303.64063            0    3315.1287    6558.0843    1035.6877 
  539600    306.96708            0    3279.6007    6558.0835    1086.7207 
  539700    299.97688            0    3354.2719    6558.0977      1090.81 
  539800    308.52299            0    3262.9836    6558.0839    1055.8706 
  539900    303.23923            0    3319.4351    6558.1036    1081.2435 
  540000    301.88902            0    3333.8297    6558.0776    1062.4684 
  540100    307.76434            0    3271.1007    6558.0985    1099.2191 
  540200    299.16569            0    3362.9336    6558.0957    1055.8103 
  540300    307.26994            0    3276.3657    6558.0831    1075.8816 
  540400    301.51051            0     3337.879    6558.0844    1092.7275 
  540500     310.1932            0    3245.1475     6558.086    1048.9455 
  540600    308.21159            0    3266.3089    6558.0834    1047.7879 
  540700    300.82719            0    3345.1836    6558.0909    1050.5518 
  540800    301.38168            0    3339.2642    6558.0936    1047.7006 
  540900    311.56579            0    3230.4787    6558.0768    1088.8175 
  541000    303.79519            0    3313.4897     6558.096    1110.1986 
  541100    309.44918            0    3253.0894    6558.0816     1063.143 
  541200    306.95988            0    3279.6668    6558.0727    1017.2056 
  541300    301.63801            0    3336.5254    6558.0924     1064.506 
  541400    307.53168            0    3273.5662    6558.0791    1062.8169 
  541500    303.57291            0    3315.8536    6558.0859    1064.3163 
  541600    311.92771            0      3226.61    6558.0736    1041.2592 
  541700    306.36494            0    3286.0265    6558.0784    1063.2066 
  541800    303.87378            0    3312.6494    6558.0951    1029.1383 
  541900    301.47486            0    3338.2664    6558.0911    1039.3721 
  542000    309.94109            0    3247.8302    6558.0761    1076.0425 
  542100    309.22028            0    3255.5268    6558.0743    1065.1945 
  542200      299.115            0    3363.4709    6558.0916    1073.5904 
  542300    307.82252            0    3270.4672    6558.0864    1042.3636 
  542400    303.44637            0    3317.2064    6558.0872    1038.8607 
  542500    306.15457            0    3288.2833    6558.0883    1085.4278 
  542600    305.79222            0    3292.1512    6558.0863    1089.8064 
  542700      304.642            0     3304.425    6558.0754    1064.6893 
  542800    307.08635            0    3278.3273     6558.084    1095.1584 
  542900    304.92037            0    3301.4611    6558.0845    1079.5031 
  543000    305.65311            0    3293.6505    6558.0999     1018.057 
  543100    304.58337            0    3305.0677     6558.092    1072.1028 
  543200    308.42279            0    3264.0603    6558.0905      1090.79 
  543300    304.92635            0    3301.3869    6558.0742    1021.3939 
  543400     303.1972            0    3319.8764     6558.096    1023.0354 
  543500    305.47129            0    3295.5768    6558.0842    1049.9575 
  543600    303.60924            0    3315.4811    6558.1013    1052.3551 
  543700    304.65712            0    3304.2833    6558.0952    1030.3333 
  543800     305.4082            0    3296.2544    6558.0881    1028.3602 
  543900    310.48088            0    3242.0619     6558.073    1034.6817 
  544000    306.26919            0      3287.05    6558.0792    1013.4911 
  544100    306.40684            0    3285.5786    6558.0779    984.57116 
  544200     302.5695            0    3326.5604     6558.076    1054.4416 
  544300    310.93325            0    3237.2275    6558.0699    1042.5314 
  544400    305.78943            0     3292.182    6558.0872    1042.2809 
  544500    305.81133            0    3291.9466    6558.0857    1062.3805 
  544600    305.95137            0    3290.4583    6558.0931    1067.3966 
  544700    307.66441            0    3272.1513    6558.0818    1039.1035 
  544800    302.73712            0    3324.7894    6558.0952    1092.3869 
  544900    305.99211            0    3289.9931    6558.0631    1062.3147 
  545000    305.16411            0    3298.8777    6558.1043    1047.9403 
  545100    305.74033            0    3292.7186    6558.0994    1051.0967 
  545200    298.73721            0    3367.5147    6558.1006    1108.2979 
  545300    307.72928            0    3271.4692    6558.0925    1049.7854 
  545400    304.17146            0    3309.4628    6558.0877     1081.985 
  545500    305.78703            0    3292.1986    6558.0782    1087.5334 
  545600    305.09354            0    3299.6154    6558.0884    1056.8149 
  545700    303.56792            0    3315.9156    6558.0946    1040.8194 
  545800    304.34023            0    3307.6696     6558.097    1023.6858 
  545900     303.0324            0    3321.6327    6558.0922    1041.8337 
  546000     308.2774            0     3265.607    6558.0844    1017.3943 
  546100    303.70486            0    3314.4455     6558.087    1092.5223 
  546200    302.27363            0    3329.7393     6558.095     1064.319 
  546300    303.30703            0    3318.6985    6558.0911    1085.2021 
  546400    306.58474            0    3283.6842    6558.0835     1066.287 
  546500     307.5845            0    3273.0244    6558.1013    1046.5664 
  546600    297.15036            0    3384.4637    6558.1015    1060.8361 
  546700    312.49641            0    3220.5364    6558.0738    1046.3065 
  546800    308.71391            0    3260.9583    6558.0977    1052.4716 
  546900    301.44498            0    3338.5654    6558.0708    1033.3233 
  547000    305.94452            0    3290.5276    6558.0893    1016.5919 
  547100     306.1039            0    3288.8273    6558.0912    1077.1241 
  547200     305.1708            0    3298.7812    6558.0793    1094.1672 
  547300    306.31871            0    3286.5181    6558.0762    1080.8789 
  547400    304.48383            0     3306.132    6558.0931    1097.6961 
  547500    305.62183            0    3293.9609    6558.0762    1066.8685 
  547600    306.30089            0    3286.7113     6558.079    1112.8498 
  547700    304.18508            0    3309.3313    6558.1017    1102.6488 
  547800    309.59625            0    3251.5122    6558.0752    1045.7621 
  547900    303.92322            0     3312.116    6558.0896    1080.9841 
  548000    302.91011            0    3322.9284    6558.0819    1046.4498 
  548100    308.61818            0     3261.974    6558.0909    1058.0642 
  548200    307.10892            0    3278.0832     6558.081    1082.0477 
  548300    304.15691            0    3309.6108    6558.0803    1073.1419 
  548400    310.89961            0    3237.6019    6558.0851    1085.7458 
  548500    301.69544            0    3335.9218    6558.1022     1096.588 
  548600    307.40919            0    3274.8742    6558.0789    1065.9496 
  548700    307.15038            0    3277.6421    6558.0827    1078.7159 
  548800    303.69242            0    3314.5909    6558.0995    1095.3784 
  548900    302.31685            0    3329.2593    6558.0766    1050.5927 
  549000    307.51683            0    3273.7371    6558.0914    1068.3834 
  549100    309.13849            0     3256.408    6558.0819     1089.282 
  549200    301.84107            0    3334.3429    6558.0787    1131.0938 
  549300    304.37703            0    3307.2655    6558.0859    1081.5184 
  549400     311.9529            0    3226.3465    6558.0791    1064.7788 
  549500    303.89463            0    3312.4251    6558.0935    1047.8072 
  549600    299.08271            0    3363.8127    6558.0885    1043.3056 
  549700     305.9649            0    3290.3143    6558.0936    1064.1388 
  549800    307.51751            0    3273.7262    6558.0878    1066.5564 
  549900     306.7398            0    3282.0296     6558.085    1092.6722 
  550000    305.10941            0    3299.4428    6558.0852    1066.7939 
  550100     305.8339            0    3291.6921    6558.0722    1036.1843 
  550200     300.8725            0    3344.6931    6558.0844    1065.2216 
  550300    305.00955            0    3300.5187    6558.0946     1100.747 
  550400    306.26992            0      3287.05     6558.087    1097.0315 
  550500    306.05526            0    3289.3438    6558.0881    1082.6857 
  550600    306.81672            0    3281.2008    6558.0778    1082.0939 
  550700    305.83445            0    3291.6911    6558.0771     1091.955 
  550800    306.15778            0    3288.2432    6558.0825    1070.3691 
  550900    300.56325            0    3347.9981    6558.0865     1091.096 
  551000    307.29372            0    3276.1125     6558.084    1049.3737 
  551100     301.0728            0    3342.5621    6558.0926    1054.8874 
  551200    308.97705            0    3258.1207    6558.0704    1053.7343 
  551300    306.42537            0    3285.3833    6558.0805      1057.46 
  551400    301.73643            0    3335.4653    6558.0836    1072.9788 
  551500    302.07959            0    3331.7923    6558.0755    1073.3162 
  551600    304.24794            0    3308.6486    6558.0903    1152.4854 
  551700     307.0737            0    3278.4579    6558.0794    1102.6077 
  551800    305.58306            0     3294.379    6558.0801    1063.1581 
  551900    302.18002            0    3330.7279    6558.0839    1028.6311 
  552000    308.81232            0    3259.8695      6558.06    1001.4059 
  552100    303.13303            0    3320.5484    6558.0826    1082.4107 
  552200    304.96471            0    3300.9812    6558.0783    1074.5194 
  552300    304.42743            0    3306.7144    6558.0731    1086.0939 
  552400    311.48581            0    3231.3214    6558.0654    1074.7433 
  552500    303.72793            0    3314.1904    6558.0783    1110.7645 
  552600    307.14401            0    3277.6944    6558.0669     1086.182 
  552700    309.63607            0    3251.0792    6558.0675    1066.2916 
  552800    301.73786            0    3335.4449    6558.0784      1127.47 
  552900    308.02942            0    3268.2439    6558.0728    1084.6432 
  553000    303.42045            0    3317.4739    6558.0779    1031.2869 
  553100    309.62462            0    3251.1974    6558.0633    1028.2701 
  553200    304.87664            0    3301.9254    6558.0818    1075.6213 
  553300    302.59275            0    3326.3141     6558.078    1035.8275 
  553400    305.19179            0    3298.5466     6558.069    1040.4454 
  553500    308.98921            0    3257.9976    6558.0773    1080.4183 
  553600    303.39671            0    3317.7159    6558.0664    1102.0498 
  553700    304.30673            0    3308.0069    6558.0765    1087.2811 
  553800    306.37528            0     3285.911    6558.0733    1056.6239 
  553900    302.25363            0    3329.9466    6558.0886    1080.6629 
  554000    299.89158            0    3355.1748    6558.0896    1094.7805 
  554100    309.25492            0    3255.1577    6558.0752    1083.4067 
  554200    299.68551            0    3357.3682    6558.0821    1106.5035 
  554300    307.96256            0    3268.9607    6558.0754    1049.3329 
  554400    302.89763            0    3323.0633    6558.0834    1027.5088 
  554500    304.00573            0    3311.2271     6558.082    1087.0911 
  554600    307.60995            0     3272.729    6558.0778    1039.3374 
  554700    305.43759            0    3295.9464    6558.0939     1085.974 
  554800    302.69232            0    3325.2503    6558.0777    1096.7111 
  554900    303.80211            0    3313.4004    6558.0805    1067.0179 
  555000    299.70349            0    3357.1955    6558.1015    1051.9729 
  555100     308.4547            0    3263.7022    6558.0733    1039.8654 
  555200    306.59028            0    3283.6285     6558.087    1036.3113 
  555300    303.14824            0    3320.3979    6558.0946    1004.7667 
  555400    305.76287            0    3292.4495    6558.0711    1036.2126 
  555500    306.10204            0    3288.8387    6558.0828    1053.2528 
  555600    302.83839            0    3323.6983    6558.0857    1020.0766 
  555700    304.88944            0    3301.8054    6558.0985     1059.524 
  555800    309.14687            0    3256.3168    6558.0803    1080.0923 
  555900    299.70359            0    3357.1808    6558.0878    1066.9349 
  556000     306.2505            0    3287.2354     6558.065    1048.0287 
  556100     310.3409            0    3243.5644    6558.0805     1108.102 
  556200    303.07707            0    3321.1529    6558.0895    1051.2951 
  556300    301.70945            0    3335.7639     6558.094    1070.1802 
  556400    310.85186            0    3238.1045    6558.0777    1093.6156 
  556500    296.07909            0    3395.9046     6558.101    1099.8508 
  556600    309.06816            0    3257.1575    6558.0804    1060.8485 
  556700    306.86129            0    3280.7392    6558.0922    1087.4972 
  556800    303.96455            0    3311.6832    6558.0983    1076.5841 
  556900    304.04848            0    3310.7678    6558.0793    1090.0822 
  557000     302.5407            0    3326.8914    6558.0994    1123.3805 
  557100    302.94546            0    3322.5623    6558.0933    1059.9742 
  557200    307.05553            0    3278.6483    6558.0758     1051.341 
  557300     304.6741            0    3304.0982    6558.0915    1085.7506 
  557400    298.19605            0    3373.2917    6558.0978      1055.27 
  557500    308.94611            0    3258.4547     6558.074    1037.7033 
  557600    304.47614            0    3306.2064    6558.0854    1059.9872 
  557700    306.38792            0    3285.7818    6558.0791    1038.0032 
  557800     302.9482            0    3322.5359    6558.0962      1067.18 
  557900    303.29278            0    3318.8444    6558.0848    1059.0485 
  558000    302.06131            0     3331.997     6558.085    1056.2404 
  558100    307.73892            0    3271.3516    6558.0778    1100.7587 
  558200    303.83814            0    3313.0165    6558.0815    1091.6205 
  558300    303.39701            0    3317.7349    6558.0885    1057.1876 
  558400    305.98219            0    3290.1183    6558.0822    1097.3623 
  558500    304.70311            0    3303.7815    6558.0846    1101.7411 
  558600    307.06251            0     3278.588      6558.09    1087.4607 
  558700    307.93407            0    3269.2605     6558.071    1056.0442 
  558800    305.41707            0    3296.1542    6558.0826    1066.4406 
  558900    304.79191            0    3302.8332    6558.0847    1017.0215 
  559000    303.96352            0    3311.6883    6558.0924     1048.066 
  559100    307.20754            0    3277.0261    6558.0771    1056.3528 
  559200    302.43026            0    3328.0538    6558.0822    1084.2361 
  559300    304.19536            0    3309.2062    6558.0863    1084.0263 
  559400    305.31865            0     3297.202    6558.0792    1080.1716 
  559500    307.80438            0     3270.643    6558.0684    1069.0636 
  559600    307.54834            0    3273.3836    6558.0744    1035.2632 
  559700    301.83055            0    3334.4636     6558.087    1059.9182 
  559800    306.78518            0    3281.5398      6558.08    1061.4253 
  559900    308.47236            0    3263.5161    6558.0757    1047.6717 
  560000    299.09968            0    3363.6346    6558.0917    1093.4258 
  560100    305.46265            0     3295.673    6558.0881    1077.3259 
  560200    309.07314            0    3257.1025    6558.0785    1020.1951 
  560300    300.24547            0    3351.4016     6558.096    1081.7928 
  560400    304.30667            0    3308.0232    6558.0922    1051.3816 
  560500    307.71275            0    3271.6145    6558.0613    1000.2091 
  560600    303.91503            0    3312.1819    6558.0681    1057.6263 
  560700    304.03898            0    3310.8739    6558.0839    1101.0625 
  560800    305.21371            0    3298.3278    6558.0842    1063.8383 
  560900    306.55553            0    3283.9798    6558.0671     1041.628 
  561000    302.44995            0    3327.8487    6558.0875    1068.7149 
  561100    305.15301            0    3298.9868    6558.0949    1014.4334 
  561200    302.68302            0    3325.3485    6558.0765    1023.5673 
  561300     302.7021            0    3325.1505    6558.0823    1100.2627 
  561400     306.3873            0    3285.7904    6558.0811     1051.692 
  561500    303.55355            0    3316.0688    6558.0943    1060.6242 
  561600    306.55822            0    3283.9525    6558.0686     1099.833 
  561700    301.89615            0     3333.756      6558.08    1075.8243 
  561800    305.01224            0    3300.4782    6558.0828    1021.7507 
  561900    303.51988            0    3316.4138    6558.0797    1087.8004 
  562000    304.64091            0    3304.4318    6558.0706    1065.0354 
  562100    305.91716            0    3290.8149    6558.0843    1043.6615 
  562200    306.51013            0    3284.4615     6558.064    1065.9772 
  562300    306.62593            0    3283.2432    6558.0825    1060.6602 
  562400    301.61393            0    3336.7553    6558.0652    1009.4982 
  562500    312.07119            0     3225.081    6558.0769    1054.1335 
  562600    302.83006            0    3323.7959    6558.0943     1141.335 
  562700    303.10615            0    3320.8364    6558.0835    1059.2758 
  562800    303.78753            0    3313.5628    6558.0873     1047.238 
  562900    299.86128            0    3355.5074    6558.0985    1125.7304 
  563000    306.40815            0    3285.5619    6558.0752    1067.9821 
  563100    303.45831            0    3317.0749    6558.0832    1039.1486 
  563200    311.04681            0    3236.0037     6558.059    1025.4026 
  563300    305.81217            0    3291.9243    6558.0724    1039.7438 
  563400    310.13374            0    3245.7521    6558.0557     1023.525 
  563500    303.57732            0    3315.8024    6558.0817    1067.9832 
  563600    299.29093            0    3361.6009    6558.1006    1092.5206 
  563700    301.06625            0    3342.6169    6558.0774    1040.5892 
  563800    311.68223            0    3229.2245    6558.0663    1038.7019 
  563900     308.3239            0     3265.093     6558.067    1074.2319 
  564000    305.56701            0    3294.5423    6558.0721      1077.71 
  564100    305.87996            0    3291.2108    6558.0829    1060.9121 
  564200    303.50536            0    3316.5536    6558.0644    1050.6606 
  564300    303.48371            0    3316.8166    6558.0962     1121.695 
  564400      307.276            0    3276.2812    6558.0633    1047.6753 
  564500     297.0771            0    3385.2281    6558.0835    1057.3315 
  564600    306.97805            0    3279.4829    6558.0829     1086.218 
  564700    306.43529            0    3285.2842    6558.0874    1139.4969 
  564800    304.83866            0    3302.3397    6558.0905    1088.5131 
  564900    301.03611            0    3342.9495    6558.0881    1077.1133 
  565000    306.78815            0    3281.5033    6558.0751    1035.4505 
  565100    304.64618            0    3304.3708    6558.0659    1038.8829 
  565200    302.99703            0    3322.0078    6558.0895    1141.3263 
  565300    306.02126            0    3289.6738    6558.0551    1093.9257 
  565400    303.93274            0    3312.0178    6558.0931    1057.3155 
  565500    300.14778            0    3352.4423    6558.0933    1050.7497 
  565600    308.77609            0    3260.2723    6558.0758    1065.3477 
  565700    304.72934            0     3303.504    6558.0872     1050.078 
  565800    303.29464            0    3318.8278    6558.0881    1049.1503 
  565900    305.08311            0    3299.7199    6558.0815    1074.7604 
  566000    307.31445            0    3275.8896    6558.0824     1068.008 
  566100    303.72917            0     3314.179    6558.0801    1023.1801 
  566200    304.61016            0     3304.777    6558.0873    1012.7601 
  566300    300.03768            0    3353.6173    6558.0925    1024.9864 
  566400    305.63254            0    3293.8673    6558.0969    1044.7412 
  566500    307.50673            0    3273.8121    6558.0585    1041.0473 
  566600    307.54196            0    3273.4647    6558.0874    1043.2013 
  566700    308.00493            0    3268.5116     6558.079    1058.7073 
  566800    304.14893            0    3309.6969    6558.0812    1065.7288 
  566900    305.75914            0    3292.4861    6558.0678    1072.5886 
  567000    302.92813            0    3322.7444    6558.0902    1091.5082 
  567100    308.56622            0    3262.5015    6558.0635     1030.142 
  567200    303.02753            0    3321.6771    6558.0846    1084.4536 
  567300    307.19582            0    3277.1573    6558.0831    1077.0494 
  567400    307.17227            0    3277.4037    6558.0781    1046.9614 
  567500    304.52552            0     3305.667    6558.0734    1049.3635 
  567600    302.82307            0    3323.8676    6558.0914    1071.8516 
  567700    308.38524            0    3264.4453    6558.0744     1066.443 
  567800    304.86557            0    3302.0445    6558.0826    1080.3012 
  567900    304.62358            0    3304.6246    6558.0783    1059.6361 
  568000    304.52454            0    3305.6835    6558.0795    1054.5512 
  568100    305.96214            0    3290.3303    6558.0801    1040.0035 
  568200    305.87128            0    3291.3032    6558.0826     1040.093 
  568300    303.96035            0    3311.7227     6558.093    1098.8156 
  568400    303.61225            0    3315.4434    6558.0959    1074.5658 
  568500    304.13466            0    3309.8435    6558.0754    1058.8397 
  568600     313.1397            0    3213.6568    6558.0647    1049.4461 
  568700    299.56463            0    3358.6717    6558.0945    1116.2181 
  568800    304.44115            0    3306.5695    6558.0747    1089.9001 
  568900    307.34494            0    3275.5744    6558.0929    1115.3062 
  569000    306.70747            0    3282.3704    6558.0806    1086.4567 
  569100    303.33437            0    3318.3868    6558.0713    1091.8821 
  569200    305.11068            0    3299.4237    6558.0798    1057.6753 
  569300    300.46018            0    3349.1193    6558.1068    1091.5977 
  569400    302.12688            0    3331.2944    6558.0828    1060.3938 
  569500    307.60692            0    3272.7579    6558.0744     1045.505 
  569600    299.79006            0    3356.2689    6558.0994    1060.7799 
  569700    309.10364            0     3256.777    6558.0788     1037.962 
  569800    306.37368            0    3285.9429     6558.088    1063.8773 
  569900    301.26734            0    3340.4733    6558.0815    1076.7186 
  570000    309.08255            0    3257.0182    6558.0947    1036.9973 
  570100    302.35963            0    3328.8116    6558.0857    983.88982 
  570200    301.65647            0    3336.3183    6558.0825    1023.4032 
  570300    309.46509            0    3252.9208     6558.083    1065.4756 
  570400    306.95855            0    3279.6822    6558.0739    1065.8556 
  570500    303.61993            0    3315.3539    6558.0883    1066.4303 
  570600    300.71569            0    3346.3813    6558.0977    1071.2855 
  570700      307.502            0    3273.8784    6558.0743    1057.9511 
  570800    304.75246            0    3303.2588     6558.089     1077.467 
  570900    300.45774            0    3349.1273    6558.0888    1080.3887 
  571000    305.06597            0    3299.9225     6558.101    1070.1471 
  571100     299.6571            0    3357.6789    6558.0893    1091.0936 
  571200    313.07054            0    3214.3902    6558.0595    1071.5198 
  571300    298.55309            0    3369.4828    6558.1021    1102.1378 
  571400    305.93955            0    3290.5794    6558.0879    1053.5173 
  571500    307.36891            0    3275.2965     6558.071    1064.1965 
  571600    304.88304            0    3301.8666    6558.0914    1053.4866 
  571700    298.83143            0    3366.5067    6558.0989    1082.8808 
  571800    313.81087            0    3206.4994    6558.0755    1044.9437 
  571900    306.30954            0     3286.627    6558.0872    1044.4785 
  572000    302.62153            0    3326.0054    6558.0767    1061.9051 
  572100      303.762            0    3313.8464    6558.0982     1048.893 
  572200    303.31825            0    3318.5798    6558.0922    1041.8226 
  572300    301.67395            0    3336.1537    6558.1046    1095.1436 
  572400    304.13218            0    3309.8806     6558.086    1071.1038 
  572500    310.01302            0    3247.0474    6558.0616     1023.332 
  572600    299.80526            0    3356.1137    6558.1065    1057.3328 
  572700    302.93326            0    3322.6824     6558.083    1054.6658 
  572800    309.53577            0    3252.1653    6558.0823    1032.5461 
  572900    303.60522            0    3315.5032    6558.0805    1032.6794 
  573000    300.61641            0    3347.4405    6558.0966    1047.7181 
  573100    307.37482            0    3275.2352    6558.0728    1035.1993 
  573200    309.91834            0    3248.0834    6558.0865    1063.2824 
  573300    307.26054            0    3276.4576    6558.0747    1038.0913 
  573400    301.17627            0    3341.4524    6558.0879    1045.1721 
  573500    303.86172            0    3312.7691    6558.0859    1015.9208 
  573600     303.9635            0    3311.7052    6558.1091    1093.0754 
  573700    304.99595            0    3300.6569    6558.0876    1082.8259 
  573800    304.98405            0    3300.7874     6558.091    1088.2334 
  573900     308.1146            0    3267.3491    6558.0878    1107.1894 
  574000    301.15908            0    3341.6464    6558.0985    1046.9666 
  574100    305.77536            0    3292.3144    6558.0695    1007.5559 
  574200    302.67784            0    3325.4286    6558.1012    1087.4772 
  574300    308.59582            0    3262.2199    6558.0981    1021.0408 
  574400    308.44585            0     3263.801    6558.0774    1011.6865 
  574500    303.78432            0    3313.5964    6558.0866    1045.0929 
  574600    301.54344            0    3337.5375    6558.0945    1035.5957 
  574700    305.73653            0    3292.7443    6558.0846    1050.6389 
  574800    306.99782            0    3279.2691    6558.0802    1073.6777 
  574900    303.96499            0    3311.6758    6558.0955    1078.5941 
  575000    306.01842            0    3289.7306    6558.0815    1038.4701 
  575100    307.18461            0     3277.278     6558.084    1095.5713 
  575200    304.12534            0    3309.9564    6558.0888      1055.94 
  575300    299.43251            0    3360.0869    6558.0987    1064.3837 
  575400    304.72418            0    3303.5624    6558.0906    1072.0593 
  575500    304.16889            0    3309.4853    6558.0828    1046.8204 
  575600    300.14401            0    3352.4846    6558.0954    1067.6885 
  575700    312.20259            0    3223.6788    6558.0782    1027.9681 
  575800    298.92951            0    3365.4519    6558.0915    1040.2163 
  575900    305.24157            0    3298.0396    6558.0935    1069.2363 
  576000    305.93438            0    3290.6117    6558.0651    1050.0399 
  576100    305.97749            0    3290.1748    6558.0886     1067.808 
  576200    304.53829            0    3305.5369    6558.0797    1078.1937 
  576300    301.91349            0    3333.5913    6558.1005    1125.7562 
  576400     311.3948            0     3232.299     6558.071    1030.2299 
  576500    303.66541            0     3314.866    6558.0862    1071.7495 
  576600    303.38221            0    3317.9001    6558.0957    1090.6656 
  576700    302.83083            0    3323.7854    6558.0921    1090.6966 
  576800    304.67465            0    3304.0853    6558.0845    1077.6599 
  576900    307.18007            0    3277.3334     6558.091    1081.3146 
  577000    298.46671            0    3370.3979    6558.0947    1038.5159 
  577100    303.85504            0    3312.8478    6558.0933    1035.7453 
  577200    302.16386            0    3330.9122    6558.0955    1104.0682 
  577300    309.24311            0    3255.2711    6558.0625    1035.5954 
  577400    304.22873            0     3308.851    6558.0876    1091.6609 
  577500    304.20182            0    3309.1487    6558.0979    1101.4384 
  577600    303.11947            0    3320.6878    6558.0772    1074.3948 
  577700    306.64562            0    3283.0428    6558.0924    1090.5164 
  577800    308.87887            0    3259.1755    6558.0768    1063.5089 
  577900    298.66872            0    3368.2266    6558.0809    1041.8467 
  578000     311.7769            0    3228.2284    6558.0813    1025.4846 
  578100    305.89582            0    3291.0304     6558.072    1037.7634 
  578200    306.91927            0    3280.1266    6558.0988    1070.9349 
  578300    297.13892            0    3384.5773     6558.093    1049.6314 
  578400    301.18625            0    3341.3427    6558.0849    1076.2606 
  578500    305.83787            0    3291.6503    6558.0729    1090.1131 
  578600     307.9259            0    3269.3573    6558.0806    1082.7956 
  578700    309.57049            0    3251.7741    6558.0619    1058.5287 
  578800     302.2106            0    3330.3998    6558.0823    1067.2064 
  578900    304.34305            0    3307.6278    6558.0853    1058.1947 
  579000     306.7419            0    3281.9914    6558.0692      1022.53 
  579100    305.71504            0    3292.9602    6558.0709    1059.1122 
  579200     307.8754            0    3269.8943    6558.0782      1080.34 
  579300    304.26034            0    3308.5162    6558.0903    1030.1061 
  579400    304.84857            0    3302.2261    6558.0827    1061.5159 
  579500     301.6175            0    3336.7396    6558.0877    1048.0447 
  579600    303.98987            0     3311.388    6558.0735    1066.4043 
  579700    308.55064            0    3262.6982    6558.0939    1094.3128 
  579800    300.85085            0    3344.9395    6558.0995     1079.603 
  579900    302.71376            0    3325.0247    6558.0811    1043.3586 
  580000     310.0142            0     3247.046    6558.0728     1067.228 
  580100     307.7983            0    3270.7024    6558.0629    1083.2858 
  580200    302.25689            0    3329.9163    6558.0932    1123.7636 
  580300    302.87185            0    3323.3483    6558.0931    1067.3642 
  580400    302.61128            0    3326.1211    6558.0829    1051.6464 
  580500    306.55595            0    3283.9901     6558.082    1051.6566 
  580600    304.57254            0    3305.1544     6558.063    1036.4507 
  580700    307.92933            0    3269.3224    6558.0822    1044.4668 
  580800    306.91983            0    3280.0927    6558.0709    1045.6371 
  580900    303.95987            0    3311.7144    6558.0795    1025.1145 
  581000    305.71755            0    3292.9387    6558.0763    1032.8291 
  581100    305.20007            0    3298.4753     6558.086    1108.4956 
  581200     305.1517            0    3298.9813    6558.0754    1035.5775 
  581300    299.40498            0    3360.3836    6558.1014    1052.2024 
  581400     304.5786            0    3305.1178     6558.091    1036.2086 
  581500    303.87076            0    3312.6662    6558.0796    1002.0002 
  581600     301.5816            0    3337.1342    6558.0988    1036.5276 
  581700    308.76386            0    3260.4175    6558.0904    1042.3219 
  581800    303.25698            0    3319.2435    6558.1015    1032.6803 
  581900    302.16872            0    3330.8564    6558.0916    1054.0875 
  582000    310.69843            0    3239.7499    6558.0844    1054.7135 
  582100    306.94993            0    3279.7772    6558.0768    1044.0175 
  582200    303.00103            0    3321.9544    6558.0788    1043.2121 
  582300    306.38051            0    3285.8861    6558.1042    1021.9782 
  582400    304.87495            0    3301.9381    6558.0765    1031.7358 
  582500    307.89106            0    3269.7446    6558.0958    1036.9566 
  582600    302.11748            0    3331.4041    6558.0921    1052.1341 
  582700     308.7329            0      3260.74    6558.0822    1015.5146 
  582800    296.27625            0    3393.8014    6558.1036    1031.0789 
  582900    309.73069            0    3250.0729    6558.0718    1022.4738 
  583000    303.07413            0    3321.1779    6558.0831    1084.9914 
  583100    304.69413            0     3303.869    6558.0762    1031.5514 
  583200    308.09129            0    3267.5801    6558.0698    1031.2425 
  583300    307.89979            0    3269.6533    6558.0976     1065.546 
  583400    303.82457            0    3313.1701    6558.0902     1022.319 
  583500    305.29787            0    3297.4206    6558.0759    1012.1296 
  583600    306.27208            0    3287.0292    6558.0893    1015.1912 
  583700    303.97825            0    3311.5307     6558.092    1054.8638 
  583800    306.87101            0     3280.627    6558.0837      1070.05 
  583900    302.45558            0    3327.7998    6558.0987    1043.2253 
  584000    302.82838            0    3323.8102    6558.0907    1046.0109 
  584100    309.23131            0    3255.4144    6558.0797    1031.8345 
  584200    301.81136            0    3334.6739    6558.0924    1040.5707 
  584300     307.1114            0    3278.0601    6558.0843    1053.6948 
  584400    306.02165            0     3289.687    6558.0724    1004.9901 
  584500    306.69675            0    3282.4853     6558.081    1034.1032 
  584600    304.33296            0    3307.7474    6558.0972    1107.4451 
  584700    305.88612            0    3291.1433    6558.0812    1030.8237 
  584800    303.02309            0    3321.7232    6558.0832    1017.4924 
  584900    300.11522            0    3352.7975    6558.1008    1037.4508 
  585000    308.28731            0      3265.49    6558.0732     991.7799 
  585100    305.76003            0    3292.4906    6558.0818    1020.0125 
  585200    305.90232            0     3290.973     6558.084    1102.0011 
  585300    306.14376            0    3288.3878    6558.0773    1067.2614 
  585400    304.06493            0    3310.6022    6558.0894    1063.9314 
  585500    304.98776            0    3300.7483    6558.0915    1090.7473 
  585600     302.7059            0    3325.1091    6558.0814    1119.8058 
  585700    307.88851            0    3269.7614    6558.0853    1069.9371 
  585800    306.77707            0    3281.6132    6558.0667    1083.3983 
  585900    303.95797            0    3311.7375    6558.0823    1086.5755 
  586000    306.12205            0    3288.6152    6558.0729    1048.1129 
  586100    300.65661            0    3347.0147    6558.1002    1067.8172 
  586200    309.31272            0     3254.539    6558.0738    1066.7907 
  586300    303.48855            0    3316.7651    6558.0964    1071.3526 
  586400    300.50569            0    3348.6252    6558.0989    1025.1865 
  586500    300.39539            0    3349.7907    6558.0863    1063.3654 
  586600    309.19707            0    3255.7664     6558.066    1013.2507 
  586700    302.23072            0    3330.2035    6558.1009    1028.1601 
  586800    306.28485            0    3286.8871    6558.0836    1063.5793 
  586900    306.96747            0    3279.5923    6558.0793    1052.4006 
  587000    299.96303            0    3354.4115    6558.0893    1055.5828 
  587100    310.85322            0    3238.0721    6558.0598    1095.5725 
  587200    304.74879            0    3303.2859    6558.0769    1115.6958 
  587300    306.54815            0    3284.0663    6558.0748    1083.7068 
  587400    304.99893            0    3300.6227    6558.0852    1083.5709 
  587500     303.6844            0    3314.6668    6558.0898    1041.7098 
  587600    305.45505            0    3295.7408    6558.0747    1015.7566 
  587700    301.68592            0    3336.0029    6558.0816    1086.1108 
  587800    309.05877            0    3257.2522    6558.0747    1101.8952 
  587900    304.06999            0    3310.5405    6558.0817    1116.0924 
  588000     304.3144            0      3307.93    6558.0816    1112.8163 
  588100    305.74656            0    3292.6313    6558.0786    1097.9965 
  588200     304.2287            0    3308.8437      6558.08    1067.6293 
  588300    310.59473            0    3240.8395    6558.0665    1066.7783 
  588400    306.25229            0    3287.2222    6558.0709    1115.8198 
  588500    301.74062            0    3335.4216    6558.0845    1058.3955 
  588600    300.41679            0    3349.5661    6558.0903     1068.273 
  588700    303.49211            0      3316.71    6558.0793    1120.7699 
  588800    305.31107            0    3297.2786    6558.0748    1074.6498 
  588900    303.00506            0    3321.9228    6558.0903    1052.5023 
  589000    305.43234            0    3295.9979    6558.0894    1120.5641 
  589100    303.33255            0    3318.4193    6558.0845    1110.1431 
  589200    304.29767            0    3308.1051     6558.078     1065.649 
  589300    305.83128            0    3291.7292    6558.0814    1130.5589 
  589400    307.28427            0    3276.2147    6558.0852    1108.0052 
  589500    298.97957            0    3364.9199    6558.0941    1073.7127 
  589600    306.16449            0     3288.175    6558.0859    1083.9127 
  589700    306.75976            0    3281.8001    6558.0687    1096.1121 
  589800    301.62062            0    3336.7121    6558.0934    1060.6474 
  589900    309.20001            0    3255.7492    6558.0803     1042.789 
  590000    302.18683            0    3330.6644    6558.0931    1092.4053 
  590100    310.98318            0    3236.7101    6558.0858    1046.9696 
  590200    305.06511            0    3299.9104    6558.0797    1057.5676 
  590300    304.69509            0    3303.8519    6558.0693    1063.2361 
  590400    306.11268            0    3288.7284     6558.086     1058.012 
  590500    300.36653            0    3350.1111    6558.0985    1061.2455 
  590600    304.41917            0    3306.8167    6558.0872    1144.4611 
  590700    304.51333            0    3305.8046    6558.0809    1132.1378 
  590800    308.08445            0    3267.6602    6558.0767    1055.7058 
  590900    303.28275            0    3318.9416    6558.0749    1088.9972 
  591000    301.99474            0    3332.7135    6558.0906    1137.5896 
  591100    311.36902            0    3232.5763    6558.0729    1103.5403 
  591200     303.5326            0    3316.2848    6558.0865    1104.6568 
  591300    304.63753            0    3304.4938    6558.0965    1092.8342 
  591400    308.07938            0    3267.7126    6558.0751    1070.2344 
  591500    297.87573            0    3376.7157    6558.1007    1089.8327 
  591600    306.18155            0    3287.9887    6558.0819    1063.8339 
  591700    303.90832            0    3312.2808    6558.0954    1129.0117 
  591800    304.99991            0    3300.6185    6558.0916    1104.2577 
  591900    309.94415            0    3247.7864     6558.065    1062.9512 
  592000    300.59806            0    3347.6321    6558.0922    1091.9127 
  592100     300.3089            0    3350.7223    6558.0942    1035.5694 
  592200    305.38573            0    3296.4999    6558.0935    1044.9735 
  592300    307.70956            0     3271.658    6558.0707    1074.7591 
  592400    303.79843            0    3313.4709    6558.1118    1079.8391 
  592500    306.68459            0    3282.5991    6558.0649    986.69829 
  592600    299.55323            0    3358.7987    6558.0998    1048.3632 
  592700    305.49503            0    3295.3313    6558.0923    1064.7869 
  592800    305.16224            0    3298.8816    6558.0882    1042.8936 
  592900     303.9854            0    3311.4511    6558.0888    1094.5103 
  593000     311.6079            0    3230.0207    6558.0685     1113.344 
  593100    298.45025            0    3370.5756    6558.0966    1157.4572 
  593200    304.82415            0    3302.4956    6558.0914     1115.788 
  593300    305.61932            0    3293.9843    6558.0727    1108.9349 
  593400    307.30138            0    3276.0436    6558.0969    1081.9976 
  593500    301.65801            0     3336.308    6558.0887     1095.998 
  593600    306.74085            0    3282.0161    6558.0828    1083.2688 
  593700    310.51896            0    3241.6539    6558.0717    1096.5506 
  593800    307.11902            0    3277.9726    6558.0781    1044.8265 
  593900    301.35612            0    3339.5306     6558.087    1028.6048 
  594000    304.32316            0    3307.8334    6558.0785    1051.6466 
  594100    307.48021            0    3274.1163    6558.0795    1075.1529 
  594200    306.54266            0    3284.1306    6558.0805    1051.6323 
  594300    303.12503            0    3320.6456    6558.0945    1099.4372 
  594400    305.20617            0    3298.4122    6558.0881    1076.4764 
  594500    304.40346            0    3306.9837    6558.0864    1041.4167 
  594600    305.18758            0    3298.6047     6558.082    1026.7012 
  594700    304.67335            0    3304.0986    6558.0838    1056.0468 
  594800    303.83973            0    3312.9994    6558.0814    1027.5648 
  594900     302.8413            0    3323.6608    6558.0794    1003.5568 
  595000     305.4684            0     3295.615    6558.0915    1065.4189 
  595100    307.08938            0    3278.2988    6558.0879    1065.1141 
  595200    302.08878            0    3331.7087    6558.0902      1039.23 
  595300    307.11402            0    3278.0296    6558.0818     1053.589 
  595400    304.08051            0    3310.4273    6558.0809    1064.2016 
  595500     303.2935            0    3318.8378    6558.0859    1081.7136 
  595600     305.5498            0    3294.7383    6558.0842    1105.4242 
  595700    305.93129            0    3290.6501    6558.0704    1064.4275 
  595800    304.83366            0    3302.3822    6558.0797    1046.9146 
  595900     308.9164            0    3258.7749     6558.077    1091.3106 
  596000    303.75912            0     3313.852    6558.0731    1068.6227 
  596100    305.32272            0    3297.1664    6558.0871    1075.4945 
  596200     306.0243            0    3289.6496    6558.0633    1057.5665 
  596300    303.94135            0    3311.9339    6558.1011    1110.9259 
  596400    303.65164            0    3315.0118     6558.085    1049.0597 
  596500     310.4723            0    3242.1632    6558.0826    1047.9346 
  596600     302.0814            0    3331.7811    6558.0837    1071.0438 
  596700    304.20518            0    3309.1059     6558.091     1088.428 
  596800    306.08981            0    3288.9692    6558.0825    1081.0135 
  596900    301.16691            0    3341.5517    6558.0874    1048.4941 
  597000    307.67537            0    3272.0331    6558.0806    1021.3577 
  597100     304.8276            0    3302.4474    6558.0801    1079.0178 
  597200    305.88848            0    3291.1195    6558.0826    1100.0606 
  597300    307.01495            0    3279.0767    6558.0707    1103.2782 
  597400     307.7139            0    3271.6122    6558.0712     1087.039 
  597500    304.36787            0      3307.37    6558.0927    1096.3731 
  597600    307.60233            0    3272.8116     6558.079    1032.7181 
  597700    300.21634            0    3351.7007     6558.084    1029.6613 
  597800    310.58611            0    3240.9414    6558.0764    1052.1233 
  597900    304.04468            0    3310.8115    6558.0824    1080.2107 
  598000    297.55099            0    3380.1929    6558.1097    1069.7097 
  598100    308.07272            0     3267.777    6558.0684    1048.3853 
  598200    305.97825            0    3290.1704    6558.0923     1050.224 
  598300    303.30123            0    3318.7485    6558.0792    1018.2745 
  598400    303.81073            0    3313.3128     6558.085    1057.1268 
  598500    308.21408            0    3266.2835    6558.0847    1087.2331 
  598600    303.32801            0    3318.4746    6558.0913    1089.9518 
  598700    301.92351            0    3333.4756    6558.0919    1078.8491 
  598800    310.41562            0     3242.754    6558.0681    1056.3438 
  598900    302.08742            0    3331.7254    6558.0922    1065.8493 
  599000    304.41003            0    3306.9129    6558.0858    1060.9872 
  599100    312.88938            0    3216.3291    6558.0636    1060.0256 
  599200    301.88562            0    3333.8706    6558.0822    1077.4889 
  599300    308.87726            0    3259.2058    6558.0898    1085.7148 
  599400    304.86996            0    3302.0065    6558.0916    1094.4861 
  599500    304.70221            0    3303.8045    6558.0979    1036.7687 
  599600    302.17274            0    3330.8144    6558.0924     1054.889 
  599700     304.2315            0     3308.825    6558.0911    1092.5909 
  599800    306.80393            0    3281.3519    6558.0922    1062.1615 
  599900    303.12492            0    3320.6302    6558.0779     1061.011 
  600000    304.15449            0    3309.6504    6558.0941    1075.6843 
Loop time of 70.3212 on 8 procs for 300000 steps with 3584 atoms

Pair  time (%) = 0.509214 (0.724126)
Bond  time (%) = 40.6262 (57.7723)
Neigh time (%) = 3.52186 (5.00824)
Comm  time (%) = 19.8201 (28.1851)
Outpt time (%) = 0.277959 (0.395271)
Other time (%) = 5.56589 (7.91495)

Nlocal:    448 ave 465 max 423 min
Histogram: 1 0 0 1 1 2 0 0 0 3
Nghost:    1659 ave 1684 max 1642 min
Histogram: 3 0 0 0 2 1 1 0 0 1
Neighs:    8.25 ave 25 max 0 min
Histogram: 3 1 0 0 2 1 0 0 0 1

Total # of neighbors = 66
Ave neighs/atom = 0.0184152
Ave special neighs/atom = 157.056
Neighbor list builds = 2940
Dangerous builds = 0
# −−−−−−−−−−−−−− Flux calculation in nve −−−−−−−−−−−−−−−
reset_timestep  0
compute         PE all pe/atom
compute         KE all ke/atom

variable        CX atom (vx*(c_KE+c_PE))
compute         Jcx all reduce sum v_CX

variable        CZ atom (vz*(c_KE+c_PE))
compute         Jcz all reduce sum v_CZ

variable        CY atom (vy*(c_KE+c_PE))
compute         Jcy all reduce sum v_CY

compute         SA all stress/atom virial

variable        VX atom -(c_SA[1]*vx+c_SA[4]*vy+c_SA[5]*vz)*1.4593e-5
compute         Jvx all reduce sum v_VX

variable        VZ atom -(c_SA[3]*vz+c_SA[6]*vy+c_SA[5]*vx)*1.4593e-5
compute         Jvz all reduce sum v_VZ

variable        VY atom -(c_SA[2]*vy+c_SA[6]*vz+c_SA[4]*vx)*1.4593e-5
compute         Jvy all reduce sum v_VY

variable        Jx equal (c_Jcx+c_Jvx)/vol
variable        Jz equal (c_Jcz+c_Jvz)/vol
variable        Jy equal (c_Jcy+c_Jvy)/vol

fix             JJTx all ave/correlate $s $p $d                 v_Jx type auto file J0Jt_tx.dat ave running
fix             JJTx all ave/correlate 5 $p $d                 v_Jx type auto file J0Jt_tx.dat ave running
fix             JJTx all ave/correlate 5 20000 $d                 v_Jx type auto file J0Jt_tx.dat ave running
fix             JJTx all ave/correlate 5 20000 100000                 v_Jx type auto file J0Jt_tx.dat ave running

fix             JJTz all ave/correlate $s $p $d                 v_Jz type auto file J0Jt_tz.dat ave running
fix             JJTz all ave/correlate 5 $p $d                 v_Jz type auto file J0Jt_tz.dat ave running
fix             JJTz all ave/correlate 5 20000 $d                 v_Jz type auto file J0Jt_tz.dat ave running
fix             JJTz all ave/correlate 5 20000 100000                 v_Jz type auto file J0Jt_tz.dat ave running

fix             JJTy all ave/correlate $s $p $d                 v_Jy type auto file J0Jt_ty.dat ave running
fix             JJTy all ave/correlate 5 $p $d                 v_Jy type auto file J0Jt_ty.dat ave running
fix             JJTy all ave/correlate 5 20000 $d                 v_Jy type auto file J0Jt_ty.dat ave running
fix             JJTy all ave/correlate 5 20000 100000                 v_Jy type auto file J0Jt_ty.dat ave running

run             1000000
Memory usage per processor = 13.1984 Mbytes
Step Temp E_pair E_mol TotEng Press 
       0    304.15449            0    3309.6504    6558.0941    1075.6843 
     100    305.69588            0    3293.1715    6558.0776    1033.0351 
     200    304.74024            0    3303.3771    6558.0767    976.61099 
     300    309.32841            0    3254.3626     6558.065    1008.6277 
     400    305.87699            0    3291.2438    6558.0841    1087.5192 
     500    307.21652            0    3276.9263    6558.0732    1050.3563 
     600    304.10168            0    3310.1969    6558.0766    1001.9736 
     700    306.39794            0    3285.6697     6558.074    1008.7056 
     800    300.31251            0    3350.6892    6558.0995    1041.9575 
     900    304.04687            0    3310.7963    6558.0906     1026.309 
    1000     310.5213            0    3241.6261    6558.0688    1052.9671 
    1100    305.79791            0    3292.0902    6558.0861    1072.4954 
    1200    306.84965            0    3280.8326    6558.0613    1054.8329 
    1300    304.60691            0    3304.8177    6558.0933    1121.1075 
    1400    306.91645            0    3280.1412    6558.0833    1095.0548 
    1500    299.33976            0    3361.0687      6558.09    1118.3164 
    1600    303.64711            0    3315.0665    6558.0912    1148.7206 
    1700    309.46644            0    3252.9058    6558.0824    1105.3032 
    1800    302.95825            0    3322.4186    6558.0861    1077.9666 
    1900    304.57203            0    3305.1745    6558.0777    1088.0021 
    2000    304.73137            0    3303.4589    6558.0638    1021.7549 
    2100    307.33353            0    3275.6837    6558.0803    1064.9199 
    2200    309.06005            0    3257.2372    6558.0735    1090.3139 
    2300    304.89756            0    3301.7017    6558.0815    1037.7802 
    2400    305.29186            0    3297.4847    6558.0758    1032.2861 
    2500    303.55036            0    3316.1024    6558.0939    1054.1652 
    2600    313.51009            0    3209.7006    6558.0644    1052.7284 
    2700    303.30322            0    3318.7229    6558.0749    1104.7868 
    2800     308.3201            0     3265.139    6558.0724    1028.8119 
    2900    297.52808            0    3380.4229    6558.0949    1048.7245 
    3000    313.18368            0    3213.1812    6558.0588    1037.4182 
    3100    304.19418            0    3309.2216    6558.0891    1059.1457 
    3200    304.01021            0    3311.1733     6558.076    1049.9046 
    3300    303.88593            0    3312.5038    6558.0792    1065.6028 
    3400    302.46043            0    3327.7346    6558.0854    1047.9059 
    3500    303.66818            0    3314.8446    6558.0943    1093.7262 
    3600    305.64251            0    3293.7511    6558.0872    1107.1504 
    3700    306.08155            0    3289.0466    6558.0717    1050.9973 
    3800    301.45061            0    3338.5193    6558.0848    1085.1977 
    3900    307.99988            0    3268.5658    6558.0792     1080.449 
    4000    302.92467            0    3322.7727    6558.0816     1045.613 
    4100     305.5553            0     3294.684    6558.0887    1050.6749 
    4200    302.96062            0    3322.3955    6558.0883    1103.2193 
    4300    309.97312            0    3247.4784    6558.0665    1023.9968 
    4400    302.45651            0    3327.7714    6558.0803     1055.793 
    4500    305.38157            0    3296.5384    6558.0876    1108.8048 
    4600    303.26854            0    3319.0944    6558.0759    1082.6833 
    4700     311.6252            0    3229.8401    6558.0727     1069.764 
    4800     302.3952            0    3328.4365    6558.0905    1092.0146 
    4900    302.77651            0    3324.3623    6558.0888    1057.8099 
    5000    309.04699            0    3257.3769    6558.0737    1023.3383 
    5100    302.25111            0    3329.9753    6558.0904     1042.274 
    5200    303.34055            0    3318.3437    6558.0943    1040.2582 
    5300    306.06023            0    3289.2847    6558.0821    1042.0247 
    5400    303.20221            0    3319.8071    6558.0802    1061.0949 
    5500    311.27392            0    3233.5934    6558.0743     1044.366 
    5600    304.07789            0    3310.4611    6558.0867    1037.1163 
    5700    301.30066            0    3340.1204    6558.0845    1060.0371 
    5800    306.88047            0    3280.5369    6558.0947    1020.0607 
    5900    305.97054            0     3290.249    6558.0886     1021.053 
    6000    303.79484            0    3313.4859    6558.0885    1041.1366 
    6100    305.36161            0    3296.7613    6558.0973    1059.4943 
    6200     305.8617            0     3291.389    6558.0661    1061.9422 
    6300     307.4932            0    3273.9859    6558.0879    1015.0576 
    6400    302.86613            0    3323.3943     6558.078    1056.3779 
    6500    305.06077            0     3299.971    6558.0939    1065.0157 
    6600    304.52673            0    3305.6642    6558.0835    1006.7863 
    6700     304.1421            0    3309.7735    6558.0849    997.09876 
    6800    307.01119            0    3279.1265    6558.0804    1036.3985 
    6900    304.84991            0    3302.2131     6558.084    1089.9492 
    7000    307.67791            0    3272.0046    6558.0792    1075.5684 
    7100    306.21752            0    3287.5964    6558.0738    1068.4717 
    7200    305.90082            0     3290.994    6558.0889    1110.8235 
    7300    304.51114            0    3305.8169    6558.0698    1091.1834 
    7400    310.19482            0     3245.124    6558.0799    1070.6358 
    7500    300.92739            0    3344.1131    6558.0906    1075.4711 
    7600    308.31781            0    3265.1681     6558.077     1084.015 
    7700    302.78512            0    3324.2631    6558.0817    1123.0694 
    7800    310.73666            0    3239.3271    6558.0699     1046.617 
    7900     305.4532            0    3295.7603    6558.0744     1051.081 
    8000    307.88118            0    3269.8411    6558.0867    1048.8722 
    8100    305.66243            0    3293.5272     6558.076    1014.3399 
    8200    303.19004            0     3319.939    6558.0821    997.02905 
    8300    304.83846            0    3302.3304     6558.079    1077.2006 
    8400    307.86852            0    3269.9589    6558.0694    1041.6596 
    8500    307.14516            0    3277.6998    6558.0845    1032.5475 
    8600     301.1349            0    3341.9012    6558.0949    1103.2046 
    8700    302.74884            0    3324.6576    6558.0886    1084.9653 
    8800    303.45911            0    3317.0743    6558.0912    1083.9844 
    8900    311.68757            0    3229.1601    6558.0589    1017.7929 
    9000    303.56631            0    3315.9249    6558.0867    1035.7288 
    9100    303.68722            0    3314.6355    6558.0886    1006.8805 
    9200    307.41871            0     3274.787    6558.0934    1060.6263 
    9300     304.5152            0    3305.7878     6558.084    1058.3477 
    9400    301.38285            0    3339.2395    6558.0814     1043.891 
    9500    302.22196            0    3330.2769    6558.0807    1038.6178 
    9600    310.44381            0    3242.4732    6558.0883    1052.8137 
    9700    306.85618            0    3280.7941    6558.0925     1081.555 
    9800     298.7131            0    3367.7669    6558.0952    1100.2859 
    9900    307.91481            0    3269.4787    6558.0834    1046.8348 
   10000    299.99964            0    3354.0274    6558.0963     1077.105 
Loop time of 479.041 on 8 procs for 1000000 steps with 3584 atoms

Pair  time (%) = 5.63342 (1.17598)
Bond  time (%) = 150.512 (31.4194)
Neigh time (%) = 11.8019 (2.46366)
Comm  time (%) = 70.0092 (14.6144)
Outpt time (%) = 0.00287715 (0.000600605)
Other time (%) = 241.082 (50.326)

Nlocal:    448 ave 463 max 430 min
Histogram: 1 0 0 1 1 1 3 0 0 1
Nghost:    1659 ave 1677 max 1644 min
Histogram: 1 0 0 3 1 1 1 0 0 1
Neighs:    9.875 ave 25 max 0 min
Histogram: 3 1 0 0 1 0 0 2 0 1

Total # of neighbors = 79
Ave neighs/atom = 0.0220424
Ave special neighs/atom = 157.056
Neighbor list builds = 9801
Dangerous builds = 0
