LAMMPS (11 Jun 2012)
# Initialization
atom_style      full
units           real
variable        T equal 300
variable        dt equal 1.0
variable        seed equal 123459
variable        radius equal 0.5
variable        sizet equal 4
variable        sizeb equal -4
variable        p equal 20000    # correlation length
variable        s equal 5        # sample interval
variable        d equal $p*$s    # dump interval
variable        d equal 20000*$s    variable        d equal 20000*5    
# convert from LAMMPS real units to SI
variable        kB equal 1.3806504e-23    # [J/K] Boltzmann
variable        kCal2J equal 4186.0/6.02214e23
variable        A2m equal 1.0e-10
variable        fs2s equal 1.0e-15
variable        convert equal ${kCal2J}*${kCal2J}/${fs2s}/${A2m}
variable        convert equal 6.9510174124148567155e-21*${kCal2J}/${fs2s}/${A2m}
variable        convert equal 6.9510174124148567155e-21*6.9510174124148567155e-21/${fs2s}/${A2m}
variable        convert equal 6.9510174124148567155e-21*6.9510174124148567155e-21/1.0000000000000000777e-15/${A2m}
variable        convert equal 6.9510174124148567155e-21*6.9510174124148567155e-21/1.0000000000000000777e-15/1.0000000000000000364e-10
variable        b_eq equal 10.0/3.0

# setup problem
dimension       3
boundary        p p p
neighbor        2    bin
pair_style      lj/cut 10.0
bond_style      morse
read_data       lammps.data
  9 = max bonds/atom
  orthogonal box = (0 0 0) to (80 80 80)
  2 by 2 by 2 MPI processor grid
  7168 atoms
  33696 bonds
  10 = max # of 1-2 neighbors
  86 = max # of 1-3 neighbors
  824 = max # of 1-4 neighbors
  164 = max # of special neighbors
pair_coeff      1 1 0.000 3.500
pair_coeff      2 2 0.000 3.500
pair_coeff      1 2 0.105 3.500
bond_coeff      1 10 1.8 ${b_eq}
bond_coeff      1 10 1.8 3.3333333333333334814
bond_coeff      2 5 0.805 7.4536
bond_coeff      3 10 1.8 ${b_eq}
bond_coeff      3 10 1.8 3.3333333333333334814
bond_coeff      4 5 0.805 7.4536
velocity        all create $T ${seed} mom yes rot yes dist gaussian
velocity        all create 300 ${seed} mom yes rot yes dist gaussian
velocity        all create 300 123459 mom yes rot yes dist gaussian
timestep        ${dt}
timestep        1
thermo          100
dump            T1 all cfg 600000 *.cfg id type xs ys zs
dump            T2 all xyz 10000 traj.xyz
#dump_modify    1 element Cu
# −−−−−−−−−−−−− Equilibration and thermalisation −−−−−−−−−−−−−−−−
fix             NVT all nvt temp $T $T 10
fix             NVT all nvt temp 300 $T 10
fix             NVT all nvt temp 300 300 10
run             300000
Memory usage per processor = 11.5453 Mbytes
Step Temp E_pair E_mol TotEng Press 
       0          300   -906.89526 0.00012694983    5502.1446    343.62551 
     100    244.10908   -935.66696    6996.8263    11276.175    2152.6064 
     200    292.75216   -994.46762    9980.5252    15240.258    1145.0098 
     300    302.56527   -995.63755    8512.8843     13981.09    478.78493 
     400    299.66168   -974.31661    6621.5157    12049.011    846.60027 
     500    299.88406   -956.62524    5686.2963    11136.234    1178.0851 
     600    297.67876   -953.87265    5538.0515    10943.629    1186.7806 
     700    298.92395   -966.86607    6442.2601    11861.446    1210.7435 
     800    299.24269   -980.53989    7099.0489     12511.37    1144.9025 
     900    296.91551   -984.64391     6917.317    12275.817    981.47091 
    1000    302.48926   -985.23026    6746.2777    12223.266    1166.4675 
    1100    300.24355   -984.39488    6468.5903    11898.438    1223.8721 
    1200    298.89184     -984.332    6210.7889    11611.822    1132.5718 
    1300    300.51448    -990.6446    6211.5065    11640.893    1132.7975 
    1400    296.68972   -1001.2961    6549.9174    11886.942    1146.0854 
    1500    297.19014   -1008.4572    6985.3098    12325.864    1254.1671 
    1600    300.52264    -1011.315    6731.3843    12140.274    1280.2809 
    1700    296.95438   -1016.3276    6388.1057    11715.753     1215.658 
    1800    303.40379   -1020.0311    6493.0153    11954.741    1303.9159 
    1900    297.21411   -1027.5065    6444.2642    11766.281    1251.6712 
    2000    301.50029    -1037.498    6528.2627    11931.856    1275.6497 
    2100     297.0154   -1045.0465    6528.7677    11828.999     1372.072 
    2200    302.41405   -1051.7353    6273.0752    11681.952    1433.3922 
    2300    300.71821   -1068.3549    6330.3224    11686.351    1465.3488 
    2400    292.61381   -1080.4945    6403.5663    11574.317    1438.7534 
    2500    301.25789   -1094.1165    6468.5599    11810.356    1502.6815 
    2600     301.6646   -1108.9963    6298.7765    11634.382    1412.0063 
    2700    300.04278   -1125.5264    6385.5532     11669.98    1545.0175 
    2800    296.42936   -1142.7987    6358.5945    11548.554    1571.1474 
    2900    301.82406   -1156.6134    6084.0196    11375.414    1613.5745 
    3000    300.15406   -1164.0938    6006.8974    11255.135    1577.0421 
    3100     299.7489   -1151.3322    6349.7666     11602.11    1677.1112 
    3200    300.70132     -1157.45    6400.2325    11666.805    1645.4809 
    3300    296.06871   -1147.8004    6154.1571     11331.41    1582.8607 
    3400    300.66111     -1136.89    6299.7019    11585.975    1641.7044 
    3500    299.91112   -1149.0905    6380.2432    11638.294    1619.6823 
    3600    300.41537   -1161.0161    6443.9409    11700.838    1568.1532 
    3700     304.7792   -1164.0167    6444.0454    11791.169    1628.5071 
    3800    299.40653   -1175.1113    6212.0919    11433.342    1614.3339 
    3900    300.10575   -1167.2984    6294.8962    11538.897    1668.2835 
    4000    299.55437   -1162.5951    6320.0188    11556.943    1737.2111 
    4100    301.44792   -1166.3167    6226.6283    11500.284    1700.3762 
    4200    302.63721   -1152.7547    6321.3435    11633.968    1672.8225 
    4300    295.21957   -1148.3278     6316.295     11474.88    1649.2497 
    4400    302.22877   -1137.2803    6245.2722    11564.646    1624.3895 
    4500    293.63551   -1124.5014    6319.4954    11468.066    1629.5604 
    4600    306.05171   -1112.0043      6354.47    11780.791    1525.2863 
    4700    298.02944    -1098.489    6605.3684    11873.821    1590.1952 
    4800    302.05278   -1090.0475    6529.0244    11891.871    1557.6442 
    4900    300.17643   -1078.5211    6385.6855    11719.973    1613.2346 
    5000    294.52521   -1071.6607    6287.9294    11508.348    1616.7436 
    5100    302.70752   -1067.6252    6389.2569    11788.513    1549.9012 
    5200    298.43409   -1065.2979    6563.2535    11873.542    1571.4731 
    5300    303.68334   -1063.7632    6630.6137    12054.579    1644.3385 
    5400    297.39365   -1065.7069    6552.8643    11840.516    1616.7156 
    5500    299.35826   -1066.0365    6439.1334    11768.427    1526.8076 
    5600    297.27153   -1071.0364     6461.737    11741.451    1550.3966 
    5700    304.65836   -1072.4956    6483.4658    11919.529    1518.7525 
    5800    298.81418   -1078.4706    6484.6482    11789.884    1490.1167 
    5900    298.70623   -1087.4371    6400.1048    11694.068    1555.4541 
    6000    302.28411   -1095.0238     6417.154    11779.966    1630.0604 
    6100    297.61688   -1100.9253    6429.5681    11686.771    1538.9938 
    6200    300.01739   -1106.9406    6312.6165    11615.087    1618.4531 
    6300    300.64603   -1112.8785    6299.9709    11609.933    1657.2667 
    6400    302.08723   -1108.7071    6426.7033    11771.626    1694.0624 
    6500    300.57302   -1112.8038    6358.0999    11666.578    1704.6973 
    6600    299.63434   -1099.9632    6449.2543    11750.519    1835.2096 
    6700    306.02772   -1096.5879    6248.5989    11689.824    1771.6618 
    6800    299.17665   -1090.6765    6382.2965     11683.07    1767.7052 
    6900    302.55865   -1088.0135    6331.5941    11707.282     1836.638 
    7000    301.16514   -1089.7946     6222.675    11566.812    1826.3267 
    7100    296.36043   -1093.8007    6266.2333    11503.718    1835.9164 
    7200    300.50776   -1107.7173    6403.9727    11716.143     1833.681 
    7300    295.91567   -1105.3179    6483.0053    11699.472    1853.9773 
    7400    300.59723   -1113.2594    6316.8582    11625.397    1713.7089 
    7500    299.53349   -1117.5546    6181.2945    11462.813    1684.4554 
    7600    301.76168   -1112.4274    6360.9109    11695.159    1810.2394 
    7700    302.21774   -1103.6844    6475.0473    11827.781    1729.9434 
    7800    298.85911   -1101.7816     6418.077    11700.962    1672.8239 
    7900    297.17226   -1097.1135    6421.8214    11673.337    1830.4889 
    8000     301.6732   -1092.0978    6421.1875    11773.875    1741.3095 
    8100     299.1613   -1092.0548    6484.9767    11784.044    1639.5959 
    8200    299.77549   -1091.6471     6496.306    11808.902    1723.7531 
    8300    302.09134   -1093.3151    6445.6736    11806.076    1712.0911 
    8400    298.00149   -1094.3416    6380.5636    11652.567    1607.7814 
    8500      301.386   -1097.9777    6507.7298    11848.402    1698.1731 
    8600    294.76326   -1102.1444    6560.0084    11755.029    1612.1531 
    8700    299.32536   -1100.3079    6511.0373    11805.357    1525.4542 
    8800     299.6656   -1111.7088    6438.7665    11728.953    1542.5161 
    8900    300.03718   -1110.7165    6418.8546    11717.972    1669.8375 
    9000    297.65618   -1120.1203    6443.0326     11681.88     1706.243 
    9100    308.29464    -1124.708    6388.4632    11849.997    1751.9691 
    9200    304.61647   -1126.1207    6362.3357    11743.878    1790.4584 
    9300    298.53678    -1135.352    6437.0287    11679.457    1788.7415 
    9400    300.61327   -1142.4376    6282.9395    11562.643    1718.8773 
    9500    300.34107    -1139.614    6411.0543    11687.766    1820.2793 
    9600    297.60521    -1146.334    6324.7884    11536.333    1741.5455 
    9700    300.02178   -1129.0729    6339.1392    11619.571    1785.0475 
    9800    304.56698   -1120.4825    6343.5009    11729.625    1865.8725 
    9900    300.26882   -1144.0654    6317.7052    11588.422    1822.6311 
   10000    304.01858   -1145.5408    6400.6011    11749.951    1800.4356 
   10100    296.42618   -1158.6943    6426.3076    11600.304    1826.2798 
   10200     301.3191   -1152.4331    6506.9143    11791.702    1807.6345 
   10300     302.2078    -1161.097    6604.4534    11899.562    1858.2252 
   10400    298.77864   -1151.9244    6311.0983    11542.121    1893.9838 
   10500     300.7425    -1150.997    6199.3602    11473.265    1889.8019 
   10600    299.38094   -1151.6813    6346.7872     11590.92    1895.8018 
   10700    302.37359   -1143.7666    6439.0621    11755.043    1852.7689 
   10800      296.835   -1147.0827    6441.5275    11635.869    1844.4276 
   10900    302.70442   -1149.9196    6340.5911    11657.487    1773.0421 
   11000    299.68382   -1148.5564    6318.6739    11572.402    1825.1458 
   11100    305.51635   -1148.6201    6365.6912    11743.959    1840.6529 
   11200    306.13726   -1146.5674     6423.359    11816.944    1813.4978 
   11300    299.63538   -1151.4682    6358.3495    11608.131    1788.6738 
   11400    301.26022   -1151.3511    6384.9514    11669.563    1844.0017 
   11500    298.72265    -1143.325    6430.1476    11668.574    1750.0111 
   11600     301.8362   -1142.6852    6398.6007    11704.183    1780.4668 
   11700    300.56773   -1140.9644    6413.4306    11693.635    1816.4265 
   11800    296.10586   -1140.5746    6327.0416    11512.314    1698.1587 
   11900    300.64343    -1146.472    6410.5758    11686.889    1743.8553 
   12000    301.18366   -1153.6544    6366.1292    11646.802    1767.8614 
   12100    297.96943   -1160.4437    6371.7407    11576.957    1744.6273 
   12200    304.23717   -1156.0117    6396.4751    11740.024    1815.4522 
   12300    297.09802   -1159.6968    6307.4782    11494.825     1834.639 
   12400    301.27055   -1146.5827      6439.03     11728.63    1822.0929 
   12500    298.77141     -1143.99    6472.1601    11710.963    1825.9994 
   12600     300.7729   -1144.9722    6336.3557    11616.935    1870.5288 
   12700    301.96682   -1151.3104    6314.8534    11614.601    1884.8339 
   12800     296.2882   -1149.6989    6273.6709    11453.715     1887.521 
   12900    302.75826   -1150.3779    6264.0651    11581.653    1871.3554 
   13000    294.23972   -1152.0288    6410.3409    11544.292    1861.5221 
   13100    304.16886   -1151.8115    6398.2556    11744.545    1892.3018 
   13200    294.96597   -1151.5086    6322.5389    11472.526    1866.3414 
   13300    301.73362   -1150.5491    6316.0839     11611.61    1848.1272 
   13400     293.3439   -1154.1972    6459.4507    11572.096    1873.2515 
   13500    302.34563   -1146.6132    6345.0709    11657.608    1861.8277 
   13600    297.24307   -1151.8248     6313.923     11512.24    1771.3598 
   13700    304.81146    -1151.252    6423.1342    11783.711    1787.2706 
   13800    300.57804    -1150.934    6367.4668    11637.922    1825.1402 
   13900    295.06972   -1148.1496     6436.188     11591.75    1847.3301 
   14000    299.26855   -1150.0263    6454.3401    11697.727    1780.6057 
   14100    293.93941   -1147.2619    6497.8572     11630.16    1859.3305 
   14200    300.93883   -1147.5008     6394.421    11676.017    1797.1535 
   14300    301.32718   -1143.0697       6328.6    11622.923    1784.2412 
   14400    298.90676   -1147.5298    6534.7022    11772.857    1839.6795 
   14500    301.97596   -1146.0775     6388.802    11693.977    1760.4289 
   14600    303.87662   -1154.6842     6321.563    11658.737    1775.2981 
   14700    302.37727    -1148.076    6381.5337    11693.284    1836.5799 
   14800    295.46094    -1151.404    6450.8801    11611.546    1857.3559 
   14900    300.30501   -1151.8565    6429.2018    11692.901    1851.6882 
   15000    302.84993   -1156.8865    6337.9063    11650.944      1872.34 
   15100    292.49105   -1163.1795    6279.5929    11365.036    1860.5874 
   15200    303.50473   -1156.3061     6408.451    11736.058    1904.8109 
   15300    300.10193    -1151.736    6370.1889     11629.67    1797.1956 
   15400    299.72397   -1150.8712    6520.9053    11773.177    1801.5054 
   15500    299.52145   -1152.7102    6516.5789    11762.685    1915.7259 
   15600    298.03025   -1146.4502     6292.433    11512.942    1806.4584 
   15700    299.44122   -1144.9054    6411.6756    11663.872    1869.0892 
   15800    303.20541   -1148.2383    6513.2405     11842.52    1883.7286 
   15900    299.86973   -1149.3549    6440.0935    11696.995    1877.7136 
   16000    299.84742   -1146.3846    6362.2808    11621.676     1898.161 
   16100    294.69556   -1143.4557    6372.6742    11524.937    1802.9687 
   16200    298.50624   -1144.5258    6410.0931    11642.695    1769.5299 
   16300    302.84181   -1145.5419    6378.2254    11702.434    1821.1915 
   16400    298.15594    -1135.203    6497.0298    11731.471    1860.0472 
   16500    301.43792   -1134.4093    6341.5052    11646.855    1760.3235 
   16600    295.11455   -1134.9455    6370.2395    11539.964    1824.2117 
   16700    298.60276   -1134.0064    6541.9242    11787.108    1851.8721 
   16800    304.14152   -1128.0028    6510.1356     11879.65    1810.0991 
   16900    298.41091   -1131.5814    6423.1961    11666.706    1799.3892 
   17000    303.76692   -1133.5241    6412.2447    11768.235    1803.1045 
   17100    296.29199   -1127.8452    6537.6707    11739.649    1828.9017 
   17200     300.6709   -1129.7827    6461.4732    11755.063    1837.7808 
   17300    297.19723    -1135.748    6262.1657     11475.58    1750.5254 
   17400    302.15008     -1131.85    6420.2871     11743.41    1837.4817 
   17500    298.93803   -1140.0504    6422.7215    11669.023    1773.6139 
   17600    301.99531   -1141.9509     6430.412    11740.128    1788.3788 
   17700    300.25237   -1147.8243    6473.4681    11740.075    1798.8678 
   17800    294.81492    -1150.583    6412.2487    11559.934    1783.9775 
   17900     302.1542   -1150.2415     6361.347    11666.166    1767.0191 
   18000    300.08095   -1146.2792    6478.8512    11743.341    1875.1651 
   18100    301.08983   -1144.1844    6413.8088    11701.947    1817.5576 
   18200    299.96951   -1143.1298    6301.1712     11566.43    1810.5926 
   18300     299.0209   -1146.0419     6386.353    11628.434    1830.8357 
   18400    299.82293   -1147.9953    6446.9119    11704.173    1840.4192 
   18500    303.01747   -1149.7123    6371.5006    11695.292    1769.6032 
   18600    298.24374   -1158.5917    6405.4181    11618.346    1836.0308 
   18700    298.14324   -1156.3115    6409.0541    11622.116    1803.8758 
   18800    304.51995   -1146.6937    6452.6676    11811.576    1810.3525 
   18900    298.16997   -1151.8913    6425.8063    11643.859    1837.7185 
   19000    301.34793   -1139.9376     6301.824    11599.723     1817.186 
   19100    296.39812   -1136.2258    6537.6859    11733.551    1895.1988 
   19200    299.37291   -1145.8706    6485.5073     11735.28    1837.0694 
   19300    297.88071   -1147.8333    6429.0662    11644.997    1847.0876 
   19400    299.83538   -1142.8417    6400.9952    11663.676    1816.3815 
   19500    303.33105   -1140.6519    6392.3783    11731.929    1811.7703 
   19600    299.41864   -1139.5291    6450.8433    11707.934     1807.056 
   19700    298.95955   -1135.7582     6467.723    11718.777    1805.6299 
   19800    302.82312   -1133.3199    6471.4834    11807.515    1869.2422 
   19900    298.59535   -1135.0047     6453.435    11697.462     1886.168 
   20000    302.30254     -1134.29    6372.0624    11696.002     1842.695 
   20100     295.3634   -1138.8588    6401.2317    11572.359    1816.1928 
   20200    300.20706   -1133.4823    6420.1404    11700.121      1831.44 
   20300     302.6632    -1137.814    6388.4796      11716.6    1854.4406 
   20400    298.09419   -1143.5846    6479.2407    11703.981    1833.9078 
   20500     300.5917   -1146.7667    6438.7751    11713.689    1831.1557 
   20600    301.02552   -1145.2099    6429.4571    11715.195     1849.046 
   20700     298.9222   -1144.3105    6445.8772    11687.581    1865.7957 
   20800    301.85989   -1143.4263    6403.1043    11708.451    1837.4959 
   20900    300.83103   -1153.5028    6320.0829    11593.373    1803.6133 
   21000    297.00754   -1151.9907    6394.3019    11587.422    1840.8593 
   21100    300.59522   -1158.3843    6341.7109    11605.082    1859.4258 
   21200    299.17088   -1164.4912     6426.185    11653.021    1904.6369 
   21300    294.34216   -1153.8401    6418.0229    11552.351     1869.699 
   21400    301.24497    -1162.868    6370.6709    11643.439    1834.2355 
   21500     295.4596   -1157.1335    6328.2736    11483.181    1846.4149 
   21600    300.58945   -1155.4835    6459.4934    11725.642    1924.0792 
   21700    300.15599   -1158.0532    6523.5689    11777.888    1853.6443 
   21800    295.93916   -1157.8076    6316.5854    11481.064    1781.8683 
   21900    302.84598   -1160.5246      6374.51    11683.825    1899.5476 
   22000    300.27873   -1160.6924    6320.7714    11575.073    1795.2621 
   22100    298.17314   -1154.1685    6432.7814    11648.625    1823.4925 
   22200    302.86894   -1154.1668    6501.3453    11817.509    1835.4216 
   22300    296.24113   -1151.4962    6409.5463    11586.787    1737.5937 
   22400    300.80563   -1149.1615    6401.6703     11678.76    1800.0578 
   22500      298.148   -1141.3687    6411.5934    11639.699     1883.172 
   22600    302.30245   -1136.9025    6481.8996    11803.225    1860.7141 
   22700    301.16544   -1140.4087    6331.6484    11625.177    1822.7305 
   22800    300.56621   -1138.9819    6455.1542    11737.308    1907.8002 
   22900    299.64386   -1133.5119    6494.8082    11762.728    1773.8407 
   23000    301.53863   -1135.9015    6472.9955    11779.004    1793.6147 
   23100    297.86368    -1138.093    6347.2346    11572.542    1801.8378 
   23200    302.97965   -1142.7682    6385.3668    11715.294    1842.2308 
   23300    298.29505   -1137.2712    6475.0777    11710.423    1817.9886 
   23400    304.57605   -1139.7503    6461.7919    11828.842    1828.4232 
   23500    299.46186   -1133.3482    6394.5348     11658.73    1818.5971 
   23600    296.99498   -1134.8591    6521.0401    11731.023    1881.0282 
   23700    301.77528   -1138.0412     6386.658    11695.583    1851.1751 
   23800     299.5594   -1143.8456    6377.6219    11633.403    1850.4012 
   23900    293.06795   -1147.6635     6398.241    11511.525    1808.1966 
   24000    302.60764   -1145.5108    6488.2121    11807.449     1922.079 
   24100    299.08491   -1145.5066    6440.7698    11684.753    1833.3731 
   24200    304.53168   -1149.9151    6378.2979    11734.235    1780.5126 
   24300    297.58287   -1155.8649    6380.6689    11582.205    1819.6378 
   24400    306.50317   -1152.9646    6394.6293    11789.635    1844.5719 
   24500    299.48063   -1159.1572    6497.0565    11735.843    1841.5117 
   24600    300.51985   -1157.4915     6523.663    11786.317    1881.5013 
   24700    300.72733   -1157.5585    6252.0509     11519.07    1790.5369 
   24800    300.83172   -1159.2554    6392.0625    11659.615    1885.8979 
   24900    300.17066   -1159.6547    6380.9094     11633.94    1903.3874 
   25000     291.8049   -1149.8066    6387.9365    11472.094    1790.4534 
   25100    302.13708   -1152.6953    6404.8222    11706.822    1829.1639 
   25200    297.11141    -1155.528    6460.2617    11652.063    1891.6618 
   25300    299.96375   -1159.3678    6378.0624     11626.96    1871.9809 
   25400    299.44092   -1151.3593    6377.9827    11623.719    1853.8281 
   25500    296.43349   -1151.0296      6481.61    11663.427    1930.3716 
   25600    306.16841   -1152.8224    6369.0971    11757.093    1886.1252 
   25700    296.30814   -1146.8306    6363.7562    11547.094    1839.8458 
   25800    298.53598   -1148.3288    6431.9058     11661.34    1865.3225 
   25900    301.37624   -1146.5207    6365.8155    11657.736    1852.1112 
   26000    300.73804   -1139.9914    6356.5496    11641.365    1826.2424 
   26100    298.16059   -1142.2376     6423.612    11651.118    1849.1961 
   26200    306.78238   -1138.4221    6404.3382    11819.851    1849.1759 
   26300    299.09714   -1136.3265    6438.1146     11691.54    1741.3058 
   26400     295.2683   -1136.3462    6481.1979    11652.806    1678.9095 
   26500    304.47006   -1136.8151    6448.6871    11816.408    1766.3491 
   26600    304.89039   -1135.3641    6426.3594    11804.511     1778.596 
   26700    298.99993   -1128.7352    6487.2166    11746.156    1752.1277 
   26800    305.02356   -1129.3089    6406.9297    11793.981    1802.7287 
   26900    301.29299   -1131.3061    6365.9755    11671.332    1776.2727 
   27000    296.33973   -1125.8315    6475.7078     11680.72     1720.477 
   27100    302.48514    -1132.446    6478.5572    11808.242    1760.9388 
   27200    302.46351   -1134.8822    6409.5272    11736.314    1787.9028 
   27300    299.22641   -1140.3519    6443.1879    11695.349    1762.3632 
   27400    301.16859   -1137.4675    6489.8442    11786.381    1842.7604 
   27500    299.24577   -1147.7242    6468.9058    11714.108    1869.4447 
   27600    306.18866   -1147.9838    6401.8086    11795.076    1773.6921 
   27700    299.82762    -1145.157    6342.7165    11602.917    1759.8152 
   27800     301.4018   -1153.7564    6404.6131    11689.844    1830.8755 
   27900    297.40575   -1156.9195    6446.9957    11643.694    1822.5577 
   28000    300.72654   -1154.8897    6383.6075    11653.279    1794.2731 
   28100    295.76835   -1155.8318    6452.5297    11615.335    1899.1219 
   28200    302.24989   -1150.3764    6304.4531    11611.182    1886.6755 
   28300    303.80848   -1156.5112    6425.6971    11759.588    1898.4037 
   28400    296.92295   -1158.0615    6445.0002    11630.242    1851.1549 
   28500    305.49019   -1159.6515    6409.5796    11776.257    1868.5296 
   28600    299.98851   -1167.1411     6472.227     11713.88    1825.3248 
   28700    300.93787   -1167.4108    6429.0998    11690.765    1832.6197 
   28800     299.0356   -1162.4088    6397.2326    11623.261    1859.1481 
   28900    300.42241   -1160.4949    6347.9927    11605.562    1813.3089 
   29000    302.74924   -1155.1069    6540.2594    11852.925    1919.3247 
   29100    297.84497   -1153.2952    6291.3203    11501.026    1805.1073 
   29200    303.84197   -1158.2083    6307.1792    11640.088     1859.299 
   29300    300.08378   -1155.3409    6474.0907    11729.579    1931.3537 
   29400     297.4627   -1151.6187    6433.3089    11636.524     1864.154 
   29500    298.45486   -1155.7171    6380.9942    11601.307    1792.4118 
   29600    298.23247   -1150.3102    6431.8792    11652.848    1837.7956 
   29700    299.17849   -1149.6817    6475.4833    11717.291    1893.2129 
   29800    302.42241   -1149.2053    6381.6187    11693.204    1892.6934 
   29900    299.21746   -1144.4019    6364.5746    11612.495    1825.1219 
   30000    309.37829   -1136.2325    6478.2934    11951.453    1872.6601 
   30100    300.70938    -1141.924    6504.0182    11786.289    1898.2869 
   30200    302.44367   -1147.3714    6447.8786    11761.752    1887.6841 
   30300    299.58051   -1148.1745    6414.8083    11666.712     1809.519 
   30400    300.70667   -1149.4577    6423.3178    11697.997     1827.851 
   30500    300.20402   -1149.2132    6521.8945     11786.08    1864.0413 
   30600    295.96412   -1150.4277    6431.2189    11603.611    1816.8791 
   30700     304.2825   -1151.4198    6427.0383    11776.147    1873.7825 
   30800    299.63524   -1150.5855    6394.0068    11644.668    1892.0115 
   30900    297.47235   -1160.6653     6309.257    11503.632    1805.7682 
   31000    302.00554   -1159.8677    6412.0626     11704.08     1898.502 
   31100    298.50983   -1158.8709    6522.4633    11740.797     1920.361 
   31200    300.63462   -1157.3856    6450.0303    11715.242    1871.6502 
   31300    303.08897   -1165.8604    6361.7577    11670.928     1910.181 
   31400    297.86485   -1171.5841    6347.4167    11539.258    1923.4444 
   31500    302.03826   -1167.5962    6568.9768    11853.965    1973.8407 
   31600    301.06593   -1160.4784    6465.0046    11736.338    1925.7093 
   31700    294.60868   -1166.2387    6405.7655    11533.389    1929.1562 
   31800    298.87723   -1164.1295    6328.3437    11549.268    1887.5344 
   31900     302.3044   -1160.2039    6416.9717    11715.037    1927.4694 
   32000    303.35764     -1160.26    6429.8147    11750.325    1924.2988 
   32100    299.09004   -1159.8681     6414.595    11644.327    1837.0215 
   32200     300.4914   -1156.9819    6419.2389    11681.795    1849.9338 
   32300    300.37598   -1158.3936    6438.6603    11697.339    1933.4704 
   32400    299.62847   -1156.7956    6407.5141    11651.821    1893.4097 
   32500    301.13588   -1152.0311    6483.0034    11764.278    1840.2994 
   32600    302.79833   -1150.1699    6440.4959    11759.148    1822.4158 
   32700    295.31677   -1151.0379    6470.8549    11628.807     1896.264 
   32800     299.5527   -1144.7594    6274.6244    11529.349    1749.5739 
   32900    301.68019   -1148.2665    6472.4709    11769.139    1852.2392 
   33000     303.0441   -1146.4712    6427.0865    11754.687    1865.3129 
   33100    300.97768   -1140.9493     6437.465    11726.442    1853.1119 
   33200    297.74189   -1141.7432    6466.3759    11685.431    1819.3571 
   33300    301.79848   -1141.6379    6458.1335    11763.957    1897.3225 
   33400    299.90781   -1141.9818    6470.7752    11735.864    1869.3113 
   33500    299.27005   -1145.9527    6410.2239    11657.717    1830.9643 
   33600    302.85891   -1146.0651    6366.1202    11690.171    1799.4447 
   33700    294.00521   -1143.6585    6571.5305    11708.842    1820.9391 
   33800    300.27006   -1149.6911    6469.2706    11734.389    1771.6192 
   33900    301.19092   -1149.5789    6379.1279    11664.031    1824.5099 
   34000     301.3447   -1152.7899    6408.7887    11693.766    1872.4736 
   34100    295.39424   -1152.2393    6476.0202    11634.426    1797.7209 
   34200    303.72925   -1150.4899    6394.1704     11732.39    1791.4772 
   34300    302.09019   -1151.5264    6445.7698    11747.937    1870.8743 
   34400    301.28282   -1155.4559    6431.4433    11712.432    1842.7458 
   34500    299.53197   -1162.7894    6422.3694    11658.621    1836.0296 
   34600    300.16441   -1159.6596    6354.6354    11607.528    1822.5915 
   34700     303.9293   -1163.9077    6379.4906    11708.566    1864.2838 
   34800    300.76443   -1157.8534    6501.1879    11768.705    1819.7734 
   34900    298.70646   -1164.5573    6462.9245    11679.772    1848.2547 
   35000    299.73463   -1164.0716    6375.5754    11614.874    1898.9246 
   35100    296.46649   -1164.7475    6411.4503    11580.254    1892.3594 
   35200    301.07536   -1163.2056    6394.3391    11663.147      1808.85 
   35300    298.32707   -1156.3194    6407.5077    11624.488    1837.0779 
   35400        306.6   -1160.8863     6393.455    11782.607    1865.7786 
   35500    299.62819   -1161.0266    6375.6551    11615.725    1778.6229 
   35600     301.3316   -1159.6248    6457.8507    11735.713    1882.8248 
   35700    297.59693   -1158.6729    6441.5009     11640.53    1872.7611 
   35800    300.04891   -1159.8773    6339.5464    11589.754    1809.3455 
   35900    299.40828   -1161.5531    6372.1559    11607.001    1869.3929 
   36000    300.32068   -1155.1842    6395.8007    11656.507    1939.4257 
   36100     299.9161   -1155.5369    6368.1717    11619.882    1855.3876 
   36200    301.02966   -1156.0139    6424.3508    11699.374    1806.9213 
   36300    298.10892   -1156.2493    6468.1542    11680.545    1876.1443 
   36400    301.71807   -1151.8141    6404.2522    11698.182    1894.4169 
   36500      299.814   -1159.7023    6322.9438    11568.308    1853.0552 
   36600    302.15285    -1156.745    6457.2429     11755.53    1874.0354 
   36700    298.92455   -1154.7842    6617.0218    11848.302    1917.7228 
   36800    302.45062   -1150.2396    6454.4921    11765.646    1846.5465 
   36900    296.24086   -1148.4069    6285.9375    11466.262      1724.99 
   37000    301.84308   -1154.5964    6407.5258    11701.344    1866.1082 
   37100    304.79161   -1154.2338    6463.4519    11820.623    1861.1655 
   37200    299.55375   -1151.4267    6347.2606     11595.34    1867.6269 
   37300    293.99857   -1148.0849    6399.3234    11532.067    1893.2927 
   37400    298.93374   -1157.5848    6458.9325    11687.608    1915.4201 
   37500     303.5604   -1151.9443     6418.598    11751.756    1889.5318 
   37600    300.02792   -1159.6364    6359.2559    11609.256     1847.336 
   37700    299.19705   -1158.6498    6411.4541     11644.69    1875.0364 
   37800     297.1883   -1151.1386    6529.4993    11727.333    1873.3356 
   37900    303.00989    -1151.716    6456.0625    11777.688    1802.1418 
   38000    299.80254   -1156.2031    6373.0578    11621.676    1885.7528 
   38100    294.50009   -1155.6657    6347.5848    11483.462    1866.8567 
   38200    301.47313   -1155.8272    6424.2816    11708.965    1878.6907 
   38300    300.44214   -1153.5324    6507.6122    11772.565    1944.4442 
   38400    298.77728    -1161.027    6425.0097    11646.901    1888.6739 
   38500    302.50785   -1157.6883    6377.2807    11682.209    1766.0391 
   38600    297.64671   -1155.5334    6374.6388    11577.871    1799.8291 
   38700    301.63103   -1156.4916    6448.7701    11736.163    1898.5207 
   38800    298.15069   -1154.1738     6482.332     11697.69    1882.7697 
   38900      302.819   -1156.1078    6455.4975    11768.653    1887.9676 
   39000    300.19364   -1145.7933     6393.259    11660.642    1839.7324 
   39100    299.73013   -1146.8867     6506.325    11762.713    1971.7399 
   39200    302.31823   -1153.3883    6399.7499    11704.927    1901.2504 
   39300    302.91663   -1153.8791    6383.2657    11700.736    1905.0271 
   39400    300.78138   -1153.2353    6409.9531    11682.451    1893.8901 
   39500    300.47273   -1152.2885    6408.2513    11675.102    1913.1394 
   39600    297.37413   -1152.0079    6450.1859     11651.12    1808.9365 
   39700    299.82547   -1151.0969    6322.2174    11576.432    1803.1413 
   39800    304.50226   -1152.6013    6522.4496    11875.072    1864.1087 
   39900    296.92033   -1152.5171    6411.9847    11602.715    1827.3007 
   40000    298.23137   -1152.9762    6345.7966    11564.076    1895.4156 
   40100    302.50016   -1151.9745    6412.6828     11723.16    1971.7381 
   40200    300.42783   -1149.2206    6354.0797    11623.039    1891.4036 
   40300    301.50957     -1155.44    6313.5307     11599.38    1869.3461 
   40400    296.53986   -1149.6096    6451.7928    11637.302    1851.2045 
   40500    301.93255   -1148.2169    6555.3084    11857.417    1889.4868 
   40600    300.83632   -1156.2528    6379.7343    11650.388    1829.4283 
   40700    300.54688   -1152.5847    6376.2944    11644.433    1883.5274 
   40800     298.9868   -1156.9001    6446.8718    11677.366    1942.3387 
   40900    303.15291   -1150.9681    6364.0477    11689.476    1914.3378 
   41000    296.00243   -1155.6574    6440.5415    11608.522    1929.5247 
   41100    298.29212   -1150.9963    6446.6211    11668.178    1902.7083 
   41200    301.32439   -1147.5564     6464.005    11753.782    1869.0552 
   41300    300.66845   -1150.7803    6421.5355    11694.075    1886.8178 
   41400    299.89625   -1151.0399     6381.397     11637.18    1877.6815 
   41500    300.11722   -1154.4773    6353.0947    11610.161    1912.0844 
   41600    296.65916   -1150.2414    6464.1625    11651.589    1913.9249 
   41700    305.54098   -1151.5548    6459.8371    11835.697    1933.6504 
   41800    298.10102   -1159.2042    6369.2991    11578.566    1885.5347 
   41900    301.16459   -1151.7404    6492.8728    11775.052    1933.9316 
   42000    297.20796     -1155.67    6404.8876     11598.61    1877.0895 
   42100    306.32174   -1149.4455    6423.4066    11818.055    1920.5052 
   42200    295.71436   -1147.3879    6468.9714    11639.067    1918.3914 
   42300    302.49287   -1152.2015    6399.4486    11709.543    1867.7507 
   42400    299.41157   -1152.6757    6356.7543    11600.547    1849.2009 
   42500     302.5188   -1151.1044    6426.5175    11738.263     1890.778 
   42600    303.72374   -1153.6035    6462.6344    11797.623    1877.2494 
   42700    296.34081   -1154.1711    6434.6412    11611.337    1888.6114 
   42800    298.49032   -1147.2731    6447.6315    11677.146    1850.1632 
   42900    301.57522   -1145.9077    6366.2637    11663.048    1850.3913 
   43000    295.31241   -1151.1464    6356.6572    11514.407    1880.6155 
   43100    303.67901   -1155.5354    6451.2964    11783.397    1956.7756 
   43200    297.98986   -1151.5338    6335.8509    11550.413    1810.9384 
   43300    302.67668   -1152.4221    6525.7891     11839.59    1904.0549 
   43400    300.50963   -1152.7296     6402.796    11669.993    1848.4849 
   43500    301.40177   -1154.7997    6321.9385    11606.125    1857.5426 
   43600     302.1184   -1154.0649    6385.9487     11686.18    1855.2876 
   43700    299.31526   -1155.2349    6492.7729    11731.949    1853.2047 
   43800    296.86723   -1151.2171    6351.9118    11542.808    1849.0766 
   43900    298.53889   -1157.2212    6415.7668    11636.371    1849.7198 
   44000    302.81029   -1156.9696    6460.2347    11772.342    1918.3365 
   44100    299.05597   -1158.7591     6501.018    11731.131    1904.3388 
   44200    306.57774   -1157.6626    6437.6856    11829.586    1867.4726 
   44300    300.03745   -1159.1401    6453.6017    11704.301    1890.7112 
   44400    297.68225   -1158.8986    6390.6254    11591.251    1849.4559 
   44500     304.6458   -1162.3573    6417.6651    11763.598    1818.9055 
   44600    303.61442   -1160.0325    6459.3313    11785.555    1840.2743 
   44700    298.14559   -1163.0515    6453.9543    11660.326    1823.3454 
   44800    302.68821   -1167.5831    6453.9551    11752.841    1840.3914 
   44900    299.04547   -1163.7746    6355.3135    11580.186    1775.0507 
   45000    296.71268   -1171.9956      6485.49    11652.306    1844.5373 
   45100    302.63007   -1160.2037    6428.9099    11733.933    1861.5268 
   45200    297.32047   -1159.6053    6302.0684    11494.259    1820.8014 
   45300    302.10485   -1157.4464      6334.86     11631.42     1928.249 
   45400    297.34391   -1160.7996    6418.1248    11609.621    1905.6553 
   45500    303.14282   -1165.7972    6408.9863     11719.37    1829.8459 
   45600     298.4128   -1166.8659    6414.6491    11622.915    1813.6684 
   45700    304.02262   -1170.9703    6338.8915    11662.898    1838.0421 
   45800    295.52233   -1168.4885    6389.5424    11534.435     1825.891 
   45900    296.99192   -1165.4243    6437.2212    11616.574    1943.6304 
   46000    299.63243    -1165.343    6442.5792    11678.423     1864.953 
   46100    296.17953   -1161.2802    6344.3334    11510.474    1762.9937 
   46200    298.92323   -1155.7691    6364.4878    11594.755     1794.205 
   46300    300.73933   -1149.7056    6469.7491    11744.878    1872.4966 
   46400    301.78837   -1155.0038    6436.9031    11729.145    1835.3066 
   46500     300.4225   -1149.6352    6425.3271    11693.758     1879.327 
   46600     301.8827   -1154.8642    6325.4826    11619.879    1894.2297 
   46700    299.37916   -1153.3935    6387.1592    11629.542    1843.7874 
   46800    301.78778   -1150.0841    6474.8794    11772.028    1903.1524 
   46900    303.16734   -1150.6131    6455.4645    11781.556    1873.7079 
   47000    300.32761   -1150.4496    6597.3845    11862.973    1854.5447 
   47100     299.7867   -1150.1477    6385.6586    11639.994    1787.8004 
   47200    303.45101   -1149.8123    6323.4876    11656.441    1817.7698 
   47300    302.89508   -1147.2329     6474.334     11797.99     1796.034 
   47400    298.75615   -1137.5687    6603.8452    11848.743    1766.5914 
   47500    302.17211   -1147.6896      6521.78    11829.534    1859.7577 
   47600    300.84653   -1150.3103    6355.8723    11632.686     1851.657 
   47700    300.46238   -1151.3772    6479.8724    11747.413    1866.1273 
   47800    298.72358   -1143.6939    6433.4845    11671.561    1820.8021 
   47900    299.88447   -1153.3649    6381.2409    11634.448    1843.3123 
   48000     298.2267   -1155.5831    6448.5618    11664.135    1775.8758 
   48100    303.15651    -1158.688    6509.0436    11826.829    1818.5824 
   48200    298.16373   -1157.0297    6445.4454    11658.226    1812.1574 
   48300    305.35862   -1163.6365    6423.1409    11783.023    1860.0338 
   48400    301.13495   -1158.0978    6415.1759    11690.364    1809.7326 
   48500    300.12217   -1156.3766    6424.3281    11679.601    1864.6981 
   48600    302.78772   -1159.1517    6467.9233    11777.367    1930.6315 
   48700    293.62955   -1157.4312    6480.2194    11595.733    1902.8767 
   48800    303.48671   -1160.0356    6392.1739    11715.666    1899.4652 
   48900    301.24185    -1165.583    6404.2782    11674.265    1914.4371 
   49000    299.11766   -1156.0081    6447.6671    11681.849    1863.8854 
   49100    297.28512   -1163.7792    6446.0472    11633.308    1821.2276 
   49200    300.21439     -1164.99    6432.6913    11681.321    1898.5683 
   49300    300.96512   -1161.3025    6398.8892    11667.245    1894.5514 
   49400    298.18388   -1163.1251    6369.5974    11576.713    1862.9123 
   49500    301.06714    -1159.756    6445.6366    11717.718    1900.5821 
   49600    297.60692   -1163.1705    6349.8328    11544.578     1848.336 
   49700    303.19605   -1155.9367    6413.4847    11734.866    1843.4175 
   49800        296.4   -1157.8083    6483.4508    11657.774    1853.1673 
   49900    303.87234   -1149.7447    6447.4592    11789.481    1868.6935 
   50000     294.7471   -1148.0838    6403.5047    11552.241    1799.6547 
   50100    300.75684   -1157.7946    6340.7088    11608.123    1832.3013 
   50200    299.88542    -1154.988    6434.8651    11686.469    1899.3901 
   50300    299.22017   -1161.8053    6523.7766    11754.351    1848.1908 
   50400    302.19362   -1159.5403    6435.0959    11731.459    1756.5027 
   50500    299.05335   -1155.0353      6424.27    11658.051    1815.1143 
   50600    299.58177   -1159.8024    6360.3425    11600.645    1878.1795 
   50700    304.39728   -1154.3323    6429.6582    11778.307    1849.7551 
   50800    299.41646    -1155.781    6475.2868    11716.079    1828.7462 
   50900    297.13579    -1159.887    6541.3479    11729.311    1857.9381 
   51000    302.83638   -1164.7044    6353.5254    11658.456    1786.6763 
   51100    297.06745   -1164.7869    6326.7026    11508.306    1857.9483 
   51200    303.78963   -1162.6624    6377.8235     11705.16    1855.9385 
   51300     295.7163   -1163.5724    6435.0003    11588.953    1790.1005 
   51400    301.47121   -1169.1043    6483.6582    11755.024    1796.3741 
   51500    301.03924   -1171.6496    6494.2443    11753.836     1818.855 
   51600    291.93837    -1160.827    6434.3822    11510.371    1852.8079 
   51700    302.90903   -1163.6827    6313.3881    11620.892    1894.0498 
   51800    293.72653   -1159.2808    6477.9458    11593.682    1883.9448 
   51900    301.70969   -1164.8565    6429.0329    11709.741    1900.8665 
   52000    301.66194   -1164.7705    6363.7281    11643.502    1876.1571 
   52100    301.38526   -1164.1892    6473.1792    11747.624    1873.9122 
   52200    297.57894   -1173.2762    6418.6041    11602.645    1857.3771 
   52300    303.63687   -1171.1667    6494.1005     11809.67    1866.0373 
   52400    300.98877   -1163.5704    6443.8284    11710.421    1843.5661 
   52500    299.95704   -1167.0949    6367.8145    11608.842    1815.2303 
   52600     300.7482   -1163.6386    6476.2991    11737.684    1916.9781 
   52700     303.6515   -1159.5206    6452.1165    11779.644    1903.2113 
   52800    296.47352   -1152.0455    6446.9099    11628.566    1915.7675 
   52900    299.98165   -1146.4915    6309.6533    11571.809    1856.0488 
   53000    298.10241   -1150.2413    6408.8343    11627.094     1863.531 
   53100    298.71533   -1155.4265    6454.0638    11680.232    1844.8006 
   53200    296.73399   -1160.4629    6476.9251    11655.729    1851.5717 
   53300    302.95343   -1159.0254    6442.3195    11755.429    1828.9355 
   53400    296.67396   -1158.0622    6500.4974    11680.419    1883.3483 
   53500    304.34274   -1155.9532    6392.3122    11738.175    1875.8756 
   53600    301.53533    -1156.573    6532.0095    11817.276    1924.5407 
   53700     301.0621   -1154.9136    6481.1358    11757.952    1907.8962 
   53800     298.4132   -1149.5697     6350.237    11575.807    1779.0555 
   53900     302.9484   -1154.3527    6451.0933    11768.768    1824.7794 
   54000    301.48883   -1160.3333    6369.4996    11650.013    1867.1064 
   54100    304.01616   -1159.8989    6325.7106     11660.65    1819.0578 
   54200    295.48476   -1159.9662    6486.8957    11639.508     1851.547 
   54300    300.91732   -1167.6617    6454.6235    11715.599    1874.8411 
   54400    299.71555    -1169.867    6324.2017    11557.298    1878.2984 
   54500    297.69711   -1169.3331    6425.2223    11615.731    1906.0367 
   54600    299.50783   -1170.0429    6424.1567    11652.639    1954.1312 
   54700    303.19015   -1165.1044    6408.1223     11720.21    1954.5164 
   54800    297.87678   -1159.2653    6460.6581    11665.073    1917.9054 
   54900    300.38669   -1170.3779    6344.4019    11591.325    1905.8434 
   55000    300.66286   -1164.8508    6317.5744    11575.924    1918.0341 
   55100    298.99038   -1172.8286    6355.9118    11570.554    1911.8706 
   55200    301.36625   -1169.4568    6422.3431    11691.114    1980.2408 
   55300    300.23667   -1168.6738    6453.7589    11699.181    1907.0063 
   55400     299.9558   -1164.4156    6426.2293    11669.909    1873.0281 
   55500    297.52268   -1174.7171    6348.3243    11529.723    1916.2478 
   55600    307.25825   -1161.7309    6495.9844    11898.355    1993.8769 
   55700    294.58058   -1163.3397    6404.3922    11534.315    1866.3449 
   55800    302.16855   -1161.5473    6372.3539    11666.174    1886.8626 
   55900    300.32524   -1155.4466    6451.9641    11712.505     1983.633 
   56000    301.52392   -1160.6109    6460.3896    11741.375    1901.3821 
   56100    300.33963   -1155.0225    6473.6648    11734.938    1888.3193 
   56200    293.03401    -1158.379    6489.0897    11590.933    1804.8654 
   56300    302.34429   -1152.7395    6469.1788    11775.561     1846.198 
   56400    301.64906   -1154.1776    6394.0247    11684.116      1799.87 
   56500    302.50066   -1151.1364    6455.7203    11767.046    1872.4387 
   56600    297.70569   -1148.9043    6497.8866    11709.008    1849.4784 
   56700    302.79124   -1148.4573    6407.1313    11727.344    1815.6083 
   56800    303.28226   -1154.8395    6419.9533    11744.274     1890.255 
   56900    300.49499   -1154.1351    6355.7144    11621.194    1878.9279 
   57000    305.26084   -1153.2452    6483.5582    11851.743    1854.8041 
   57100    298.45601   -1152.8053    6577.0207     11800.27    1894.1945 
   57200    302.82035   -1154.2545     6426.529    11741.567    1875.8371 
   57300    299.80816   -1158.3188    6348.3151    11594.938    1861.4078 
   57400    299.30248   -1156.3774    6460.6804    11698.441    1874.9325 
   57500    304.51953   -1158.1354    6437.9006    11785.358     1891.571 
   57600    297.96662    -1169.166    6282.1311    11478.565    1839.9123 
   57700    301.49266   -1165.6944    6490.1281    11765.362    1934.0022 
   57800    297.56314   -1168.6749    6506.9026    11695.208    1929.1104 
   57900    300.81265   -1171.2167    6359.2819    11614.466    1916.9375 
   58000    303.14595   -1171.1477    6343.5135    11648.614     1916.054 
   58100    297.75264   -1173.6626    6487.8241     11675.19    2000.6503 
   58200    301.59135   -1170.1226    6343.3538    11616.268    1941.3139 
   58300    299.85565    -1176.181    6390.7855     11620.56    1960.1318 
   58400    299.66586   -1177.7511    6372.0407    11596.191     1911.842 
   58500    295.36562   -1174.7494    6419.5381    11554.822    1915.3146 
   58600    300.88862   -1176.7566    6451.6251    11702.892    1933.5707 
   58700    302.66221   -1174.1327    6393.7292     11685.51    1854.4465 
   58800    301.77946   -1177.7786     6468.713     11737.99    1849.9507 
   58900    296.94832   -1175.1434    6351.6536    11520.356    1811.3802 
   59000    296.94014   -1176.5277    6465.6671     11632.81    1876.9664 
   59100    301.64527   -1167.1605     6450.765    11727.793    1907.4825 
   59200    303.88845   -1161.7862    6446.4999    11776.824     1906.221 
   59300    296.73763   -1158.8964    6479.9987    11660.446     1981.043 
   59400    303.53476   -1159.1876    6429.9295    11755.296    1928.5048 
   59500     296.0709   -1159.3189    6324.6933    11490.475    1907.6097 
   59600    299.99608   -1162.6901    6416.1968    11662.463    1898.4296 
   59700    301.83986   -1163.0814      6456.49    11741.754    1882.8488 
   59800    297.76118   -1158.3309    6447.1328    11650.013    1861.8363 
   59900    296.32811   -1153.1274    6523.7705    11701.238    1927.6145 
   60000     305.0936   -1147.9445    6455.4073     11825.32    1922.4203 
   60100    296.97751   -1149.2008    6371.2175    11566.485    1910.2401 
   60200    300.77162   -1150.7415    6425.1036    11699.886    1937.1253 
   60300    302.60376   -1149.0047     6479.031    11794.691    1882.0838 
   60400     298.6854   -1152.9293    6440.6154    11668.641    1872.4788 
   60500    300.98281   -1154.4946    6488.6967    11764.238    1931.3058 
   60600    297.45871   -1159.0745    6379.0607    11574.735    1861.7541 
   60700    304.75826   -1153.5107    6464.5403    11821.722    1938.4862 
   60800    297.22465   -1158.5955    6396.3648    11587.518    1967.5794 
   60900    302.96836   -1159.4973    6397.7199    11710.677    1904.0684 
   61000    297.24294    -1161.527    6489.7798    11678.392    1928.7362 
   61100    301.40543   -1167.2449    6415.2743    11687.094    1839.3223 
   61200    301.84559   -1165.7795    6310.2379    11592.926    1835.4221 
   61300    296.31536   -1166.1104      6429.16    11593.373    1901.2507 
   61400    303.26246   -1166.0266    6371.4785    11684.189     1903.052 
   61500    298.47848   -1167.4463    6487.0581    11696.147    1837.3028 
   61600     303.9358   -1172.2262    6464.4072    11785.303    1860.1929 
   61700    295.02428   -1173.9107    6395.3156    11524.146    1863.1911 
   61800    302.39836   -1176.6003    6467.1275    11750.804    1926.6899 
   61900    299.36064   -1172.1752    6415.8954    11639.101    1914.1513 
   62000    296.40154    -1170.012    6411.4858    11573.638    1913.5149 
   62100    303.86919   -1172.2471    6480.5791    11800.031    1917.4283 
   62200    299.32967   -1169.6357    6354.1858    11579.269    1857.7293 
   62300    303.71624    -1161.108    6431.7712    11759.095      1910.49 
   62400    300.30009   -1166.6838    6415.3517    11664.118    1896.6693 
   62500    299.20184   -1166.0478    6365.3754    11591.316    1868.6782 
   62600    308.14315    -1163.819    6421.3468    11840.534    1937.3445 
   62700    298.17368   -1170.0746    6449.7926    11649.741    1917.6076 
   62800    301.90863   -1163.7737    6332.4122    11618.453    1849.5932 
   62900    299.25395   -1162.1619    6480.9291    11711.869    1919.3876 
   63000    300.85657   -1160.0869    6435.3247    11702.577    1885.6315 
   63100    301.61075   -1158.3745    6431.7252    11716.802    1920.3883 
   63200    300.83323    -1154.764     6418.992    11691.068    1893.5555 
   63300    296.99588    -1154.125    6510.0207    11700.757    1868.5895 
   63400    299.39909   -1154.4908    6478.5507    11720.262    1893.0593 
   63500    306.72718    -1150.201     6350.761    11753.315    1908.1647 
   63600    300.15193   -1155.3093    6344.0403    11601.016    1847.5567 
   63700    299.91231   -1158.3514    6427.3095    11676.124    1811.6901 
   63800    291.16273   -1161.6741    6465.9881    11524.559    1801.3255 
   63900    299.63137   -1158.3926    6485.2049    11727.977     1887.752 
   64000    303.77837    -1159.326    6400.0973     11730.53    1895.1763 
   64100    303.25948   -1161.1985    6334.6067    11652.082    1898.8282 
   64200    299.91575    -1164.089    6430.2827    11673.433    1899.3694 
   64300    299.61512   -1160.8369    6539.3088    11779.289    1866.8288 
   64400    301.28521   -1159.2009     6468.288    11745.583    1802.5382 
   64500     298.3743   -1163.9032    6339.7215    11550.127     1829.534 
   64600    300.59402   -1168.0944    6371.6417    11625.277    1872.5466 
   64700    300.63992   -1164.3364    6491.8964    11750.271     1923.912 
   64800      297.849   -1165.4249    6356.6749    11554.337    1911.4455 
   64900    301.21101   -1166.7536    6387.9784    11656.136    1919.9889 
   65000    299.25529   -1160.0547    6517.8268    11750.902     1870.862 
   65100    298.39468   -1171.3395    6464.1334    11667.538    1846.5917 
   65200    301.97028   -1169.8154    6302.1919    11583.508    1806.0017 
   65300    299.01632   -1163.6354    6438.8106      11663.2    1911.1649 
   65400    303.54247   -1159.8052    6435.8205    11760.734    1889.7966 
   65500    297.35028   -1163.4348    6399.6607    11588.658    1882.1298 
   65600    299.07152   -1162.5641     6384.378    11611.018    1944.2275 
   65700    299.62725   -1160.4225    6457.6956     11698.35    1936.4115 
   65800    301.77084   -1160.5116    6448.7825    11735.142    1895.8505 
   65900    301.37901    -1159.694    6339.2171    11618.023    1878.0888 
   66000    301.74403   -1156.9364    6390.1639    11679.526     1844.373 
   66100    299.53412   -1157.1615    6434.5467    11676.472    1857.1421 
   66200    301.06291   -1156.8769     6447.591    11722.461    1894.0462 
   66300    298.57597   -1154.5194     6455.084    11679.182    1925.2654 
   66400    296.22649   -1155.5329    6367.2318    11540.123    1877.9258 
   66500    303.62647   -1156.5753     6393.331    11723.269    1903.2341 
   66600     297.3724   -1153.6428    6516.1755    11715.438    1837.0465 
   66700    303.16171   -1153.7563    6392.4053    11715.234     1835.995 
   66800    298.61998   -1150.1475    6336.8024    11566.213    1786.5292 
   66900    303.04498   -1155.8037    6488.6492    11806.936    1871.2595 
   67000    300.43399   -1156.8032    6306.6382    11568.146    1837.6206 
   67100    297.43025   -1152.7606    6468.3455    11669.726    1899.8641 
   67200    302.21286   -1161.5296    6507.2836    11802.068      1876.58 
   67300      295.312   -1163.0451    6340.2469     11486.09    1813.9816 
   67400    302.53744   -1167.3636    6452.0723    11747.957    1881.9869 
   67500    302.54504   -1166.2488    6493.4255    11790.587    1788.1578 
   67600    297.51302   -1163.4734    6413.7974    11606.233    1739.1262 
   67700    306.10049   -1162.8684    6375.4372    11751.936    1801.1211 
   67800      296.838   -1157.5285     6454.948    11638.908    1801.4927 
   67900    300.46784   -1166.2427    6344.3516    11597.143    1855.7407 
   68000    302.07929   -1159.3742    6377.0914    11671.178    1960.3063 
   68100     296.0439    -1166.012    6370.1842    11528.696    1827.2964 
   68200     309.7247   -1167.3753    6449.2048    11898.622    1910.2214 
   68300    298.42049   -1173.7527    6445.2865     11646.83    1893.0596 
   68400    299.90491   -1163.6829    6397.8448     11641.17    1850.6648 
   68500    299.02041   -1165.5185    6351.6053    11574.199    1844.0401 
   68600    298.88283   -1165.7034    6335.1967    11554.666     1862.429 
   68700    304.21419   -1170.6538    6451.0172    11779.433    1865.7925 
   68800     300.1041    -1161.216    6545.8004    11795.848    1859.6316 
   68900     300.2535   -1156.2242    6395.2241    11653.455    1851.7481 
   69000    300.29098   -1163.1128    6318.7487    11570.892    1854.4534 
   69100    296.32793   -1169.4272    6444.1945    11605.359    1856.1175 
   69200    302.38239   -1157.8932    6420.5463    11722.589    1858.8074 
   69300    298.67336   -1156.8857    6465.6497    11689.462    1834.7806 
   69400    308.21311   -1159.0742    6449.6114    11875.037    1878.9289 
   69500    298.74365     -1156.64    6400.0238    11625.583    1828.6145 
   69600    293.82079   -1156.2312    6395.0334    11515.833    1838.9339 
   69700    296.27778   -1154.1974    6442.5337    11617.856    1833.3207 
   69800    302.60241    -1157.535    6395.0956    11702.197    1840.1809 
   69900    296.46403    -1160.092      6383.32    11556.727    1839.1759 
   70000    294.97867   -1158.8614    6553.9764    11696.882    1913.9645 
   70100     298.5928   -1156.4715    6501.6478    11724.153    1813.6187 
   70200     302.1203   -1163.4067    6385.8381    11676.768    1823.1708 
   70300    302.12911   -1167.9253    6300.0635    11586.663    1901.5675 
   70400    299.58712   -1162.6225    6477.1723    11714.769    1895.8531 
   70500    299.98922   -1155.0004     6397.238    11651.047    1779.2113 
   70600    302.04813   -1163.9848    6403.7495     11692.56    1902.2153 
   70700     296.6382   -1159.4526    6405.5177    11583.285    1878.4958 
   70800    302.65568   -1163.9765    6323.8607    11625.659    1781.9694 
   70900    297.87783   -1164.3663     6420.857    11620.193    1873.6839 
   71000     304.9445    -1170.435    6451.2655    11795.502    1877.2273 
   71100    300.78164   -1165.4238    6378.2209    11638.535    1747.9366 
   71200    300.13634    -1167.292    6435.2188    11679.879    1887.4036 
   71300    293.19076   -1169.5923    6429.1348    11523.113     1960.909 
   71400    301.86951   -1163.1099    6341.3408     11627.21    1824.6696 
   71500    300.40227   -1164.1573    6473.1836     11726.66    1929.9686 
   71600    301.31725   -1160.1285    6360.3907    11637.443     1915.464 
   71700    295.61092   -1160.1241    6409.6441    11564.794    1866.3533 
   71800    302.55216   -1164.7719    6371.2162    11670.007    1875.6947 
   71900    298.48495   -1159.3259    6442.4502    11659.797    1950.0768 
   72000    297.61694   -1166.9863    6418.7461    11609.889    1873.5556 
   72100    304.48285   -1163.4128    6439.0019    11780.398    1870.3321 
   72200    300.08174   -1161.9346    6531.7354    11780.587    1944.8043 
   72300    300.58356   -1161.2616    6380.9153     11641.16    1887.9405 
   72400    299.01924   -1160.0737    6437.6303    11665.644    1941.8391 
   72500    302.03403   -1151.0127    6383.6803    11685.161     1941.774 
   72600    299.08633   -1152.5111     6337.252    11574.261    1890.0154 
   72700      298.248   -1155.9266    6497.9859     11713.67    1864.4229 
   72800    301.69812   -1159.2829    6458.0619    11744.096    1853.5119 
   72900    296.79969   -1155.6549     6394.384    11579.399    1855.9073 
   73000    302.02011   -1164.7767    6380.0445    11667.464    1835.4064 
   73100     298.2212   -1158.7361    6534.2961    11746.598    1928.4889 
   73200    300.37841   -1155.3868    6347.5372    11609.274     1861.469 
   73300    300.11933   -1160.4276    6356.9998    11608.161     1811.913 
   73400    298.91191   -1162.4075    6403.1359    11626.523    1900.5021 
   73500    303.45439   -1160.0155    6385.2014    11708.023    1899.6871 
   73600     299.5461   -1154.9165    6437.2227    11681.649    1824.7658 
   73700    297.36256   -1164.9287     6387.479    11575.245    1801.7564 
   73800    299.68659   -1168.8689    6394.6766    11628.152    1822.5636 
   73900    302.06323   -1167.6305    6425.4165    11710.903    1861.5619 
   74000    298.94061   -1170.4571    6434.8166    11650.767    1889.7807 
   74100    303.02349   -1164.2365    6371.0352    11680.431    1851.3887 
   74200    298.61695   -1167.7396    6460.3559    11672.109      1934.55 
   74300    304.32407   -1166.8065    6395.9489    11730.559    1932.8966 
   74400    295.92693   -1160.1434    6358.8759    11520.757    1918.4146 
   74500    299.76586   -1161.1433    6376.3447    11619.239    1880.7888 
   74600    299.65332   -1162.5198    6468.3841    11707.498    1924.6578 
   74700    292.97599   -1164.2263     6350.588    11445.344    1835.6326 
   74800    299.14117   -1163.5048    6366.1508    11593.338    1802.7597 
   74900    301.93912   -1163.5675    6539.3414     11826.24    1864.0557 
   75000    300.27982   -1165.2374    6390.9584    11640.739    1823.4567 
   75100    301.39119   -1163.0874    6344.7703    11620.443    1823.6676 
   75200    301.16502   -1157.9569     6529.812    11805.784    1887.1299 
   75300    298.95442   -1155.2374    6516.4524    11747.917    1859.1372 
   75400    296.70767   -1152.8485     6332.061    11517.917    1899.5337 
   75500    303.88456   -1155.7537    6321.9043    11658.178    1833.5018 
   75600    292.80297   -1154.4847    6592.2989      11693.1    1848.2555 
   75700    305.51532   -1153.4937    6512.5329    11885.905    1902.5602 
   75800    294.95817   -1155.0083    6419.9945    11566.315    1871.9278 
   75900    300.56845    -1151.886    6408.3231    11677.621    1834.2204 
   76000    302.35104   -1153.2732    6375.7548    11681.748     1845.829 
   76100    303.75754   -1154.7695    6485.5986    11820.143    1879.4944 
   76200     300.7981   -1151.0742    6625.6437    11900.659    1856.5899 
   76300    298.17044   -1152.6889    6368.9905    11586.256    1802.6594 
   76400    301.34506   -1160.4253    6320.8155    11598.165     1891.193 
   76500     300.0602   -1156.3274    6330.2187    11584.217    1844.9857 
   76600    296.95611   -1159.4156    6476.0184    11660.614    1834.6586 
   76700    302.02226   -1158.6041    6528.3086    11821.947    1880.1403 
   76800    294.49608   -1163.7478    6443.6317    11571.341    1849.7227 
   76900    305.46041   -1168.0137     6289.206    11646.885     1818.322 
   77000    302.72725   -1168.6012    6406.8698    11705.572    1868.5959 
   77100    298.30616    -1168.896    6426.4553    11630.413    1866.7723 
   77200    305.30122   -1161.9711    6452.8465    11813.167    1846.7323 
   77300    295.48508   -1168.7668    6424.5681    11568.387    1854.0966 
   77400     296.9692   -1171.9964    6386.4692    11558.764    1886.5101 
   77500    303.21043   -1167.0933    6467.1099    11777.642    1885.9018 
   77600    306.20055      -1168.7    6378.0409    11750.846    1849.6599 
   77700    300.21847   -1168.0897    6540.2858    11785.903    1969.4358 
   77800    298.87238   -1168.1746    6359.0594    11575.835    1852.4376 
   77900    302.18339   -1170.8968    6445.0968    11729.885    1827.9109 
   78000    296.72843   -1169.1811    6376.0139     11545.98    1839.6847 
   78100    299.56457   -1172.1769    6425.9294     11653.49    1864.6817 
   78200    301.45121   -1166.5083    6445.2095    11718.744    1854.8758 
   78300    298.03616   -1165.1175     6437.139    11639.107    1859.7567 
   78400     300.5602   -1168.0188    6423.4712     11676.46    1851.6445 
   78500     303.6924   -1164.5079    6375.2884    11698.703    1814.7844 
   78600    295.92751   -1165.7727    6428.0743    11584.339    1860.6663 
   78700    298.55687   -1155.3676    6525.8427    11748.685    1954.2774 
   78800    306.27413   -1152.8251    6447.8184     11838.07    1872.9327 
   78900    300.72072   -1161.6876    6361.4112     11624.16    1775.8095 
   79000     296.7099   -1158.1317    6410.9169    11591.537    1872.7888 
   79100    302.23283   -1156.6736    6419.1155    11719.183    1854.3309 
   79200    291.71773   -1160.2384     6448.986    11520.849    1821.2956 
   79300    302.48867   -1156.6097    6552.9018    11858.498    1893.5277 
   79400    298.09091   -1152.7385    6371.3155    11586.832    1837.3941 
   79500    301.38969   -1154.9913    6450.8429     11734.58    1825.5588 
   79600    303.19447   -1153.8096    6448.5927    11772.068    1910.7686 
   79700    303.72018   -1155.7857    6343.6645    11676.394    1872.6863 
   79800    300.19504   -1154.1124     6522.944    11782.038    1879.3052 
   79900    301.17389   -1162.7934    6521.5928    11792.917    1855.0551 
   80000    295.42128    -1161.868    6419.2453      11568.6    1896.3088 
   80100    305.12962   -1161.3758      6405.79     11763.04    1857.5043 
   80200    298.19293   -1165.3736    6401.1546    11606.215    1725.1989 
   80300    299.70024   -1163.7284    6372.0031     11610.91    1846.2496 
   80400    300.96851   -1165.3988    6415.2987     11679.63    1870.0084 
   80500    300.37369   -1165.1361    6546.7075    11798.594     1923.817 
   80600    301.87425   -1168.4362    6406.0296    11686.674     1892.301 
   80700    301.55438   -1166.2968     6325.786    11601.736    1890.2109 
   80800    301.34823    -1168.363    6345.3954    11614.875    1831.8143 
   80900     296.8247   -1166.8153    6469.8567    11644.246    1890.2035 
   81000    303.96093    -1169.754    6525.2529    11849.158    1939.8202 
   81100    300.73067   -1170.9091    6407.5026    11661.243    1899.0336 
   81200     296.9923   -1166.4755    6332.0642    11510.374    1867.2532 
   81300    307.93629   -1163.0316    6473.1348    11888.689    2011.3129 
   81400    299.76591   -1168.7132    6399.1102    11634.436    1933.1404 
   81500    298.40316   -1167.2724    6368.0074    11575.661    1848.8489 
   81600    302.71658   -1162.4162    6384.9885    11689.648    1924.0685 
   81700     297.6572   -1165.2999    6434.4871    11628.177    1904.8525 
   81800    305.83603   -1169.0543    6457.1558    11821.819    1897.5506 
   81900    299.95182   -1164.4939    6303.8418    11547.358    1858.1252 
   82000    299.07179   -1158.8566    6408.3373     11638.69    1908.3672 
   82100    299.58621   -1163.9869    6505.8293    11742.042    1915.7096 
   82200    301.51933   -1165.5568    6378.1623    11654.103    1855.2995 
   82300    305.04596   -1154.7606    6479.6807    11841.759    1923.0337 
   82400    297.73946    -1154.696     6364.685    11570.736    1866.7303 
   82500    305.74069   -1153.7497    6434.1787     11812.11    1965.3198 
   82600    296.14464   -1155.7306    6460.5783    11631.523    1974.2188 
   82700    299.53941   -1153.7373    6352.2074     11597.67    1848.4735 
   82800    295.27824   -1151.3076    6377.8523    11534.711    1849.0375 
   82900    305.35634   -1157.4116    6466.0427    11832.101    1860.0377 
   83000    291.90193   -1156.4104    6579.9591    11659.586    1878.9729 
   83100    298.99743   -1161.0812     6305.529    11532.069    1756.1451 
   83200    296.56775   -1159.4078    6386.3917    11562.699    1901.6357 
   83300    300.56074   -1164.8334    6466.6075    11722.793    1931.0337 
   83400    298.20688   -1159.0622    6436.2158    11647.886    1817.5246 
   83500     297.7977   -1161.5712    6491.4752    11691.895    1858.8848 
   83600    308.36341   -1162.9825    6417.0638    11841.792    1945.9912 
   83700    300.94818    -1162.728    6389.9792    11656.547    1839.5416 
   83800     301.0792   -1162.3901    6456.2774    11725.982    1833.4834 
   83900    299.56236   -1162.9585    6425.8279     11662.56    1917.1942 
   84000    301.57742   -1170.6435    6392.7993    11664.895    1829.4304 
   84100    295.72865     -1172.71    6388.1353    11533.214    1813.8701 
   84200    298.06239   -1173.7175     6378.413    11572.341    1888.8762 
   84300    298.64982   -1165.2073    6465.8865    11680.874    1911.0406 
   84400    301.07635   -1169.7311    6434.3203    11696.623    1867.8649 
   84500    295.39226   -1170.9547     6300.714    11440.362    1844.9891 
   84600    304.69935   -1165.4791    6374.8633    11718.818    1858.4967 
   84700    299.28598   -1168.0298    6482.0655    11707.821    1840.6875 
   84800    301.71279   -1165.1063    6420.2044    11700.729     1894.694 
   84900    298.15438   -1159.5188    6357.2856    11567.378    1909.7766 
   85000    296.37212   -1167.9659    6352.5989    11516.169    1845.3866 
   85100    298.39515   -1165.3146    6382.2276    11591.668    1886.4095 
   85200    301.82921   -1163.6669    6485.8671    11770.318    1915.8183 
   85300    297.37159   -1163.2458    6364.6203    11554.262    1766.2304 
   85400    299.58886   -1157.0003    6551.8573    11795.113      1905.37 
   85500    303.09521   -1161.5003    6405.5709    11719.235    1933.1692 
   85600    301.23624   -1160.5307    6300.5856    11575.505    1856.7991 
   85700     297.7422   -1154.0668    6574.9287    11781.667    1967.5348 
   85800    297.93626   -1153.4364    6503.6516    11715.166    1913.3902 
   85900    299.89026   -1151.5393    6343.5526    11598.709    1785.8193 
   86000    301.29536   -1154.6194    6482.1834    11764.277    1852.3831 
   86100    300.45938   -1154.1026    6431.9978    11696.749    1883.6992 
   86200    298.43622        -1157    6339.8461    11558.478     1817.026 
   86300     298.9284   -1155.4528      6508.59    11739.284    1906.3789 
   86400    305.64016   -1157.9011    6483.8575     11855.49    1892.0813 
   86500    297.79742   -1159.5234    6386.9646    11589.426    1883.8256 
   86600    301.54009   -1154.2331    6430.9262    11718.634    1926.4429 
   86700    298.49276   -1155.6183    6469.6805    11690.902    1907.5073 
   86800    304.94911   -1167.2885     6462.162    11809.643    1946.4848 
   86900    299.32142   -1160.6398    6434.8945    11668.797    1887.5222 
   87000    299.35962   -1168.0878    6337.3847    11564.656     1842.456 
   87100    302.18059   -1166.8169    6426.8317     11715.64    1908.9971 
   87200    297.38345   -1174.8318    6549.5188    11727.828    1904.7701 
   87300    304.49061    -1177.445    6396.0983    11723.628    1831.4749 
   87400    301.17096   -1172.9711    6387.4344    11648.519    1919.8252 
   87500    299.47457   -1167.5442    6289.5972    11519.868    1910.6398 
   87600    294.20393    -1165.836    6442.8156    11562.195    1949.9952 
   87700    300.18229   -1167.7974    6371.0299    11616.167    1948.9441 
   87800    297.74846   -1172.1124    6376.3941    11565.221    1939.8159 
   87900    300.31875   -1178.6958    6305.4206    11542.574    1866.9059 
   88000    295.25287   -1177.7981    6523.7754    11653.602    1966.5637 
   88100    298.90734   -1178.1886    6545.4355    11752.943    1973.5362 
   88200    301.98363    -1179.096    6361.2758    11633.597    1833.2142 
   88300    291.93236   -1176.5482    6421.0298    11481.169    1848.9216 
   88400    300.83798   -1172.5864    6450.9674    11705.323    1917.7282 
   88500    300.60325   -1169.2868    6390.7959    11643.436    1875.9584 
   88600    299.41281   -1165.4848     6450.194    11681.205    1951.9949 
   88700    301.01796   -1159.9628    6383.7282    11654.552    1958.5994 
   88800    299.07775   -1158.9894    6411.3532    11641.701       1922.6 
   88900    301.86382   -1164.4963    6507.2045    11791.565    1991.7927 
   89000     305.2553   -1160.4318    6478.7097    11839.589    1955.0507 
   89100    298.53002   -1163.6548     6442.855    11656.836    1922.7112 
   89200    298.56671    -1158.554    6399.6742     11619.54    1877.4792 
   89300     303.1671   -1161.0945    6456.4136    11772.019    1932.4585 
   89400    296.31929   -1153.7996    6522.8965    11699.504    1985.1027 
   89500    303.21606   -1150.7431    6366.0482    11693.051    1961.3701 
   89600    296.23627   -1152.9214    6457.6849    11633.397    1917.5928 
   89700    301.98153   -1148.6718    6569.0805    11871.781    1945.3019 
   89800    304.19148   -1154.9633    6315.0527    11658.674      1858.06 
   89900     298.3099   -1153.4426    6530.8093      11750.3    1978.5881 
   90000    304.03236    -1155.575    6366.7105     11706.32    1868.4651 
   90100    297.43297   -1160.1714    6374.0485    11568.076    1885.8131 
   90200    299.00456   -1163.5593    6435.5308    11659.745    1858.3261 
   90300    299.54874   -1160.2922    6552.8713    11791.978    1914.3568 
   90400    303.45024   -1162.8189    6468.8425    11788.772    1892.9601 
   90500    296.99747    -1163.358    6401.1364    11582.674    1894.2961 
   90600    299.71863   -1161.8581    6361.0235    11602.194    1871.3508 
   90700    299.60336   -1159.9904    6407.2924    11647.868    1907.5154 
   90800    303.87021   -1163.7998      6491.92    11819.841    1960.9949 
   90900    298.45733   -1172.9877    6338.6102    11541.705    1887.1539 
   91000    301.50069     -1169.82    6410.5135    11681.793    1896.1313 
   91100    297.44365   -1173.9459    6458.8063    11639.288    1846.8151 
   91200    299.57986   -1173.7099    6467.2302    11693.584    1862.3645 
   91300    298.60977   -1175.2339     6409.828    11613.934    1898.0473 
   91400    298.10011   -1174.6174    6356.9572    11550.791    1843.0054 
   91500    306.16696   -1171.3817    6407.3254    11776.731    1955.8697 
   91600    297.70221   -1175.6975    6411.5432    11595.797    1890.3092 
   91700    298.33371   -1164.9545    6514.9119    11723.399    1922.0698 
   91800    300.09194   -1163.4969    6410.9002    11658.407    1869.4079 
   91900    304.38775   -1166.4931    6462.6895    11798.974    1896.8083 
   92000    298.80201   -1168.6903    6376.3994    11591.156    1868.4844 
   92100    300.86246   -1167.9862    6273.7227    11533.201     1868.204 
   92200     300.1882   -1163.7407    6487.5716    11736.891    1978.6143 
   92300    299.93041   -1159.5213    6457.5903    11705.622    1859.9593 
   92400    301.22351   -1160.5981    6448.7272    11723.307    1882.4497 
   92500    294.63303   -1151.9776    6447.0972    11589.502    1907.6765 
   92600    301.45822   -1157.1916    6351.8322    11634.833    1881.6095 
   92700    298.46139   -1155.3484    6536.6564    11757.478    1910.6056 
   92800    303.56322    -1158.824    6467.7592    11794.097    1967.4836 
   92900    298.08075   -1157.2792    6343.7254    11554.484    1890.1333 
   93000    298.92321   -1155.0601    6392.4232    11623.399    1859.1675 
   93100    305.33821   -1153.4021    6432.4238    11802.104    1911.1466 
   93200    302.44375   -1154.3625    6535.0114    11841.895    1964.2397 
   93300    298.19648   -1156.4123    6477.5459    11691.644    1901.8536 
   93400    302.97179   -1151.6684    6333.0729    11653.932    1907.5728 
   93500    295.72184   -1162.8336    6352.1183    11506.928    1829.8254 
   93600    296.79494   -1159.9905    6493.0777    11673.656     1850.527 
   93700    303.30981   -1157.4708    6467.5164    11789.794    1877.5128 
   93800    299.69975   -1163.4358    6424.4842    11663.674    1884.4553 
   93900    301.65696   -1170.7642    6456.3793    11730.053     1943.414 
   94000    296.36067   -1172.4076     6433.851    11592.734    1915.1297 
   94100    298.54181   -1169.0665    6453.1642    11661.985    1903.9209 
   94200    303.92051   -1170.8019    6367.4431    11689.437    1873.5717 
   94300      297.399    -1172.645    6350.2992    11531.128    1865.6414 
   94400    300.33454   -1169.0097     6499.234    11746.411    1957.0043 
   94500    298.00593    -1171.184    6400.9528    11596.208     1898.244 
   94600    299.12829   -1167.8724    6420.0578    11642.602    1898.6255 
   94700    299.96703    -1167.601    6431.0006    11671.735    1926.6375 
   94800    304.20344   -1172.5048    6409.5953     11735.93    1854.2332 
   94900     300.2492   -1173.8139    6398.3259    11638.876    1842.0483 
   95000    297.83628   -1181.2613    6393.7016    11575.255     1894.914 
   95100    298.85993   -1179.6776     6418.649    11623.655    1872.8066 
   95200    301.08355   -1166.1407    6552.0763    11818.124    1907.4268 
   95300    301.85505   -1162.0731    6404.9099    11691.507    1854.7783 
   95400    297.98761   -1163.8854    6399.7593    11601.922    1991.7855 
   95500      299.546   -1161.4569    6426.8346    11664.718    1982.1742 
   95600    299.50276   -1163.5269    6369.2346    11604.125    1863.9724 
   95700    300.17333    -1159.155    6523.0048    11776.592    1955.4798 
   95800     299.2485   -1159.1457    6506.3861    11740.225    1873.1446 
   95900    302.09017   -1160.6564     6374.704    11667.741    1816.6112 
   96000    297.95837   -1159.1016    6359.8845    11566.206    1903.9342 
   96100    299.17245   -1158.1107     6489.463    11722.713    1992.2585 
   96200    304.13155    -1155.081    6310.8639    11653.087    1879.9921 
   96300    300.07693   -1152.9055    6421.0702    11678.848    1899.6273 
   96400    300.22278   -1154.7012    6544.9646    11804.063    1930.9927 
   96500      295.304   -1151.7793    6449.5936    11606.531    1846.6038 
   96600    300.74857    -1154.328    6392.7632    11663.467    1840.5487 
   96700    303.16233   -1156.2184    6463.6926    11784.072    1903.0363 
   96800    293.36081   -1156.0853    6482.0531    11593.171    1865.5039 
   96900    300.51184   -1158.0795    6416.0114    11677.906    1802.2222 
   97000    297.27778   -1163.4291    6490.9114    11678.366    1903.1712 
   97100    299.76916   -1163.9807     6398.026    11638.153    1837.4037 
   97200      303.923   -1162.5067    6393.6221    11723.964    1799.2888 
   97300    298.22939   -1156.6981    6364.2778    11578.793    1872.0362 
   97400    299.96845   -1156.9151    6426.9379    11678.388    1915.3005 
   97500    295.90684   -1159.8718    6442.3333    11604.057    1870.5974 
   97600    304.11068   -1160.0024    6334.5454    11671.401     1866.025 
   97700     296.2217   -1165.7894    6430.7925    11593.325    1848.8397 
   97800    298.65658   -1158.7553    6514.2109    11735.795    1830.9597 
   97900    300.48525   -1169.8451    6419.3688     11668.93    1814.9783 
   98000    306.11954   -1170.5792    6343.7054      11712.9    1886.3967 
   98100    298.23873   -1164.1468    6439.4214    11646.687    1934.4655 
   98200    302.78764   -1163.5691    6441.2302    11746.255    1936.8093 
   98300    298.30738   -1158.2152    6268.5809    11483.245    1923.9011 
   98400    301.30156   -1162.0948    6392.9387    11667.689    1933.7342 
   98500    299.58214   -1158.2374    6531.4204    11773.296     1936.486 
   98600    297.96815   -1161.2056     6348.492    11552.919    1909.0516 
   98700    295.61271   -1156.1427    6388.1001    11547.269    1954.2548 
   98800    301.88686   -1158.2612    6431.7054    11722.794    1894.6638 
   98900    299.25388   -1160.6832     6387.095    11619.512    1905.6293 
   99000     302.0625   -1157.5488    6481.3106    11776.864    1965.0121 
   99100     298.9489   -1160.6106    6364.5151    11590.489    1892.5319 
   99200    302.81165   -1161.1329    6321.2309    11629.204    1811.8413 
   99300    296.79096   -1157.5429    6399.9095     11582.85    1869.3631 
   99400    304.96339   -1153.6721    6517.0925    11878.495    1912.8009 
   99500    296.68104   -1153.6914     6414.154    11598.598    1823.3422 
   99600    303.44372   -1156.4807    6331.4512     11657.58    1856.5515 
   99700    301.79731   -1153.7425    6345.8966    11639.591    1835.7008 
   99800    300.60052   -1151.2014    6484.8468    11755.514    1856.7761 
   99900    300.22541   -1160.5171    6480.7484    11734.087    1880.9139 
  100000    301.01578   -1161.2829    6472.0211    11741.479    1915.2441 
  100100    297.29642   -1166.6349    6425.6626     11610.31    1870.6532 
  100200    300.10242   -1167.5777    6378.0358    11621.686    1930.4387 
  100300    295.29184   -1163.1731    6400.6337    11545.918    1979.5821 
  100400    302.38869   -1159.9754    6459.9572    11760.052    1980.3166 
  100500    299.69786   -1157.3814    6459.3061     11704.51    1868.8217 
  100600    297.94054   -1158.4381    6378.8584    11585.463    1925.5794 
  100700     303.9905    -1168.792    6323.0561    11648.555    1897.6757 
  100800    298.75768   -1160.6618    6428.9129    11650.751    1858.3026 
  100900    298.06426   -1161.6883     6499.834    11705.831    1972.8549 
  101000    301.57077   -1168.3947    6425.2401    11699.442    1945.9168 
  101100    299.60006   -1164.6474    6411.9819     11647.83    1893.3573 
  101200    295.47324   -1166.5274    6390.8074    11536.612    1863.0766 
  101300    302.21628   -1160.2934    6478.6951    11774.789    1875.3824 
  101400    300.38102   -1163.5186    6401.0338    11654.695    1881.1503 
  101500    294.39715   -1162.5605    6421.5816    11548.364    1952.7012 
  101600    307.15986   -1157.9725     6397.302    11801.329    2003.6833 
  101700    303.35713   -1165.0418    6390.8302    11706.548    1985.1299 
  101800    301.07178   -1166.6056    6558.6194     11823.95    2001.5955 
  101900    301.76471   -1157.9652    6369.4856    11658.261    1823.3518 
  102000    303.90599   -1164.9834    6465.1018    11792.604    1903.0835 
  102100    298.79706   -1167.7208    6467.7836    11683.404    1907.2134 
  102200    301.50231   -1162.8541    6287.0521    11565.332    1899.5569 
  102300    296.98599   -1157.2292    6418.8967    11606.317     1904.912 
  102400    303.76311   -1160.6603    6461.9414    11790.714    1886.4111 
  102500    298.52935   -1153.9253    6492.9285    11716.625    1937.6066 
  102600    296.85078   -1158.6336    6418.8015    11601.929    1925.3635 
  102700    297.67536   -1159.3897    6349.8379    11549.825    1920.0856 
  102800    302.11626   -1155.8229    6416.2566    11714.684    1899.2826 
  102900    298.85383   -1164.7576    6513.5393    11733.335     1868.319 
  103000    303.62415   -1160.0747    6448.4912    11774.881    1905.1122 
  103100    297.61375   -1158.6968    6434.4441    11633.808     1828.388 
  103200    304.05033   -1158.4293    6446.4831    11783.622    1889.2518 
  103300    297.12464   -1154.4608    6479.4836    11672.635    1910.6083 
  103400    305.05582   -1158.1361    6373.2673    11732.181    1870.0477 
  103500     295.0642   -1165.5027    6443.1543    11581.245    1869.7867 
  103600    300.16679   -1158.9998    6464.4465     11718.05    1913.0699 
  103700    296.26824   -1163.8195    6368.4463    11533.943    1835.4421 
  103800    302.90456   -1161.4628    6447.2692    11756.897    1860.8582 
  103900    300.14547    -1162.154    6311.6985    11561.692    1856.3628 
  104000    300.81329   -1159.3498    6451.2456     11718.31    1838.8482 
  104100    299.10932   -1157.0092    6446.7247    11679.727    1837.0344 
  104200       300.65   -1160.6169    6427.3554    11689.664    1920.2275 
  104300    303.07824   -1153.6137    6368.0169    11689.205    1847.4767 
  104400    299.40286   -1157.2476    6448.2735    11687.309    1911.1114 
  104500    300.96443   -1158.9216    6369.3551    11640.077    1874.7061 
  104600    297.00253   -1158.2967     6526.399    11713.106    1905.0197 
  104700    301.04486   -1163.4224    6320.9276    11588.867    1807.2168 
  104800    299.33889   -1168.0055    6481.2406    11708.151    1934.5884 
  104900    305.35294    -1160.176     6459.626    11822.847    1848.4511 
  105000    302.60241   -1158.7749    6454.0283     11759.89    1807.3849 
  105100     298.5053   -1156.9612    6392.3489    11612.496    1835.5017 
  105200     300.4954   -1155.1559    6466.6381    11731.105    1883.2828 
  105300    303.06207    -1152.428    6386.0601    11708.088    1892.2978 
  105400    296.45401   -1152.4531    6403.3027    11584.135    1883.9969 
  105500    294.45214   -1152.8084    6413.1639    11550.874    1812.5913 
  105600    302.92331   -1164.1377    6436.6445    11743.999    1872.1375 
  105700    299.43421   -1163.9628    6408.1884    11641.178    1837.4687 
  105800    300.89085   -1163.2773    6420.3599    11685.154     1864.308 
  105900    302.63412   -1165.1331    6398.4554    11698.636     1803.911 
  106000     299.7264   -1156.5785    6520.2536     11766.87    1884.1881 
  106100    301.87127   -1157.8432    6406.5203    11697.694     1846.333 
  106200    300.28715   -1157.4444    6395.3005     11653.03    1845.7249 
  106300     296.8133   -1161.3878    6440.5958    11620.169     1878.393 
  106400    302.80577   -1157.8539    6484.1822    11795.309    1887.3898 
  106500     297.6403   -1161.2955    6401.6419    11598.975    1878.5173 
  106600    303.49164   -1158.8756    6299.6349    11624.393     1789.779 
  106700    298.23909   -1163.1288    6396.2184     11604.51    1815.9976 
  106800    297.73108   -1168.0463    6467.0377    11659.559    1830.9701 
  106900    301.47411   -1164.7645    6545.1862    11820.954    1885.8506 
  107000     300.0369   -1169.6223     6383.866    11624.072    1855.0896 
  107100     299.4041   -1168.0036    6352.4078    11580.713    1918.2836 
  107200    302.55195    -1165.079    6394.6104     11693.09    1946.1685 
  107300    298.83372   -1164.3375    6404.0763    11623.863    1905.2924 
  107400     304.4727    -1164.426    6364.1273    11704.293    1913.1234 
  107500     300.2644   -1161.6148    6460.9897    11714.063     1936.273 
  107600    297.57879   -1163.5066     6466.808    11660.616    1907.1168 
  107700    301.88544   -1168.5985    6357.2686    11637.989    1891.0464 
  107800     297.9356   -1170.6575    6370.6229    11564.902    1845.3208 
  107900    301.78566   -1168.5553    6533.3273     11811.96    1917.2415 
  108000    302.22783   -1162.9918     6486.733    11780.375    1862.8057 
  108100    296.53993   -1161.8174    6372.7414    11546.045    1842.0618 
  108200    300.99666   -1164.3938    6427.7263    11693.664    1883.2063 
  108300    300.84195   -1165.4947    6453.1854    11714.717      1871.03 
  108400    299.35211   -1165.6954    6407.1054    11636.609    1865.2852 
  108500    301.29909   -1157.1305    6492.4798    11772.142    1930.0832 
  108600    297.97295   -1162.4629    6341.4927    11544.765    1832.3069 
  108700    300.33471   -1160.6628    6472.7082    11728.236    1917.0023 
  108800    298.88642   -1164.2838    6281.6177    11502.584    1764.0102 
  108900    298.81599   -1162.0471    6518.1857    11739.884    1829.5675 
  109000    303.89297    -1157.964    6463.8486    11798.092      1831.18 
  109100    297.43058   -1157.2124    6460.8295    11657.765    1886.6653 
  109200     300.3693   -1159.2362    6310.4907    11568.184    1850.3424 
  109300    296.06402    -1162.845    6439.4728    11601.581    1895.0057 
  109400    298.14632   -1159.3297    6483.9397    11694.049    1891.8145 
  109500    301.18095   -1159.4307    6377.0586    11651.897    1826.8363 
  109600    296.74287   -1158.8155    6497.2588    11677.899    1847.5323 
  109700    298.45684   -1158.3451    6417.7099    11635.437    1864.5039 
  109800    303.17132   -1162.3577    6420.8689    11735.301    1957.2014 
  109900    299.95151   -1162.4104    6487.2591    11732.852    1931.1787 
  110000    296.81903   -1167.2405    6421.9395    11595.782    1902.5128 
  110100     303.9458   -1162.3495    6460.2958    11791.282    1882.8762 
  110200    294.91548   -1164.4801    6505.3015    11641.238     1865.867 
  110300    303.09542   -1163.5962    6447.3614    11758.934    1893.4936 
  110400    296.06247   -1159.9297    6316.9744    11481.965    1889.7084 
  110500    294.99358   -1160.5989    6431.9744    11573.461    1887.6673 
  110600    302.04939   -1160.7529    6417.9643    11710.033    1844.2126 
  110700     300.4318   -1166.7131    6347.7757    11599.327    1934.2138 
  110800    300.01182   -1164.4063    6412.7581    11657.644    1948.9612 
  110900    305.96392   -1170.5982    6393.4382     11759.29    1855.0428 
  111000    298.41095   -1168.5389    6374.9523    11581.506    1846.8324 
  111100    301.66102   -1162.4843    6433.0631    11715.104    1899.0273 
  111200    298.47013    -1167.632    6423.0837    11631.808    1858.1974 
  111300    298.50149   -1168.8017    6421.2391    11629.464    1929.3493 
  111400    300.67869   -1162.2559    6406.0376    11667.321    1878.8167 
  111500     297.5405   -1159.4853     6380.495    11577.506    1863.0108 
  111600     300.9923   -1159.2083    6478.5373    11749.568    1915.3933 
  111700     304.2944   -1159.0247    6503.6781    11845.436    1904.5512 
  111800    297.65566    -1164.739    6457.3607    11651.578    1918.2777 
  111900    301.75248    -1157.516    6382.0325    11670.995    1860.9225 
  112000    293.39212   -1166.6598    6348.9101    11450.123    1858.5004 
  112100    301.05645   -1160.6352    6525.1772    11796.151    1938.6868 
  112200    303.44955   -1163.2765    6453.6864    11773.144    1888.3827 
  112300    298.65954   -1161.9075    6407.6267    11626.122    1866.7478 
  112400    301.45493   -1158.4554    6459.8665    11741.533    1948.3451 
  112500    304.28309   -1159.8888    6316.0241    11656.677     1846.769 
  112600    298.44222   -1162.3379    6472.0671    11685.489    1865.6833 
  112700    301.91629   -1157.5771    6576.5675    11868.969    1888.2772 
  112800    297.18178   -1159.3193    6447.5909    11637.104    1916.9455 
  112900    296.97176   -1169.0014    6315.8643    11491.209    1941.0552 
  113000    304.38003   -1166.6794    6393.3966    11729.329    1884.8194 
  113100    295.14201   -1163.0712    6418.5781    11560.763    1854.2371 
  113200    300.91408   -1164.9523    6464.7429    11728.358    1957.3927 
  113300    300.85501   -1163.6626    6355.1453    11618.788     1855.381 
  113400    295.88122   -1161.6162    6418.2822    11577.714    1898.4531 
  113500    303.37571   -1161.7086    6370.3152    11689.763    1886.7687 
  113600    299.15752   -1170.1138     6430.096    11651.024    1921.0035 
  113700    296.48558   -1168.7525    6391.3459    11556.553    1834.3492 
  113800    304.17542   -1172.7887    6470.1418    11795.594    1852.2482 
  113900    297.93123   -1164.5992    6571.0388    11771.283    1938.7569 
  114000    297.20274   -1176.8403    6397.7396     11570.18    1871.3419 
  114100    304.79221   -1174.2985    6297.3457    11634.465     1885.993 
  114200     298.5628   -1157.4834    6372.9485    11593.801    1870.2012 
  114300     296.2085   -1161.4342    6572.3407    11738.947    1950.3293 
  114400    300.42979   -1164.9306    6440.8416    11694.133    1910.3838 
  114500    301.68476   -1161.5147    6329.5161    11613.033    1858.7713 
  114600     300.6924   -1171.9637    6470.0767    11721.945    1929.3665 
  114700    304.66711   -1167.5455    6362.7212    11703.921    1790.4909 
  114800    298.35568   -1161.3579    6458.2375    11670.791    1853.8109 
  114900    298.48658   -1161.8435    6555.7914    11770.656    1926.1094 
  115000    300.33112   -1164.8471    6371.9232     11623.19    1900.0084 
  115100    302.05965   -1160.1215    6336.1005     11629.02    1884.2976 
  115200     300.9875   -1156.4065    6467.2407     11740.97    1911.8732 
  115300    299.47121   -1153.7551    6465.4806    11709.468    1879.2374 
  115400    298.08111   -1159.9737    6375.3851    11583.457    1860.5474 
  115500    303.59248   -1156.1142    6529.7591    11859.432    1895.6237 
  115600    298.01945   -1158.6209     6440.725    11648.832    1829.5677 
  115700    299.93227   -1156.7184    6438.5236    11689.398    1887.4854 
  115800    303.09296   -1155.6481    6284.2251    11603.693    1856.3588 
  115900    298.92779   -1155.1863    6382.4288    11613.376    1846.8343 
  116000    303.77494   -1154.8564    6505.3001    11840.129     1880.235 
  116100    302.71667   -1151.4847    6546.9226    11862.515    1942.6362 
  116200    299.98414   -1161.8218    6422.4666    11669.346    1948.8778 
  116300    300.00545   -1157.3048     6362.181    11614.032    1890.9311 
  116400    302.80457   -1157.5491    6370.1759    11681.582    1920.1213 
  116500    295.92397     -1161.24      6428.04    11588.762    1956.9642 
  116600     300.3652   -1161.4875    6391.0867    11646.441    1898.1729 
  116700    300.86014   -1161.8159     6474.302    11739.901     1905.026 
  116800    303.53524   -1163.5592    6379.9257    11700.931    1910.8534 
  116900    303.77796   -1164.6403     6374.983    11700.093    1853.9982 
  117000      296.996   -1160.0248    6503.5193    11688.358     1868.851 
  117100    302.78593   -1165.5467    6450.3612    11753.371    1920.5932 
  117200    295.02454   -1166.0732    6333.3475    11470.021    1853.5828 
  117300    306.98345   -1165.9893    6419.3899    11811.631    1858.8925 
  117400    300.23751   -1162.6559    6556.4763    11807.934    1941.6029 
  117500    301.35507   -1173.6374    6307.5181    11571.869    1932.6022 
  117600    301.71372   -1172.0607    6385.3462    11658.936    1938.1382 
  117700    302.04167   -1171.4688    6482.1371    11763.325    1924.6479 
  117800    296.05688   -1170.4026    6440.7689    11595.167    1869.2285 
  117900    300.22368   -1166.7686    6460.4693    11707.519    1881.4976 
  118000    302.82683   -1158.4166    6392.0845    11703.098    1929.3903 
  118100    301.58047   -1161.3092      6331.78    11613.275    1894.4031 
  118200    300.41632    -1159.758    6395.7441     11653.92    1897.4381 
  118300     297.3545   -1163.6515    6459.8913    11648.762    1900.4302 
  118400    299.15043   -1162.5684    6469.2742    11697.596    1927.7798 
  118500    299.60827   -1165.7425    6372.4691    11607.398    1920.0181 
  118600    298.38551    -1161.783    6416.7032    11629.469    1984.3676 
  118700    297.50212   -1156.2116    6472.6943    11672.159    1963.3132 
  118800    300.95325   -1159.0326    6470.7738    11741.146    1894.4248 
  118900    297.59735   -1165.0145    6420.5304    11613.227    1896.7125 
  119000     302.8798   -1155.0846    6316.5411    11632.019    1868.5408 
  119100    302.99124   -1155.0285    6516.8944    11834.809    1936.4874 
  119200    305.36589   -1157.5596    6437.1832    11803.297    1944.4309 
  119300    296.90174   -1159.5523    6459.5759    11642.874     1931.617 
  119400    297.30738   -1158.6328    6388.3064     11581.19    1880.5104 
  119500    305.46684   -1157.0712    6280.2582    11649.017    1878.4645 
  119600    298.59286   -1158.4667    6392.4486     11612.96    1935.9865 
  119700     304.7407    -1157.948    6386.7112    11739.081    1858.8185 
  119800    300.45922   -1163.3298    6516.6429    11772.163    1894.0308 
  119900    301.14598    -1159.596    6486.4501    11760.376    1823.7591 
  120000    298.02847   -1162.9256    6398.7055    11602.701    1913.5939 
  120100    303.31459   -1169.6501    6357.1926    11667.393    1947.6034 
  120200    298.61868   -1164.5084    6467.0524    11682.074     1898.598 
  120300    302.30576   -1165.0445    6526.6797    11819.934    1905.2798 
  120400    298.93278    -1166.729    6357.6148    11577.126    1835.3944 
  120500     294.9933    -1160.609    6433.0727    11574.543    1929.4358 
  120600    301.73428   -1167.6209    6425.0181    11703.487    1954.9798 
  120700    300.98383   -1165.9669    6346.5188     11610.61    1903.5949 
  120800     304.7914   -1166.4434    6336.7471    11681.704     1854.274 
  120900    304.01107   -1170.4968    6518.8101    11843.043    1924.6044 
  121000    299.64094   -1171.8097    6409.9159    11639.475    1956.6558 
  121100    297.96745   -1171.3459    6350.7557    11545.027    1943.5381 
  121200    302.12357   -1167.6168    6389.2919    11676.082    1902.1266 
  121300    299.94674   -1161.5985    6442.0245    11688.328    1914.3478 
  121400    300.63545   -1164.0529    6352.8308    11611.393    1848.6139 
  121500    303.75317   -1159.9162      6555.98    11885.284    1918.9304 
  121600    298.91566   -1169.6093    6443.5759    11659.841    1901.3252 
  121700    298.83437    -1163.818    6370.5636    11590.883    1894.1176 
  121800    296.21818   -1160.1673    6481.5412    11649.621    1882.1333 
  121900    301.75084   -1164.9288    6505.9269    11787.442    1987.5203 
  122000    296.68553   -1161.0852    6300.9576    11478.103    1843.3263 
  122100    301.76496   -1159.5575    6419.8192    11707.007    1836.7436 
  122200    298.08152   -1160.5475    6544.8345    11752.341    1952.1482 
  122300      304.935   -1159.4672    6360.3112    11715.312    1916.3519 
  122400    298.67845    -1156.495    6433.4285     11657.74     1887.875 
  122500    304.86732   -1156.3022    6390.4993     11747.22     1864.336 
  122600    299.16172   -1159.9792    6344.8536    11576.005      1863.01 
  122700    302.60149   -1155.6921    6490.8253     11799.75    1863.4729 
  122800    303.50247    -1155.704    6511.7382    11839.899    1869.5333 
  122900    297.73306   -1160.4235    6406.8664    11607.053    1874.9728 
  123000    298.42047   -1160.2171    6397.6847    11612.763    1826.0103 
  123100    303.18256   -1153.2674    6484.8664    11808.629    1877.5088 
  123200    296.51983   -1151.5018     6358.692    11541.881    1879.0976 
  123300    301.36823   -1158.6791    6433.6563    11713.247    1933.3659 
  123400    297.95957   -1162.1669    6441.0503    11644.332    1897.9705 
  123500    305.52968   -1161.5207    6307.4172    11673.069    1816.6893 
  123600    299.91439   -1168.5716     6427.085    11665.724    1916.1188 
  123700    298.68799   -1162.0382    6417.1379     11636.11    1841.9361 
  123800    304.94494   -1172.9247    6467.6185    11809.375    1866.9487 
  123900    299.00398   -1165.5907    6372.8185    11594.989    1792.9714 
  124000    297.62054   -1166.9235    6414.0562    11605.339    1781.1649 
  124100    300.87995   -1164.4499    6448.6034    11711.992    1891.7279 
  124200    302.66807   -1166.3302    6417.4234    11717.132    1950.5293 
  124300     298.8617   -1171.7054    6363.8494    11576.866    1976.9719 
  124400    300.49771   -1165.7516    6444.6333    11698.554    1904.2227 
  124500    296.75196   -1165.0336    6385.3418    11559.959    1902.4345 
  124600    300.10021   -1165.5535    6379.2563    11624.883    1870.9107 
  124700    292.22035    -1167.688    6429.3195    11504.471    1832.3946 
  124800    301.19401   -1174.1802    6397.5084    11657.876    1867.7072 
  124900    299.83956   -1167.0195    6413.2758    11651.869    1918.0263 
  125000    298.25481   -1167.6774    6430.2787    11634.358    1874.0267 
  125100    301.07815   -1166.2584    6434.1494    11699.964    1901.8999 
  125200    299.49828   -1164.9496    6365.9067    11599.278    1889.3858 
  125300    295.69874   -1162.6425    6313.3151    11467.822    1878.2888 
  125400    296.69036   -1156.4932    6493.7276    11675.569    1929.4815 
  125500    303.52512    -1160.258    6424.3385    11748.429    1931.4588 
  125600    301.28185   -1161.9556    6400.7743    11675.243    1890.5428 
  125700    304.44053   -1156.7684     6381.277    11728.413    1886.3959 
  125800    297.38437   -1162.1935    6518.4761    11709.443    1941.7201 
  125900    302.40358   -1157.9067    6482.0304    11784.512    1869.3192 
  126000    298.31442   -1156.2809    6422.4821    11639.231    1857.4616 
  126100    300.63549   -1160.1508    6433.8074    11696.273    1911.5067 
  126200    300.95339   -1152.8913    6405.6773    11682.193    1893.9945 
  126300    294.46548   -1152.4635    6471.2294    11609.569    1917.1344 
  126400    301.28868   -1154.8664    6481.5371    11763.241    1967.9372 
  126500     302.6469   -1156.1197    6471.1156    11780.582    1959.4162 
  126600    296.35986   -1156.0388    6425.8103    11601.045    1931.5653 
  126700    302.44126   -1160.8789    6289.4827    11589.797    1939.6526 
  126800    299.26646   -1164.3465    6402.7665    11631.789    1897.6723 
  126900    302.52857   -1164.1432    6508.3668    11807.282    1839.4933 
  127000    301.75908   -1158.4122     6551.373    11839.581     1924.864 
  127100    297.21885   -1157.2679    6429.0786    11621.435     1934.784 
  127200    302.22385   -1161.8489    6434.8481    11729.548    1926.1056 
  127300    300.98718   -1159.9271    6371.4993    11641.701    1940.7734 
  127400    300.57821   -1158.3518    6453.8667    11716.907    1986.5998 
  127500    307.11264   -1157.7697    6452.7794        11856     1935.748 
  127600    299.60197   -1166.1205    6402.6255    11637.041    1900.0871 
  127700    297.84871   -1164.4772    6423.4028    11622.006    1969.1059 
  127800    303.53275    -1169.334    6344.7577    11659.935    1893.2232 
  127900    294.27033   -1173.9181    6442.4642     11555.18    1771.7437 
  128000    299.44748   -1169.6384    6521.1662    11748.764    1879.2461 
  128100    300.27805   -1169.9884    6503.5035    11748.495    1855.4607 
  128200    301.85129   -1159.7943    6340.3454    11629.141    1833.0405 
  128300     297.4694   -1164.8007    6241.6013    11431.778    1857.7896 
  128400    298.17018   -1160.4249    6387.8965     11597.42    1979.4083 
  128500    300.28083   -1165.2914    6503.2445    11752.992    1969.6171 
  128600    301.64215     -1167.11    6387.9055    11664.917    1877.6467 
  128700    296.62957   -1161.9559    6482.4303     11657.51    1920.8586 
  128800    302.34418   -1164.6152    6427.2975    11721.802    1928.3009 
  128900    299.97475   -1160.4204     6348.451    11596.531    1852.3569 
  129000    299.20791   -1160.8863    6473.9973    11705.229    1959.1248 
  129100    300.57264   -1164.6636    6530.8666    11787.476    1946.9389 
  129200    300.73691   -1155.1063    6444.8358    11714.512    1797.9318 
  129300     298.6776    -1162.061    6398.2862    11617.014    1880.8404 
  129400    298.86991    -1158.372    6406.1147     11632.64    1872.0253 
  129500    303.75102   -1154.0729    6484.8249    11819.926    1887.3953 
  129600    297.78895   -1156.6634    6330.0307    11535.171    1822.9329 
  129700     299.4887   -1155.1101    6408.2504    11651.257    1890.0584 
  129800    299.15043   -1156.2134    6476.7353    11711.412     1896.257 
  129900    299.94099   -1159.9376    6372.0655    11619.907    1824.6744 
  130000    297.47423   -1157.5905    6405.9986    11603.489    1870.4072 
  130100     297.8858   -1154.9584    6414.0938    11623.008    1893.8295 
  130200    301.76224   -1152.2485    6420.4224    11714.861    1940.0557 
  130300    299.50154    -1158.956    6412.6718    11652.107    1897.3825 
  130400    300.44216   -1156.6292    6406.4408    11668.297    1896.9861 
  130500    297.23013   -1166.2628     6441.501    11625.104    1859.1212 
  130600    307.10747   -1154.0781    6355.9096    11762.711    1910.0911 
  130700    298.82652   -1159.1146     6497.288    11722.144     1922.794 
  130800    299.88286   -1163.0821    6403.3754     11646.83    1856.4796 
  130900    296.68607   -1162.4126     6404.748    11580.578    1837.6716 
  131000    302.46179   -1162.5918    6462.0769    11761.117    1918.9093 
  131100    300.56057   -1161.5902    6464.8201    11724.245    2047.4135 
  131200    303.66811   -1160.8944     6380.623    11707.132    2013.6156 
  131300    299.55024   -1167.2689    6369.9833    11602.146    1954.3201 
  131400    303.13136   -1161.1177    6517.6906    11832.509     1950.777 
  131500    297.40467   -1157.8457    6562.5858    11758.335    1969.3272 
  131600    301.25884   -1170.1754    6245.4561    11511.214    1864.3682 
  131700    299.06996   -1164.9547    6458.5667    11682.783    1927.6811 
  131800    298.20019   -1164.3479    6479.6985     11685.94    1878.0006 
  131900    293.49099   -1168.5662    6433.5534    11534.972    1820.3821 
  132000    298.60806   -1166.8198    6383.0269     11595.51     1902.658 
  132100    302.35199   -1170.0874    6452.3662    11741.565    1895.9345 
  132200    299.64524   -1161.4217    6456.5118    11696.551    1841.0614 
  132300    299.64366   -1166.1603    6414.3133     11649.58    1792.0132 
  132400    301.62592   -1166.6995    6518.4787    11795.554    1906.5796 
  132500    300.78772   -1161.3352    6407.1168     11671.65    1908.1349 
  132600    296.68898    -1164.732    6297.6379    11471.211    1889.7287 
  132700     301.3827   -1156.8939    6425.9043    11707.589    1915.2158 
  132800    301.01427   -1155.5094    6492.9202    11768.119    1905.4565 
  132900    301.87126   -1161.1924    6415.6027    11703.427    1911.7063 
  133000    298.22514    -1164.242    6416.4316    11623.312    1925.9077 
  133100    298.39024   -1160.5445    6371.1611    11585.266    1879.2062 
  133200    300.91215   -1158.4642    6454.2057    11724.268    1873.9879 
  133300    298.82432   -1162.3017    6398.1636    11619.785    1860.0383 
  133400    302.07285   -1161.2879    6512.7692    11804.804    1889.1782 
  133500    304.04215   -1162.7753    6436.8889    11769.508    1860.3067 
  133600    296.30064   -1159.0062    6456.0496    11627.052    1914.6733 
  133700    296.66097   -1157.4598    6387.1082    11567.355    1821.1177 
  133800    303.35223   -1161.3934    6423.0286     11742.29    1881.1302 
  133900    298.94848   -1163.8957    6387.8592    11610.539    1861.6916 
  134000     301.9134   -1159.6389    6515.3884    11805.666     1944.975 
  134100    300.13846   -1164.3772    6469.5582    11717.179     1887.999 
  134200    296.25393   -1164.8521    6412.0756    11576.234    1912.9917 
  134300    300.66981   -1166.5996    6347.4324    11604.182    1815.6371 
  134400    300.82816   -1164.9673    6407.2869    11669.052    1804.8211 
  134500    298.31558   -1164.7305    6406.6208    11614.945    1883.6207 
  134600    301.77448   -1157.7303    6436.4702    11725.689     1934.477 
  134700    299.39346   -1157.3212     6429.098    11667.859    1892.1343 
  134800    297.65372   -1154.6497    6385.0922    11589.357    1862.4447 
  134900    300.02433   -1161.4844    6359.7649     11607.84    1869.7585 
  135000    296.86611   -1168.9921    6387.0091    11560.106    1825.1403 
  135100    300.68316   -1169.3477    6439.9867    11694.273    1835.5017 
  135200    301.53033   -1164.9018    6477.1741    11754.005    1900.7164 
  135300    297.52058   -1168.4908     6419.265    11606.845    1809.3596 
  135400    305.89601    -1166.735    6408.0371    11776.301    1798.8809 
  135500    302.15704   -1164.3282    6435.6143    11726.408    1927.9866 
  135600    298.60589   -1163.4944    6402.5372    11618.299    1852.7288 
  135700    298.08473   -1164.4075    6422.0477    11625.763     1890.435 
  135800    299.11684   -1164.0287    6326.2177    11552.361     1871.297 
  135900    302.31013   -1164.3747    6463.3897    11757.407    1945.4696 
  136000    295.80917   -1165.4431    6515.1224    11669.188    1863.8481 
  136100    299.00702   -1162.4519    6474.2834    11699.658    1916.4689 
  136200    303.70828   -1169.1271     6326.447    11645.581    1886.7165 
  136300    299.74233   -1164.1459    6439.3627    11678.752    1874.5916 
  136400     297.9777   -1160.8267    6470.1971    11675.207    1852.9927 
  136500    300.95757   -1162.8139    6438.8023    11705.485     1859.466 
  136600    298.12803   -1153.4015    6350.7348    11566.381    1775.7608 
  136700    299.18852   -1157.1648    6287.1872    11521.726    1838.6766 
  136800    300.99226   -1160.5518    6391.4244     11661.11    1907.6906 
  136900    301.64784   -1166.1887    6505.1814    11783.236    1901.1958 
  137000     297.3407    -1160.124    6533.0332    11725.137    1884.4982 
  137100    302.49045   -1161.5699    6320.4842    11621.159    1789.4403 
  137200    295.26541   -1164.0689    6403.6537    11547.477    1827.1199 
  137300    306.40221   -1168.8017    6468.5569    11845.568    1888.6834 
  137400    302.23177   -1161.2014    6364.0985    11659.615    1817.4771 
  137500    296.74123   -1158.9507    6415.8567    11596.327    1817.3735 
  137600     304.2692   -1156.6146    6454.8035    11798.433    1880.6307 
  137700    296.34299   -1161.0918    6443.3335    11613.155    1838.1768 
  137800    301.22239   -1156.8794    6440.3802    11718.655     1897.989 
  137900    300.20837   -1165.5737    6299.7397    11547.657    1820.1786 
  138000    301.88926   -1163.9597    6395.4391     11680.88    1897.3085 
  138100    298.41721   -1166.5152    6386.9673    11595.678    1809.1324 
  138200     304.3891    -1160.232     6443.012    11785.586    1833.9845 
  138300    298.72551   -1158.6686    6505.9135    11729.057    1838.4073 
  138400    302.80855   -1163.7341    6420.2037     11725.51     1820.104 
  138500    301.70471   -1156.3055    6526.1099    11815.262    1889.1246 
  138600    300.38232   -1157.5832    6412.6705    11672.295    1882.5532 
  138700    304.88059   -1165.7212    6339.7066    11687.291    1900.8633 
  138800    299.31011   -1164.6291    6380.2343    11609.906    1891.9754 
  138900    300.27163   -1157.9309    6524.1079     11781.02    1846.9976 
  139000    300.17466   -1166.6115    6534.3043    11780.464    1886.0894 
  139100     300.2503   -1166.8836    6349.2729    11596.776    1855.2275 
  139200    299.31371   -1165.3907    6365.3124      11594.3    1872.8582 
  139300    300.70273   -1157.0958    6537.5601    11804.517    1936.6071 
  139400    298.23679   -1156.4955    6405.0706    11619.947         1903 
  139500    302.84039   -1156.8027     6370.417    11683.335    1914.8788 
  139600    296.53533   -1159.5556    6419.8731     11595.34    1865.6629 
  139700    304.92139   -1157.1483    6466.8185    11823.848    1914.3747 
  139800    297.30624   -1157.8866    6372.2557    11565.861    1865.1592 
  139900    301.57596   -1162.1012    6424.8106    11705.417    1934.1192 
  140000    299.60858   -1164.8053    6419.6781     11655.55    1923.9736 
  140100    300.47879   -1163.9233     6442.839    11698.184    1868.7308 
  140200    300.05704     -1158.85    6435.1661    11686.574    1884.9305 
  140300    293.94576   -1161.1397    6433.6503    11552.211    1913.1265 
  140400    301.61581    -1164.528     6376.411    11655.442     1832.588 
  140500    301.47357   -1161.5909    6554.9986    11833.928    1889.4841 
  140600    299.76905   -1163.0266    6363.5224    11604.602    1805.2114 
  140700    297.05862   -1161.3538    6388.6789    11573.527    1828.7421 
  140800    300.43221   -1162.8054    6425.9043    11681.372    1856.9369 
  140900    297.05489   -1163.9227    6484.5488    11666.748    1939.0145 
  141000    300.98391   -1162.7908      6355.57    11622.839    1819.1411 
  141100    295.78084   -1164.3842     6470.181    11624.701       1942.1 
  141200     302.4077   -1167.2078    6419.7921    11713.061     1939.149 
  141300    300.96827   -1166.0932    6445.3593    11708.991    1892.7138 
  141400    298.92996    -1153.642    6322.8849    11555.423    1817.3272 
  141500    299.10906   -1167.3502    6419.1949    11641.851    1919.5401 
  141600    294.72137   -1163.6615    6349.8902    11482.499    1809.1255 
  141700    300.66083   -1166.1321     6359.937    11616.962    1877.0435 
  141800    301.64433   -1160.9638    6525.4235    11808.628    1963.2007 
  141900    297.48392   -1167.7728    6379.4329    11566.948    1898.1019 
  142000    300.74328   -1166.8354    6460.0305    11718.114    1913.8855 
  142100    298.00424   -1162.5122    6500.2153    11704.106    1913.7414 
  142200      299.772   -1162.2006    6459.3353    11701.304    1904.9157 
  142300    304.16023    -1162.002    6340.9911    11676.906    1866.3268 
  142400    305.29501   -1159.6082    6468.9111    11831.462    1922.0323 
  142500    304.00193   -1162.7607    6429.6324    11761.407    1907.8157 
  142600    293.59484   -1162.9001     6440.713    11550.016    1818.5441 
  142700    298.95958   -1167.3291     6363.287    11582.771    1857.4709 
  142800    301.88796   -1161.6187    6426.0781    11713.832     1850.937 
  142900    291.45547   -1163.1807    6438.1768    11501.495    1799.5745 
  143000     293.6591   -1162.3459    6379.6155    11490.846    1792.8289 
  143100    304.28972   -1163.0382    6439.0395    11776.684    1883.9193 
  143200    296.81493   -1163.5561    6427.8399    11605.279    1836.4588 
  143300    300.81993   -1163.2335    6469.1942    11732.517    1898.5736 
  143400    302.01944   -1163.2482    6400.4001    11689.334    1883.5089 
  143500     300.9454   -1157.9801    6500.3562    11771.613    1890.5408 
  143600    304.61451    -1157.974    6396.9052    11746.553    1938.9131 
  143700    300.08153   -1162.2513    6414.0395     11662.57    1937.1962 
  143800    301.49788   -1159.2755    6345.4458     11627.21    1878.6416 
  143900    303.45162   -1162.5604    6371.7799    11691.998      1921.56 
  144000    296.53174   -1164.6334    6515.6275     11685.94    1903.8714 
  144100    298.37661   -1169.4553    6475.3776    11680.281    1877.9916 
  144200    305.84519   -1160.5794     6344.417    11717.751    1863.1783 
  144300     300.5161   -1163.5119     6493.648    11750.201    1957.0944 
  144400     306.2806   -1164.3139    6370.0062    11748.907    1904.2606 
  144500    304.48115   -1163.6229    6369.7822    11710.932    1861.8917 
  144600    297.37941   -1156.9964    6502.6679    11698.726    1922.4786 
  144700     301.6574   -1164.9698    6366.2531    11645.731    1936.3945 
  144800    296.44051   -1165.4736    6364.3732    11531.896    1908.6252 
  144900    299.46977   -1161.7108     6483.845    11719.846    1940.6089 
  145000    298.42871   -1167.8569    6403.2838    11610.898    1891.5919 
  145100    294.37633   -1165.2063    6352.3548    11476.047    1786.9232 
  145200    295.57517    -1172.294    6466.9346    11609.151    1912.0094 
  145300    299.48775   -1159.9014    6438.8693    11677.064    1928.2351 
  145400    299.31948   -1166.0956    6414.1856    11642.591    1938.4922 
  145500    305.94158   -1155.7061    6366.5063    11746.773    1904.5659 
  145600    301.14263   -1153.6214    6459.3862    11739.215    1980.2424 
  145700    297.01144   -1162.1589    6469.5577    11652.593    1892.0885 
  145800    302.07551   -1155.4556    6486.2453     11784.17     1945.303 
  145900    301.28358   -1165.8743     6360.025    11630.612    1880.8974 
  146000    299.35545   -1166.2247    6350.3134    11579.359    1900.9648 
  146100    300.48767   -1156.3694    6463.0047    11726.093    1896.5199 
  146200    299.02305    -1154.235    6379.7378    11613.671    1845.8287 
  146300    300.17805   -1155.5349    6439.5982    11696.907    1909.6617 
  146400    295.72871   -1157.3292    6354.2919    11514.753    1845.4987 
  146500     303.1485   -1154.5268    6526.6553    11848.431    1872.7403 
  146600    298.65199   -1161.1152    6595.7058    11814.832    1955.6645 
  146700    300.16333   -1159.0887    6322.8317    11576.272    1905.0237 
  146800    302.97478    -1164.973    6332.9798    11640.598    1844.3877 
  146900    299.19062   -1160.0543    6537.9434    11769.638    1928.7231 
  147000    299.74734    -1161.095    6407.2288    11649.776    1875.5829 
  147100     298.6892    -1155.411    6530.3877    11756.013    1902.0312 
  147200     301.7517   -1162.0459    6371.6963    11656.112    1822.6134 
  147300    301.31189   -1165.6428    6369.2279    11640.651    1943.1574 
  147400    299.29298   -1158.4871    6495.6986    11731.147    1947.0402 
  147500    299.89656   -1159.8134    6431.3224    11678.339    1901.9713 
  147600    304.82075   -1156.9344     6344.688    11699.781    1898.1751 
  147700    294.87223   -1162.0184    6418.3122    11555.786    1890.0359 
  147800    294.02383   -1156.6315    6454.1323    11578.869    1905.7842 
  147900    301.63681    -1163.151    6381.1689    11662.026    1864.5858 
  148000    295.18511   -1167.5989    6356.6965    11495.275    1838.2415 
  148100    299.95487   -1168.8608    6400.3007    11639.515     1847.602 
  148200    302.43168   -1169.7073    6414.0926    11705.374     1880.595 
  148300    298.28246   -1164.3584    6429.8497    11637.839    1894.6635 
  148400    297.03995   -1159.2526    6370.5598     11557.11    1873.9745 
  148500    302.76367   -1162.4296    6408.1255    11713.777     1946.241 
  148600    298.19124   -1157.1496    6359.5395    11572.788     1913.097 
  148700    301.38246   -1155.9234     6406.043    11688.693     1915.331 
  148800    301.16451    -1161.265    6390.4201    11663.073    1892.2267 
  148900     300.9186   -1158.7731     6483.172    11753.063    1861.5799 
  149000    301.84293   -1157.7808    6408.1907    11698.821    1830.1513 
  149100    300.30813   -1165.1675    6482.0321    11732.487    1868.1351 
  149200    299.43067   -1158.2804     6427.297    11665.893    1882.8966 
  149300    299.64385   -1159.1697    6281.7567    11524.018    1855.2844 
  149400    300.36707   -1150.8339    6431.5341    11697.582    1940.4589 
  149500     300.1078    -1148.772    6468.2239    11730.795    1852.4504 
  149600    300.49644   -1148.7987    6482.3052    11753.152    1900.2628 
  149700    300.68345   -1155.6638    6357.1408    11625.118    1906.2274 
  149800    306.07395   -1158.5532     6357.159    11737.406     1888.554 
  149900    301.65604   -1159.4003    6591.9594    11876.978    1946.8291 
  150000    303.93024   -1158.2206    6504.2752    11839.058    1932.4439 
  150100     298.0371   -1153.9976    6329.5927      11542.7    1826.4738 
  150200     299.2257   -1158.5107    6487.2953    11721.283    1905.0959 
  150300    296.43796   -1158.1488    6497.8859    11672.679    1943.7204 
  150400     299.5661   -1156.5149    6342.1025    11585.358    1870.4817 
  150500    300.39859   -1159.6339    6319.5027    11577.424    1804.2401 
  150600    303.67525   -1156.9071    6429.2265    11759.875    1848.3897 
  150700    300.00166   -1158.1248    6550.0457    11800.996    1917.5942 
  150800    298.29281   -1164.8765    6379.3664    11587.058    1906.7642 
  150900    302.06149   -1158.8618    6365.1334    11659.352    1935.0229 
  151000    294.11513     -1163.91    6486.8467    11606.255     1937.739 
  151100    299.61823   -1168.5292    6409.6079    11641.962    1905.7534 
  151200    304.35674   -1164.8358    6326.4084    11663.687    1833.1205 
  151300    299.93032   -1164.3105    6428.9107    11672.151    1904.4205 
  151400    296.62385   -1156.4818     6373.698     11554.13    1888.6687 
  151500    303.58179   -1165.0415    6332.3346    11652.852    1880.4725 
  151600    298.28598   -1168.6196    6526.7821    11730.585    1961.5548 
  151700    297.54894   -1169.8245    6396.5314    11583.383     1864.516 
  151800    295.02508   -1165.4901    6455.6407    11592.909    1896.9067 
  151900    298.32379   -1161.9293     6347.068    11558.369    1874.7081 
  152000    300.53457   -1164.2947    6294.8257    11550.991    1867.4336 
  152100     295.9675   -1166.2106    6516.0463    11672.727     1923.011 
  152200    301.44389   -1155.5741    6451.7962    11736.108    1905.5647 
  152300     295.8215   -1159.6746    6357.1974    11517.295    1885.0834 
  152400    302.80559   -1163.3413    6386.3915    11692.027    1913.9628 
  152500    300.90369   -1163.1851    6420.5538    11685.714    1830.1613 
  152600    298.67997   -1161.3414    6489.0382    11708.536    1811.9763 
  152700    303.45887   -1160.2941    6595.8683    11918.507    1915.6233 
  152800    299.73107   -1154.7875    6292.0385    11540.545    1798.6212 
  152900    298.74329   -1157.7663    6426.5789    11651.005    1875.0707 
  153000    299.87242   -1159.7737    6413.4735    11660.014    1943.9659 
  153100    297.57045   -1156.9011    6472.6818    11672.917     1911.218 
  153200    298.74023   -1158.8753    6435.2028    11658.454    1830.4417 
  153300    300.68661   -1158.4919    6392.0745    11657.291     1876.647 
  153400     297.6504   -1153.8294    6453.0139    11658.029    1911.4365 
  153500    294.03685   -1154.5058    6411.7912    11538.932    1845.3853 
  153600    298.82975   -1156.9825    6391.5177    11618.574    1860.3273 
  153700    302.05483   -1153.3673    6510.3742    11809.945    1900.8705 
  153800    300.45307   -1155.4381    6404.4164    11667.697    1888.8095 
  153900    301.30991   -1156.8844    6426.6393    11706.779    1907.1428 
  154000    297.53242      -1164.4    6341.4931    11533.417    1900.4759 
  154100    305.07633   -1163.0469    6370.1609    11724.602    1917.5032 
  154200    297.85368   -1161.6027    6377.8437    11579.428    1831.4809 
  154300    297.21606   -1154.4276    6553.5984    11748.736    1846.5193 
  154400    295.32717   -1159.9791    6553.2858    11702.519    1883.6574 
  154500    299.93865   -1163.3768    6327.3191    11571.671    1896.2854 
  154600     297.4213   -1160.9013    6320.8299    11513.878    1853.4986 
  154700    297.51829   -1162.8054     6514.711    11707.927    1910.0743 
  154800    302.62762   -1160.9113    6457.2226    11761.486    1881.3184 
  154900    297.54263   -1170.0869    6384.3841    11570.839    1861.1281 
  155000    300.26045   -1163.7256    6557.6507    11808.529    1991.7629 
  155100    297.99615   -1166.3002    6407.5837    11607.514    1952.3173 
  155200    301.52411   -1166.4993    6371.7387    11646.839    1925.0739 
  155300    300.26072     -1163.53    6425.8749    11676.954    1913.3726 
  155400    297.75148   -1162.8803    6492.1379    11690.261    1937.1621 
  155500    300.08907   -1162.0963    6349.3839     11598.23    1846.2503 
  155600    300.56337   -1165.3062    6401.8856    11657.655    1908.9228 
  155700    302.20524   -1164.5744    6402.0536     11693.63    1945.9493 
  155800    296.12935   -1168.4132    6396.8697    11554.806    1915.3587 
  155900    299.05477   -1170.0634    6456.7399    11675.523    1905.8468 
  156000    301.63008   -1167.0264    6520.6776    11797.515     1941.527 
  156100    298.85657   -1168.0371    6365.0417    11581.617    1868.3141 
  156200    300.08119   -1166.5707    6354.1261     11598.33    1896.6648 
  156300    302.61354   -1163.3782    6490.1734    11791.669    1924.0758 
  156400    298.08207   -1159.7279    6420.2113     11628.55    1895.8043 
  156500    301.73985   -1161.4856    6383.1553    11667.879    1947.5102 
  156600    302.68687   -1163.2244     6405.486    11708.702     1922.576 
  156700    298.37599    -1168.008    6407.7387    11614.076    1839.0754 
  156800    299.26132   -1170.3195    6426.1738    11649.113    1929.2336 
  156900    301.04821   -1165.0048    6416.8493    11683.278     1871.465 
  157000    297.24383   -1154.0584    6581.8184    11777.918     1921.741 
  157100    301.45692    -1165.924    6426.4517    11700.692    1899.7579 
  157200    301.33188   -1162.4472    6346.5286    11621.575     1863.637 
  157300    299.43099   -1164.8859    6416.2456    11648.244    1898.6136 
  157400    298.45569   -1163.4698    6454.7522     11667.33    1835.5389 
  157500    301.45917    -1158.807    6492.8837    11774.289    1913.7021 
  157600    298.92787    -1166.659    6322.7396    11542.216     1878.016 
  157700     301.0899   -1164.9404    6411.1741    11678.558    1928.7013 
  157800    297.77782   -1162.2042    6480.4274    11679.789    1937.3396 
  157900    302.30808    -1165.907    6494.8373    11787.279    1924.2869 
  158000    297.64531   -1165.7353    6374.1322    11567.132    1807.9461 
  158100    301.81328   -1164.8834    6375.9439    11658.838    1852.3584 
  158200    300.47126   -1162.6309     6516.921    11773.398    1898.8599 
  158300    299.91859   -1161.5757     6491.631    11737.356    1871.0703 
  158400    301.99943   -1158.5476    6295.7339    11588.941    1824.5945 
  158500    295.02472   -1162.4087    6367.5807    11507.923    1869.3765 
  158600    304.59869   -1161.2856    6529.4993    11875.497    1934.8944 
  158700    297.39238     -1159.81    6527.2632    11720.785    1899.3472 
  158800    304.16986   -1163.5015     6486.585    11821.206    1899.7334 
  158900    300.17848   -1166.1669    6387.2528    11633.938    1815.1411 
  159000    297.50929   -1168.1643    6458.1538    11645.819    1823.2344 
  159100    302.34002   -1166.7667    6402.8149    11695.079    1820.3932 
  159200    296.30939   -1161.1059     6445.288    11614.378    1803.3429 
  159300    300.69475   -1164.9144    6304.2582    11563.226    1849.7425 
  159400    298.28015   -1160.8112    6426.0844    11637.571    1901.5782 
  159500    305.21331   -1159.5276    6432.6688    11793.555    1922.3201 
  159600    298.31917   -1155.9251    6357.7851    11574.991    1886.2307 
  159700    305.03607   -1160.1532    6421.3134    11777.788    1928.2737 
  159800    303.87025   -1168.3837    6498.6049    11821.943    1913.0431 
  159900    294.58975   -1171.2624    6467.8779    11590.074    1806.5227 
  160000    301.63598   -1170.5719    6385.4929    11658.911    1861.0735 
  160100    297.11213   -1171.8558    6412.6353    11588.124     1871.835 
  160200    298.72479   -1173.1107     6370.557    11579.243    1907.8306 
  160300    294.24642   -1162.5717    6466.9077    11590.459    1888.1531 
  160400    302.73595   -1160.8703    6448.7467    11755.365    1913.7124 
  160500    300.54618   -1168.4047     6470.171    11722.474     1965.095 
  160600     303.5791    -1163.469    6245.3737    11567.406    1870.7974 
  160700     298.6155    -1164.401    6335.9588     11551.02    1895.1925 
  160800    302.00863   -1167.5197    6456.5883    11741.019    1893.0129 
  160900    300.44743    -1171.512    6418.5793    11665.666    1837.2912 
  161000    293.62997   -1174.1509    6500.3153    11599.118    1850.9801 
  161100    298.42711   -1174.6425    6558.7966    11759.591    1927.2853 
  161200     300.2889   -1164.8554    6422.0593    11672.415    1858.2074 
  161300    299.16224   -1163.4822    6332.8699     11560.53    1822.1717 
  161400    302.70339   -1154.7795    6456.8907    11768.905    1960.0218 
  161500    297.77787   -1160.2243    6362.7118    11564.055    1912.5465 
  161600    302.13399   -1158.0206    6403.4024    11700.011    1937.0807 
  161700    304.35574   -1156.0953    6373.0634    11719.062    1893.9621 
  161800    298.74442   -1162.2548    6448.6871    11668.648    1920.3685 
  161900    299.57484   -1163.1781    6365.0293    11601.808     1872.307 
  162000    300.40052   -1159.8875    6467.9765    11725.685    1934.9266 
  162100     299.3033   -1161.9784    6460.4723     11692.65    1916.8848 
  162200    304.70128   -1157.1828    6373.9709    11726.263    1860.7432 
  162300    295.54011   -1163.0347    6340.8557    11491.582    1866.5346 
  162400    305.79779    -1154.458    6430.7159    11809.158    1949.9633 
  162500     298.4974   -1156.3167    6478.8409    11699.463    1900.9111 
  162600    299.02339   -1153.1385    6345.0099    11580.047    1928.8812 
  162700    292.58787   -1161.9329    6375.6711    11464.429    1920.8535 
  162800    300.46682   -1159.9147    6527.9004    11786.998    1929.4893 
  162900    298.79413   -1162.6934     6511.675     11732.26    1895.7949 
  163000    299.79603   -1161.3755    6370.8482    11614.155    1896.2008 
  163100    301.73006   -1163.9248     6437.289    11719.364    1917.0702 
  163200    299.86357   -1161.7728    6473.5166    11717.869    1859.1021 
  163300    300.76948   -1169.4857    6362.5214    11618.514    1883.3145 
  163400    296.20632   -1168.4805    6430.3494    11589.862    1910.2498 
  163500    301.10578   -1161.0916    6421.4627    11693.034    1864.5515 
  163600    301.05742   -1158.0606    6425.6565    11699.226    2021.7787 
  163700    299.98926   -1166.7559    6397.2065    11639.261    2040.5769 
  163800    301.11257    -1165.399    6339.7234    11607.132    1917.2461 
  163900    297.70114   -1166.7178    6484.8511    11678.061    1892.1498 
  164000    302.67123   -1166.7271    6520.6189    11819.998    1897.2423 
  164100    298.22344   -1166.1627    6443.1857    11648.109    1914.4023 
  164200    299.97948   -1170.3663    6386.7641    11624.999    1911.3676 
  164300    296.05804   -1170.2764    6404.3589    11558.908    1883.6592 
  164400    301.57245   -1165.8477    6457.9613    11734.746    1890.1415 
  164500    298.79464    -1160.547    6410.7418    11633.484    1882.3533 
  164600    301.94448   -1160.4154    6373.5818    11663.747    1909.2364 
  164700    302.60618   -1154.1029    6354.5485    11665.162    1882.8169 
  164800     298.1144   -1157.6828     6425.979    11637.053    1900.4483 
  164900    301.79305     -1166.08    6453.4301    11734.695    1933.1229 
  165000    296.31067   -1164.6876    6462.7691    11628.304    1898.1707 
  165100    299.42431   -1159.0081    6376.9844    11614.717    1836.0617 
  165200    300.77841   -1161.2695    6404.0517    11668.451    1960.2541 
  165300    300.21326   -1158.6345    6456.9377    11711.899    1968.3197 
  165400    299.64599   -1157.8514    6474.8176    11718.443    1930.6633 
  165500     304.5616    -1156.376    6491.5491    11841.664    2021.0636 
  165600    298.73255   -1151.3703      6494.06    11724.652    2005.0327 
  165700    302.18949    -1154.196    6331.5136    11633.132    1938.1133 
  165800    298.98737   -1153.8109    6350.4789    11584.074    1969.9453 
  165900    305.42418   -1153.8341    6515.1517    11886.237    1971.7634 
  166000    297.31841    -1158.281     6445.175    11638.646     1882.259 
  166100    301.28411   -1161.4177    6409.1216    11684.176    1902.7074 
  166200     299.6831   -1159.7136    6407.8307    11650.387    1867.2823 
  166300    297.43454   -1166.4895    6518.4367     11706.18    1897.3947 
  166400    300.04503   -1160.2305    6398.0165    11647.788    1887.9441 
  166500    299.25587   -1166.7474    6484.1013    11710.496    1982.3013 
  166600     302.1293   -1164.4856    6306.0827    11596.126    1881.4664 
  166700    302.99235   -1156.8617    6354.5203    11670.625    1912.3782 
  166800    294.19439    -1156.461    6523.1204    11651.671    1974.4787 
  166900    298.93501   -1163.1216    6389.3923    11612.558    1852.0813 
  167000    297.51494   -1163.3248    6388.4467    11581.072    1810.6214 
  167100    302.09432   -1171.2914    6413.7577    11696.248    1882.9468 
  167200      294.128   -1177.7844    6487.5229    11593.332    1901.6556 
  167300    303.86592   -1174.0426    6405.1688    11722.755    1906.2516 
  167400    296.46286   -1168.8683    6486.6556    11651.261    1974.8287 
  167500    300.13363   -1165.7572    6392.8162    11638.954    1869.6686 
  167600    300.07877    -1168.628    6433.1487    11675.243    1859.7961 
  167700    300.39075   -1161.8298    6381.0485    11636.606    1932.6445 
  167800    293.29734   -1163.1004    6357.3464    11460.094     1958.842 
  167900    301.95862   -1163.0846     6291.884    11579.682    1928.8966 
  168000    301.27004   -1165.1545    6471.7294    11742.747    1926.4877 
  168100    297.10658   -1164.9778    6457.0103    11639.259    1950.0705 
  168200    300.69152   -1170.5989    6378.3577    11631.572     1982.056 
  168300    300.78007   -1163.5383    6366.3365    11628.503    1811.8259 
  168400    300.08038   -1159.7148    6550.6844    11801.726    1872.5272 
  168500    300.93286   -1166.3126    6369.8725    11632.529    1873.9461 
  168600    298.60073   -1163.1516    6366.9542    11582.949    1842.4038 
  168700     299.7113   -1156.0982    6451.7094    11698.483    1864.1791 
  168800    298.53223   -1157.8973    6504.8199    11724.606    2017.9608 
  168900     300.6968   -1153.3067    6424.1849    11694.804    1906.5616 
  169000    298.32548   -1148.1158    6463.0596     11688.21    1899.3034 
  169100    297.52462    -1159.431    6475.5164    11672.242    1985.3904 
  169200    303.33383   -1159.7527    6276.5249    11597.034    1839.3903 
  169300    303.19534   -1158.2398    6510.6436    11829.707    1867.2407 
  169400    293.89503   -1158.4895    6486.5134     11606.64    1917.9383 
  169500    302.41147   -1160.8527    6361.0659     11660.77    1891.0649 
  169600    299.12501    -1156.994    6265.9754    11499.328    1836.8047 
  169700    301.73331   -1151.6774     6471.809    11766.201    1939.8231 
  169800    302.93834   -1158.2125    6564.2855    11877.886    1940.4549 
  169900    302.17067   -1155.9314    6402.5998    11702.081    1816.2444 
  170000    300.96119   -1159.6271    6398.3418    11668.289    1824.8455 
  170100    309.29271   -1158.9524    6443.3082     11891.92    1978.4056 
  170200    301.67064   -1168.0922    6449.9316     11726.57    1909.0988 
  170300    298.90194   -1163.2712     6374.535    11596.845    1838.7405 
  170400    303.32293   -1162.6758    6419.6333    11736.987    1960.1392 
  170500    298.13145   -1164.5345    6453.9213    11658.508    1889.3151 
  170600    301.74153   -1168.8911    6483.9475    11761.301    1796.3738 
  170700    297.31067    -1167.953    6522.5855    11706.219    1908.4135 
  170800    299.48437   -1171.1111     6277.088    11504.001    1873.0536 
  170900    302.69626    -1167.267    6386.0695    11685.444     1908.514 
  171000    305.35244   -1168.7563    6454.3208    11808.951    1917.0779 
  171100    302.68279   -1167.2573    6419.6636     11718.76       1956.9 
  171200    297.59466   -1165.2815    6408.5843    11600.956    1881.9544 
  171300    301.34265   -1162.8736    6365.8384    11640.688    1927.8994 
  171400    302.35021   -1163.6027    6418.6957    11714.341    1944.5169 
  171500    296.32104   -1167.2609    6397.0469     11560.23    1872.1158 
  171600     301.4012   -1169.6594    6479.9114    11749.226    1884.8764 
  171700    295.51746    -1154.757    6475.0616    11633.582     1911.258 
  171800    302.67319   -1162.4162    6336.7085    11640.441    1831.0056 
  171900    301.67306   -1165.4647    6407.5582    11686.875    1859.7533 
  172000    296.71704   -1160.8239    6489.2772    11667.358    1940.1255 
  172100    299.41784   -1160.3659    6370.6863    11606.923    1829.0268 
  172200    299.85542    -1155.174    6442.2862    11693.063    1875.0605 
  172300    294.93737   -1156.2902    6433.3731    11577.967    1908.5756 
  172400    303.35686   -1152.8348    6323.4305     11651.35    1892.1916 
  172500    300.07291   -1155.8919     6493.929    11748.634    1879.3551 
  172600    295.39017   -1162.7807    6514.1168    11661.894    1859.7082 
  172700    301.57903   -1153.0957    6421.8622     11711.54    1863.4136 
  172800    298.92547   -1156.4145    6420.9698    11650.639    1889.8271 
  172900    304.44799   -1158.0962    6475.4727    11821.441    1942.3636 
  173000     298.2141   -1152.3931    6420.0401    11638.534     1886.805 
  173100    301.02604   -1150.1895    6366.3726    11647.143    1860.5011 
  173200    300.56059   -1151.6892    6488.2712    11757.598    1998.3043 
  173300    293.92637   -1155.9951    6496.0932    11619.384    2026.9302 
  173400    299.89467   -1157.6445    6439.6551      11688.8    1936.1274 
  173500    304.52092   -1156.7007    6451.3061    11800.228     1921.807 
  173600    298.88225   -1160.9984    6476.0399    11700.202    1922.1235 
  173700    302.79435   -1161.0785    6514.8212    11822.479    1930.2577 
  173800     295.1187   -1169.0018    6366.2099    11501.966    1846.2056 
  173900    299.89832   -1161.7567    6432.5915    11677.702    1945.2605 
  174000    305.42492   -1158.8973    6421.5442    11787.582    1916.1906 
  174100    297.36363    -1166.031    6386.7777    11573.464    1924.5555 
  174200    299.41763   -1166.5949    6373.3361    11603.339    1960.2121 
  174300    303.33706   -1163.3902    6391.0915    11708.032    1922.6499 
  174400    300.74991   -1163.4685    6456.4886    11718.081    1879.6045 
  174500    299.65281   -1167.7453    6401.9509    11635.828    1863.0656 
  174600    300.06032    -1168.063    6421.4035    11663.669    1884.4524 
  174700     298.0195   -1171.7913    6414.8165    11609.755    1898.6389 
  174800    297.67266   -1167.4616    6402.1531    11594.011     1859.114 
  174900    295.53702   -1169.9056    6364.6468    11508.436    1918.2707 
  175000    302.75726   -1167.0511      6435.51    11736.403     1918.313 
  175100    299.88442   -1165.5886    6504.4435    11745.425    1945.3391 
  175200    299.84525   -1169.8534    6330.5489    11566.429    1904.6482 
  175300    304.64468   -1161.6616    6449.0099    11795.614    1944.8249 
  175400    295.89135   -1163.6578    6422.2858    11579.893    1904.6387 
  175500    300.35051   -1160.3757    6397.1825    11653.335    1918.1313 
  175600    297.40961   -1161.9847    6425.8413    11617.556    1905.6625 
  175700    302.20567   -1160.5066    6506.2903    11801.944    1878.7204 
  175800    295.37185   -1156.5343    6401.7037    11555.336    1879.4498 
  175900    301.03619   -1158.6793     6458.015    11730.512    1909.1199 
  176000    301.62059   -1158.2751    6511.0873    11796.473    1899.9094 
  176100    297.42494   -1157.7159    6465.3302    11661.642    1942.7527 
  176200    300.37744   -1159.6266    6342.3991    11599.876    1922.4544 
  176300    298.39243   -1158.0917    6419.8179    11636.423    1863.1922 
  176400    301.58123   -1156.0655    6561.3772    11848.132    1948.3925 
  176500    299.72966   -1152.3254    6347.8316    11598.771    1893.7057 
  176600      300.725   -1155.7149    6403.0418    11671.855    1893.2957 
  176700    299.13214    -1160.534    6389.0698    11619.035    1876.6541 
  176800    303.58657   -1154.3312    6538.0098     11869.34    1933.8039 
  176900    303.70137   -1152.9354    6396.4735    11731.652    1891.7062 
  177000     296.8593    -1159.443    6355.0102    11537.511    1930.6737 
  177100    303.21311   -1158.0511    6453.5435    11773.175    1975.1022 
  177200    298.51218   -1161.9852    6501.8881    11717.158    1974.3223 
  177300    306.22901   -1163.5369     6387.596    11766.172    1971.9925 
  177400     301.6138   -1163.5537    6446.2546    11726.217    1951.5372 
  177500    303.57724   -1164.0902    6447.9634    11769.335    1922.6353 
  177600    299.14344   -1164.9056     6423.603    11649.438    1913.7398 
  177700    299.55426   -1167.4268    6451.4242    11683.515    1885.7574 
  177800      301.377   -1161.3048    6499.4732    11776.626    1915.3265 
  177900    300.45475   -1162.4965     6419.206    11675.464     1935.196 
  178000     299.1177   -1162.2231    6365.6571    11593.625    1852.6732 
  178100    298.75596   -1166.3337    6487.7703    11703.899    1905.4457 
  178200    300.15507    -1166.695    6371.6647    11617.322    1946.9243 
  178300    299.89867   -1171.1264    6358.4857    11594.234    1904.0793 
  178400    300.06665   -1168.8126    6488.0673    11729.718    1894.4569 
  178500    298.44132   -1168.7959    6528.6186    11735.564    1899.9709 
  178600    303.54879   -1170.6315    6371.5068     11685.73    1907.6743 
  178700    297.78398   -1168.9371    6299.1153    11491.876    1881.1006 
  178800     303.9414   -1161.8826    6446.0908     11777.45    1938.5675 
  178900    301.02723   -1160.7606    6601.8539    11872.078    1971.7976 
  179000    296.48768   -1168.8247    6475.8481    11641.028    1927.2366 
  179100    304.35138   -1164.2883    6382.7487    11720.461    1949.2866 
  179200    305.59616   -1165.8178    6352.9434    11715.719      1975.79 
  179300    301.17021   -1168.5516    6409.1181    11674.606    1979.6023 
  179400     303.8122   -1164.5853    6422.0347    11747.931    1898.9859 
  179500    295.80037   -1164.7237    6524.6181    11679.216    1955.3156 
  179600    302.83285   -1171.7732    6514.0177    11811.804    2024.6666 
  179700    298.42304   -1163.5366    6357.4217    11569.236    1963.0181 
  179800     297.2783    -1161.497    6327.8991    11517.297    1947.4777 
  179900    304.49349   -1156.1911    6535.0361    11883.881    2043.6549 
  180000    295.84422   -1156.4199    6403.4752    11567.313    1869.2767 
  180100     300.7056   -1162.1112    6486.7167    11748.719    1928.9083 
  180200    303.60383   -1162.7608    6381.6336    11704.903    1917.3193 
  180300     300.3221   -1165.4622      6367.76    11618.219    1878.5632 
  180400     295.3812   -1164.6556    6376.8928    11522.603    1902.5592 
  180500    301.83943   -1162.3709    6391.9849     11677.95    1881.2426 
  180600    304.04169   -1160.2449    6577.7562    11912.895    1927.5985 
  180700    296.99846   -1159.3974     6449.876    11635.395    1884.9039 
  180800    301.46117   -1160.1081     6337.758    11617.905    1879.2703 
  180900    296.65296   -1158.8712    6358.2654     11536.93      1893.94 
  181000    301.16214   -1160.5844    6473.0786    11746.361    1929.6626 
  181100    304.45516   -1156.6472    6451.7139    11799.284    1918.5484 
  181200    295.89989    -1163.193    6494.0081    11652.262     1836.516 
  181300    301.51442   -1160.3822    6495.6731    11776.684     1944.925 
  181400    299.47836   -1159.2261    6308.0054    11546.675     1977.453 
  181500    300.81725   -1156.1563    6432.7322    11703.075     1994.152 
  181600    294.17775   -1162.7545    6496.6609    11618.563    1922.1249 
  181700    301.30192   -1156.8737    6420.8677    11700.847    1874.9808 
  181800    298.04645   -1159.0488    6448.7406    11656.997     1912.723 
  181900    301.88165   -1155.7955    6366.7577      11660.2    1928.5034 
  182000    300.07011   -1160.5339    6377.7129    11627.716    1884.0779 
  182100    302.49183   -1157.8019    6402.3954    11706.867      1884.86 
  182200     298.4405   -1156.4408    6458.5006    11677.783    1936.5568 
  182300    302.51976   -1161.6199    6411.5462    11712.797    1924.9857 
  182400    295.18135   -1168.3799    6519.3491    11657.066    1909.8395 
  182500    302.73918   -1165.5911    6489.2996    11791.266    1942.0027 
  182600    301.47619   -1162.5524    6421.5995    11699.623    1895.5722 
  182700    294.02578   -1163.5853    6466.0063    11583.831    1914.7341 
  182800    301.62504   -1162.9677    6327.5158    11608.304    1924.2324 
  182900    297.32023   -1154.5218    6353.7864    11551.055    1908.6049 
  183000     305.5631   -1158.0986    6415.8167    11785.605    1872.0335 
  183100     301.5622   -1163.8015    6486.0678     11764.68    1923.7689 
  183200    303.31221   -1165.6477    6454.3023    11768.455    1952.9549 
  183300    306.00203   -1170.3359    6397.0678    11763.996    1907.0157 
  183400    298.32101   -1169.7212    6434.0941    11637.544    1834.8272 
  183500    300.12269   -1167.4617    6467.9711     11712.17    1901.5884 
  183600    300.38797   -1166.1881    6350.2021    11601.342    1884.9495 
  183700    298.26223     -1163.62     6415.341    11623.636    1952.4502 
  183800    299.82151   -1168.0117    6381.6909    11618.906    1949.4363 
  183900    298.11166   -1172.6881    6469.5264    11665.536    1963.4834 
  184000    299.20123   -1163.7471    6523.5183    11751.746    1940.9794 
  184100    296.90202   -1162.2417    6331.8727    11512.487    1887.4592 
  184200    302.85621   -1167.2665    6362.2165    11665.008    1989.1491 
  184300    299.25071   -1161.5758    6433.8322    11665.289    1889.0923 
  184400    298.22373   -1164.0533    6404.2988    11611.338    1850.0674 
  184500    300.98572   -1162.8176    6513.6661    11780.947    1926.9728 
  184600    301.79579   -1165.6531    6453.4516    11735.202    1883.4855 
  184700    296.48696   -1162.4046    6375.5572    11547.142    1818.2562 
  184800    303.81151   -1169.2163    6483.4946    11804.745    1936.7436 
  184900    297.41468   -1162.2981    6507.0028    11698.513    1886.1911 
  185000    303.66873   -1157.7429    6427.0249    11756.699    1912.6249 
  185100    300.58063   -1159.7316    6453.4609    11715.173    2003.9575 
  185200    301.32638    -1164.409    6383.9944    11656.961    1949.9996 
  185300    302.14465   -1164.9741    6428.6309    11718.514    1955.8163 
  185400    299.99807   -1162.2617    6488.5658    11735.302    1999.1039 
  185500    299.01926   -1161.1044    6486.3307    11713.314    1994.3587 
  185600    303.29178   -1162.1495    6288.6924    11605.906    1934.3124 
  185700    295.76804    -1160.879    6391.1212    11548.873    1938.9313 
  185800    306.37275   -1155.0659    6541.7774    11931.895    2038.2261 
  185900    297.82348   -1161.6371    6475.5549     11676.46    2005.4642 
  186000    302.00259   -1160.8976    6364.8586    11655.783    1930.7178 
  186100     294.1792   -1158.7809    6384.4007    11510.307    1975.2625 
  186200    302.21647   -1157.9266     6461.705     11760.17    1930.1738 
  186300    300.86234    -1161.563    6488.9846    11754.884    1907.0507 
  186400     300.5972    -1164.823    6428.6262    11685.601    1873.5997 
  186500    297.36171   -1164.5954    6404.6555    11592.737    1893.0192 
  186600    300.24275   -1165.1039    6383.9352    11633.057    1899.9858 
  186700    301.90706   -1161.5489    6474.7273    11762.959    1969.7362 
  186800     298.7699   -1166.9562    6362.7106    11578.515     1911.798 
  186900    301.87454   -1167.3952    6350.4243    11632.115    1874.5535 
  187000    295.47355   -1166.8166    6469.9676     11615.49    1866.9542 
  187100    305.08587   -1167.1017    6399.5662    11750.156    1871.0731 
  187200    298.09408   -1168.0381    6428.7497    11629.034    1907.5463 
  187300     300.7531   -1176.0504    6372.8851    11621.963    1924.3339 
  187400    301.44062   -1166.3878     6413.482    11686.911    1910.1779 
  187500    299.67259   -1168.6597    6527.3378    11760.723    1966.4351 
  187600    302.31605   -1161.6234    6421.4029    11718.298    1928.3682 
  187700    298.74179   -1164.0224    6375.9203    11594.058      1942.66 
  187800    301.88758   -1166.7462    6449.1838    11731.802    1981.7617 
  187900    302.20471   -1170.0383    6348.7012    11634.803    1885.5164 
  188000    295.10344   -1166.7879     6452.802    11590.446     1912.948 
  188100    300.19222   -1166.7292     6625.127    11871.544    1973.5417 
  188200    298.54576   -1163.0898    6400.3948    11615.277    1904.8611 
  188300    302.29116   -1165.2709    6339.9234    11632.639    1975.7647 
  188400    300.75635   -1164.3416    6340.6392    11601.496    1897.8285 
  188500      296.817   -1163.1453    6543.6369    11721.531    1976.9791 
  188600    299.92029   -1165.9957    6481.6828    11723.024    1915.7198 
  188700    299.85872    -1165.447    6404.5673    11645.142    1834.9994 
  188800    297.28676   -1157.2733    6401.3973    11595.199    1893.8678 
  188900    305.17541   -1162.7201    6389.0148    11745.899    1941.6421 
  189000    300.13344   -1159.8963    6409.3064    11661.301    1938.3424 
  189100    300.69708   -1157.2379    6438.5983    11705.292    1917.8341 
  189200    301.00704    -1160.415    6499.5245    11769.663    1911.8307 
  189300    297.72372   -1162.6316    6468.9977    11666.777    1804.6086 
  189400    296.28772   -1162.0917    6464.9951    11632.636    1875.7611 
  189500    300.78505   -1163.2887    6384.1612    11646.684    1903.4669 
  189600    299.38826    -1159.581    6374.9957    11611.385    1900.5088 
  189700    295.70755   -1164.1842    6537.2489    11690.403    1974.3778 
  189800    297.59359   -1165.9929    6416.3233    11607.961    1919.3916 
  189900    296.03188   -1162.5667    6514.3682    11676.068    1935.2342 
  190000     298.1008   -1166.6252    6381.2073    11583.048     1876.882 
  190100    299.41348   -1170.1906    6326.8402    11553.159    1876.5891 
  190200    296.79915   -1168.0121    6419.7559    11592.402     1907.162 
  190300    299.05667   -1170.0193    6452.8235    11671.691      1940.52 
  190400    301.13473   -1165.8157    6434.9632    11702.429    1963.8189 
  190500    297.19964   -1170.6545    6439.5834    11618.143    1945.3525 
  190600    299.58136   -1173.1712    6337.1404    11564.065    1901.3282 
  190700    303.82012   -1167.0952    6442.1407    11765.696    1962.9534 
  190800    299.56834   -1170.4839    6454.6716    11684.006    1866.8554 
  190900    304.88228   -1168.1457    6382.4851    11727.682    1871.7578 
  191000    297.56685   -1171.1601     6352.462    11538.361    1862.0535 
  191100    304.29091   -1173.0496    6447.4339    11775.093    1959.7845 
  191200    298.43599   -1172.0729    6460.2532    11663.807    1962.8951 
  191300    301.54352   -1169.8397    6439.3569    11711.532    1978.5969 
  191400    300.54096   -1165.6598    6417.8349    11672.772    1969.4984 
  191500    299.91837   -1162.0804    6455.6779    11700.893    1990.6599 
  191600    299.53989   -1164.3885    6402.5639    11637.386    1908.5545 
  191700    301.66565   -1165.8237    6506.9649    11785.765    1983.0471 
  191800    296.49903   -1168.5781    6373.3795    11539.048    1935.2731 
  191900    304.36924   -1161.9202    6449.6932    11790.155    2004.3779 
  192000    304.84253   -1163.6728    6462.4712    11811.291    2004.9086 
  192100    301.64584   -1163.2724    6310.4946    11591.423    1896.7626 
  192200    296.77745   -1161.7146    6412.4005    11590.881    1892.7983 
  192300    302.00034   -1156.8747     6493.171     11788.07    1856.1128 
  192400    299.75703   -1156.2573     6518.803    11766.395    1877.3405 
  192500     301.7325   -1153.6447      6436.79    11729.197      1938.29 
  192600    297.02365   -1163.8428    6352.6909    11534.303    1912.8893 
  192700    301.49271   -1160.7638    6428.1354    11708.301    1972.7382 
  192800    297.17865   -1154.9987     6550.926    11744.693    1970.8226 
  192900    296.57571   -1161.4987    6454.0764    11628.463    1907.1199 
  193000    299.04171   -1163.2962    6451.0216    11676.293    1873.7146 
  193100     302.8951   -1163.3115    6395.7779    11703.355    1883.6551 
  193200    298.84672   -1169.9302    6485.3251    11699.797    1898.3138 
  193300    305.19925   -1166.6549    6310.2996    11663.758    1820.6104 
  193400    297.94945   -1166.8397    6545.5666     11743.96    1878.2582 
  193500    308.26193   -1166.4082    6442.0907    11861.226      1831.15 
  193600    297.54834   -1164.6103    6450.0223    11642.076    1864.7954 
  193700     303.3781   -1165.4511    6379.3468    11695.103     1843.589 
  193800    297.14529   -1163.1352    6377.6031    11562.521    1898.4124 
  193900    303.63629   -1164.9196    6473.1166     11794.92    1964.2778 
  194000    300.35821   -1162.5229    6340.8639    11595.033    1869.0301 
  194100     300.1462   -1166.8059     6360.724    11606.081    1878.5189 
  194200    304.32551   -1168.1415     6357.849    11691.155    1959.3174 
  194300    300.58622   -1172.5842    6505.3127    11754.292    1961.1287 
  194400    296.97504   -1168.9011    6440.2609    11615.776    1932.5504 
  194500    300.19586   -1166.5039    6450.9587    11697.679     1933.337 
  194600    299.87647   -1166.6955    6430.2524    11669.958    1881.0068 
  194700    298.26133   -1163.2872     6386.948    11595.556    1844.7679 
  194800     302.8603   -1163.8364    6394.1795    11700.489    1884.0485 
  194900    297.00882   -1162.4266    6397.5544    11580.265    1856.5888 
  195000    303.36555   -1163.3448    6440.3856     11757.98    1858.4668 
  195100    298.62601   -1166.0929    6372.1905    11585.784    1851.3825 
  195200    296.21092   -1162.7416    6409.7581    11575.108    1884.4103 
  195300    300.35955   -1161.6961    6435.9546    11690.979    1881.3467 
  195400    294.46983   -1157.7326    6449.2622    11582.426    1915.1379 
  195500    303.49316   -1159.7147    6384.5938    11708.545    1869.5221 
  195600    297.55622   -1153.1859    6417.0599    11620.706    1906.9322 
  195700    298.71732   -1150.6963    6409.7634    11640.704    1833.5551 
  195800    297.60187   -1155.7617     6471.719    11673.765    1821.9949 
  195900    299.63395   -1160.0087    6489.9058    11731.117    1875.6371 
  196000    305.40253   -1157.1194    6423.5018    11790.839    1892.1337 
  196100    295.39165   -1165.6447     6381.735     11526.68     1867.411 
  196200    303.78793   -1161.9398    6471.1022    11799.125    1930.8428 
  196300    302.20595   -1166.2519    6416.6402    11706.555    1861.3072 
  196400    303.03538   -1162.9609    6401.7735    11712.699    1896.0505 
  196500    297.68127   -1162.2235    6377.7175    11574.998     1870.641 
  196600    304.46623   -1164.9258    6455.3901    11794.918    1907.1023 
  196700      297.852   -1161.4005    6438.3023    11640.053    1867.8265 
  196800    304.25251   -1166.1243    6400.2019    11733.966    1875.3156 
  196900    297.42614   -1170.4563    6374.4026        11558    1862.2372 
  197000    303.66972   -1171.0255    6530.5448    11846.957    1959.9135 
  197100    298.17086   -1165.8357    6376.4633     11580.59    1851.8243 
  197200    300.32539   -1175.2007    6429.2573    11670.048    1920.9434 
  197300    298.62431   -1171.3481    6419.4907    11627.793    1906.9393 
  197400    301.81064   -1178.0375    6315.7062     11585.39    1829.6868 
  197500    295.46387   -1172.8592    6529.1453    11668.418    1956.8277 
  197600    300.33001   -1167.4618    6424.2316     11672.86    1953.7948 
  197700    300.46516   -1169.4006    6309.3948    11558.971    1837.0372 
  197800    297.05866   -1163.3174    6482.2531    11665.138    1921.8114 
  197900    301.56146   -1162.7735    6384.2384    11663.863    1933.9886 
  198000    297.57633   -1169.6653    6467.3113    11654.908    1941.7049 
  198100     301.7047   -1168.4249    6325.0695    11602.103    1900.1875 
  198200    298.92712    -1167.632    6422.3954    11640.883    1846.6697 
  198300     304.9734   -1164.1936     6428.002    11779.097    1859.2621 
  198400    298.59956   -1164.2862     6350.655     11565.49    1894.9169 
  198500    296.30645   -1160.7335    6390.6642    11560.063    1904.8579 
  198600    306.26298   -1157.6261    6457.6502    11842.863    1864.1646 
  198700     297.4778   -1160.5943    6542.5134    11737.076     1898.238 
  198800    302.01132    -1158.108    6419.1958    11713.096    1899.3188 
  198900    298.16074   -1161.7099    6423.5707    11631.608    1885.9153 
  199000    294.34096   -1161.2031     6402.194    11529.134    1861.5383 
  199100    301.14665   -1157.9557    6428.8155    11704.396    1893.8597 
  199200    298.88341   -1160.2943    6475.0066    11699.898    1863.9073 
  199300    300.68508   -1161.0696    6490.3692    11752.975    1903.9551 
  199400    300.43897   -1164.9942    6338.2124    11591.636    1810.7525 
  199500    294.17723   -1161.8222    6469.6164    11592.439     1799.002 
  199600    302.00934   -1156.2857     6521.605    11817.286     1720.963 
  199700     296.6383   -1161.8098    6441.5453    11616.958    1850.3579 
  199800    306.42218   -1164.1555     6405.046     11787.13    1885.6506 
  199900     299.3073   -1162.1087    6482.7547    11714.887     1829.194 
  200000    295.09592   -1162.5232    6461.0393    11602.788    1871.0385 
  200100    301.66702   -1169.4794    6387.9296    11663.103    1869.2548 
  200200    296.54951   -1168.4926    6389.8768    11556.709    1837.2113 
  200300    300.28789   -1168.4893    6388.9099    11635.611    1902.6012 
  200400    298.03259   -1160.7514    6400.1373    11606.395    1922.1541 
  200500    300.34824    -1166.658    6461.2668    11711.088    1908.5059 
  200600    302.91353   -1162.8241    6371.8092    11680.268    1886.9339 
  200700    297.02595   -1163.9827    6396.6067    11578.128    1915.7797 
  200800    300.26994   -1175.6141    6363.4376     11602.63    1850.1628 
  200900    300.57527   -1172.9866    6444.5819    11692.925    1859.5025 
  201000    298.91559   -1172.4625    6451.2761    11664.687    1847.6378 
  201100    302.25814   -1171.7761    6489.9006    11775.406     1860.142 
  201200    296.95555   -1168.3942    6373.4198    11549.025    1818.6312 
  201300    299.46178   -1166.4442    6312.8276    11543.925    1877.3097 
  201400    295.52909   -1161.1561    6521.1993    11673.569    1961.7542 
  201500    302.74328   -1163.9227    6343.9933    11647.716     1838.229 
  201600    295.52425   -1163.1314    6459.1314    11609.422    1962.3256 
  201700    301.24702   -1161.3013    6440.2741    11714.653    1924.0602 
  201800    299.31474   -1159.7399    6381.7169    11616.377    1868.5777 
  201900    298.90759   -1165.7356    6387.2379    11607.204     1871.137 
  202000    300.83526   -1163.0134    6438.3421    11702.212    1908.3945 
  202100     302.5537   -1161.0282    6531.1134    11833.681    1914.5888 
  202200    296.86099   -1157.7697    6454.4247    11638.635    1910.6473 
  202300    303.03565   -1162.1664     6317.751    11629.476    1930.9851 
  202400    297.04712   -1156.7757      6449.41     11638.59    1915.9415 
  202500    302.62231   -1159.9336    6560.9703    11866.098    1915.8613 
  202600    299.76599   -1158.7192     6438.292    11683.613    1880.9435 
  202700    297.98293    -1158.566    6339.4632    11546.845    1892.2361 
  202800    295.57067   -1165.8448    6432.4055    11580.974    1924.7047 
  202900    304.75827   -1166.4769    6531.8551    11876.071    1956.1051 
  203000    297.71025   -1166.8172    6446.2759    11639.581    1888.0118 
  203100    299.83272   -1164.9938    6400.7116    11641.184    1902.2205 
  203200    301.25043   -1160.8754    6338.6306    11613.508    1786.9377 
  203300    300.03434    -1165.529    6542.7958     11787.04    1940.9164 
  203400    299.52413   -1166.2627    6368.5193     11601.13    1879.2223 
  203500     301.9586   -1167.9223     6362.235    11645.195     1858.481 
  203600    302.73503   -1166.7199    6409.3896    11710.139    1792.0896 
  203700    297.30064   -1172.4019    6471.0722    11650.042    1854.0763 
  203800     305.5673   -1169.2599    6470.3679    11829.085    1956.9365 
  203900    297.33521   -1169.4997    6370.5702    11553.181    1916.4817 
  204000    303.11335   -1169.4197    6319.5878     11625.72    1932.3929 
  204100    297.26438   -1170.8528    6315.7899    11495.535    1904.4783 
  204200     300.9627   -1166.6504    6441.4733    11704.429    1899.2576 
  204300    300.22134   -1165.9924    6509.5677    11757.344    1894.3942 
  204400    296.22889   -1169.8593    6517.2997    11675.916    1987.2301 
  204500    300.00512   -1174.3667    6334.9774     11569.76    1890.7968 
  204600    295.33303    -1166.413    6343.4125    11486.336    1899.5459 
  204700    304.26781   -1170.2147    6474.9416    11804.942     1967.378 
  204800    294.53733   -1159.4973    6520.6987     11653.54    1885.6737 
  204900    298.65072   -1159.4504    6420.2064    11640.971    1844.4561 
  205000    298.92152   -1168.2418    6314.7405    11532.498    1825.2703 
  205100    305.17098   -1160.0641    6499.8694    11859.315    1929.7079 
  205200    296.64602    -1162.143    6451.8118    11627.056    1839.3771 
  205300    304.71801    -1165.758    6387.4422    11731.517    1875.9651 
  205400     299.3109   -1166.1358    6449.3313    11677.514     1866.441 
  205500    298.66669   -1162.9908    6521.4119    11738.977    1858.9708 
  205600    301.43767   -1156.5868    6396.9247    11680.091    1852.0196 
  205700    298.35141   -1160.9383     6463.361    11676.243     1900.266 
  205800    299.87711   -1159.5539    6366.3457    11613.206    1852.1247 
  205900    304.56517   -1163.2413    6371.4246    11714.751    1890.8888 
  206000    301.77764   -1166.8357     6508.042    11788.223    1973.6175 
  206100    297.95634   -1168.1035    6443.2824    11640.559    1892.7572 
  206200    302.09497    -1163.443    6505.4347    11795.787    1944.0972 
  206300    299.72065   -1162.8863    6384.7304    11624.916    1916.9747 
  206400    302.43081   -1167.7125    6326.7983    11620.056    1911.9611 
  206500    294.47372   -1167.7956    6470.4773    11593.661    1950.0234 
  206600    299.85173    -1160.383    6415.1999    11660.689     1933.057 
  206700     299.6998   -1168.6939    6415.5584    11649.491    1953.5841 
  206800    301.89057   -1175.9097    6365.3076    11638.827    1968.5843 
  206900    298.70035   -1169.4748    6454.5864    11666.386    1992.9458 
  207000    300.36466   -1169.3557    6385.5314    11633.006    1921.0733 
  207100    304.53786   -1172.1591    6449.8566    11783.682    1901.2485 
  207200    301.71838   -1170.1945    6443.6949    11719.251    1858.4437 
  207300    295.61814   -1167.4724    6406.0669    11554.022    1864.0316 
  207400    301.28251   -1174.2589    6451.7385    11713.918    1929.6001 
  207500    300.64598   -1172.7535    6411.7144    11661.801    1879.6916 
  207600    301.32896   -1176.0473    6415.4317    11676.815    1961.9588 
  207700    298.74011   -1169.2156     6364.434    11577.342    1981.0674 
  207800    299.87391   -1173.3097    6463.0777    11696.114    2014.6768 
  207900    299.64796   -1169.0531     6413.465    11645.931    1909.0891 
  208000    301.70198   -1170.0544    6516.2788    11791.624    1957.8657 
  208100    303.66327   -1168.5517    6389.0745    11707.823    1973.8733 
  208200    298.25203   -1164.8742    6394.3185    11601.141    1969.1558 
  208300    303.64178   -1159.3838    6431.6403    11759.097    1927.4007 
  208400    299.00938   -1159.8291    6484.7361    11712.784    1887.3771 
  208500    297.03737   -1168.0358    6489.8671    11667.579    1938.4425 
  208600    297.71256   -1162.1682    6415.7903    11613.794    1918.9078 
  208700     299.0273   -1166.3206    6402.2466    11624.185    1961.1657 
  208800    305.75706   -1164.7322    6411.3707    11778.669    1984.4859 
  208900    300.04742   -1161.2184    6478.7029    11727.537    1983.3288 
  209000    299.71375   -1165.9538    6478.8203    11715.791    1903.7323 
  209100    297.31037   -1157.9018     6430.302     11623.98    1886.6953 
  209200    302.27729   -1159.3606    6439.7926    11738.123    1950.4645 
  209300    300.10493   -1158.0187    6378.3163    11631.579    1839.6696 
  209400    297.97401   -1167.7282    6498.5539    11696.583    1925.4538 
  209500    299.83146   -1165.8973     6335.011    11574.553    1865.2744 
  209600    297.93158   -1169.5685    6403.7761    11599.059    1882.1044 
  209700    303.84462   -1164.8125    6433.7128    11760.074    1902.2758 
  209800    301.68642   -1165.3479     6524.474    11804.193    1960.6475 
  209900    298.56096   -1170.9944    6331.1018    11538.404    1885.9667 
  210000    302.71032   -1169.3185    6385.8664    11683.489    1925.0933 
  210100    295.18849    -1167.844    6449.7394    11588.144    1984.2764 
  210200     298.5618   -1166.3526    6488.3592    11700.321    1977.8645 
  210300    300.84132   -1169.5402      6398.81    11656.283    1947.1914 
  210400    300.91874   -1168.1856    6406.5856    11667.067    1929.2079 
  210500    299.58721   -1167.6628    6353.8506    11586.409    1878.1715 
  210600    300.64118   -1168.4425    6523.9025    11778.198    1926.4671 
  210700    299.55889    -1170.238    6453.5787    11682.957    1863.5349 
  210800    300.35924   -1169.8398    6345.9757     11592.85    1846.6778 
  210900    295.07153   -1167.2757    6392.0042    11528.479    1833.5845 
  211000    297.94766   -1166.2728     6497.038     11695.96    1874.1352 
  211100    295.87165   -1167.6906    6434.6284    11587.782    1908.3572 
  211200    301.79267   -1164.2644    6341.1525    11624.225    1865.1735 
  211300    302.67363   -1162.0443    6499.0592    11803.172    1886.8434 
  211400    302.33842   -1159.1064    6569.5724    11869.462    1928.0042 
  211500     299.4153   -1164.8938    6351.5008    11583.155    1814.8572 
  211600    297.90804   -1162.5471    6434.1429    11635.944    1844.8904 
  211700    300.95242   -1163.6766    6430.9759    11696.686    1851.0778 
  211800    297.77632   -1160.9842    6457.8609    11658.411    1863.2842 
  211900    300.08118   -1159.5866    6510.8201    11762.007    1831.1941 
  212000    304.26274   -1156.0987    6460.0744    11804.082    1862.7248 
  212100    298.85774   -1151.0486    6354.7204    11588.309    1850.5623 
  212200    299.47256   -1150.7413    6406.5055    11653.536    1907.3462 
  212300    297.24635   -1148.1643    6495.9272    11697.975    1930.9958 
  212400    303.44717   -1148.6468     6480.157    11814.193    1957.1581 
  212500    296.07888   -1153.9935    6303.5739    11474.851    1828.4977 
  212600    299.64546   -1157.2671    6387.5214     11631.72    1902.7343 
  212700    295.15712   -1156.8233    6485.7041     11634.46    1845.8985 
  212800    301.41242   -1160.0751    6419.5184    11698.657    1756.6184 
  212900    295.99075   -1165.9941    6503.4553    11660.849     1888.532 
  213000      298.497   -1154.1842    6355.4395    11578.186    1936.4274 
  213100    301.64296   -1161.4086    6277.9185    11560.649     1905.399 
  213200    297.93577   -1160.2085    6440.0223    11644.754    1924.8473 
  213300    295.29042   -1157.1347    6427.8734    11579.165    1934.3003 
  213400    307.30845   -1160.2149    6444.0858    11849.045    1920.3832 
  213500    301.03635   -1168.3491    6472.4364    11735.267     1962.163 
  213600    299.29122   -1176.6844    6345.2341    11562.447     1976.484 
  213700    299.46699   -1177.8627     6486.964    11706.754    1907.8701 
  213800    302.13697   -1176.1005    6376.0758    11654.668    1871.9739 
  213900    295.02146   -1177.2569    6445.1654    11570.589    1886.6448 
  214000    304.82358   -1169.9621    6478.8649    11820.991    1857.6491 
  214100    300.19798    -1165.806    6385.2527    11632.716    1854.8197 
  214200    297.25142   -1166.7996    6394.2853    11577.806    1925.8218 
  214300    299.84136    -1165.402    6369.9277    11610.176    1850.7811 
  214400    299.63135    -1171.058    6471.4106    11701.517    1933.5133 
  214500    300.35989   -1169.7648    6251.3778    11498.341     1829.347 
  214600    300.89448   -1171.9967    6514.0395    11770.192    1978.0639 
  214700    297.66323   -1173.0482    6485.4196     11671.49    1905.3909 
  214800    298.56356    -1169.299    6424.1768     11633.23    1886.4203 
  214900    300.26498   -1159.8173    6423.6919    11678.575     1923.311 
  215000    299.37658   -1161.7538    6436.6873    11670.655    1917.9916 
  215100    302.66948   -1160.0969    6373.2287    11679.201    1919.0125 
  215200    299.54355   -1156.6291    6389.7948    11632.454    1920.2808 
  215300    304.52248   -1159.5701    6494.0521    11840.137    1952.5595 
  215400    299.83315   -1159.0237    6350.1758    11596.627    1861.9554 
  215500    300.19088   -1157.7528    6449.0329    11704.398    1954.5736 
  215600    300.90395   -1152.7608    6460.4451    11736.035    1939.3437 
  215700    301.57856   -1157.1321    6438.7828    11724.414    1892.5388 
  215800    296.73337   -1156.1163    6347.8313    11530.968    1827.7814 
  215900    305.28546   -1156.3017    6463.6337    11829.288    1833.0797 
  216000    298.16411   -1153.0475    6496.2651    11713.036    1856.7105 
  216100    304.61133   -1152.0564    6366.0939    11721.591    1819.7406 
  216200     304.3651   -1155.8584    6469.1143    11815.549    1934.1461 
  216300    299.94949   -1154.0926    6436.1389    11690.007     1900.395 
  216400    302.67056   -1156.8761    6423.3184    11732.534    1874.6332 
  216500    298.56745   -1162.7057    6468.8378    11684.568    1867.4469 
  216600    301.75591   -1160.2492    6463.8664    11750.169    1917.5732 
  216700    299.75758   -1156.5363    6313.6405    11560.965    1848.5778 
  216800    298.63156    -1156.521    6513.6771    11736.961    1937.8776 
  216900    297.87339   -1154.1736    6476.9163    11686.351    1908.1718 
  217000    297.76073   -1158.9073    6284.8067      11487.1    1799.0808 
  217100     299.8039   -1157.7577     6479.116    11726.209    1900.4152 
  217200    301.81818   -1167.3448    6445.9394    11726.477    1899.5075 
  217300    307.57217   -1163.5911    6376.9096    11784.126    1887.1588 
  217400      301.211   -1167.5616    6488.3965    11755.746    1828.8587 
  217500    300.84333   -1168.1331    6511.6106    11770.534    1853.3387 
  217600    300.01042   -1166.7431    6332.0613     11574.58    1762.9833 
  217700    293.66372   -1162.2722    6362.8949    11474.297    1765.6142 
  217800    297.87053     -1164.26    6470.4617    11669.748    1892.3217 
  217900    301.24971   -1162.1072     6355.539     11629.17    1790.3488 
  218000    305.01621   -1166.5883    6454.1898    11803.805    1904.0328 
  218100    297.99139   -1165.8834    6423.9685    11624.214    1880.8508 
  218200    299.29942   -1165.9316    6354.3991     11582.54    1883.8264 
  218300    300.07295   -1166.0764    6370.7113    11615.233    1864.0512 
  218400    305.86026   -1162.4439    6433.3691     11805.16    1929.0166 
  218500    299.28622   -1163.8149    6472.3828    11702.359    1902.6159 
  218600    297.85524   -1159.1691    6424.2828    11628.334    1835.0165 
  218700    296.20393   -1162.2136    6329.7466    11495.475    1834.0826 
  218800    300.78947   -1164.1604    6414.8291    11676.574    1880.3261 
  218900     297.5538   -1158.7517    6476.1591    11674.188    1822.5573 
  219000    296.43022   -1160.7581    6455.5318    11627.551    1841.8221 
  219100    300.82761   -1159.1621    6290.6751    11558.233    1871.9045 
  219200    296.71758   -1162.8056    6415.6033    11591.713     1829.982 
  219300    297.61789   -1163.9497    6425.9196     11620.12    1855.4289 
  219400    303.30799   -1165.4646    6515.8211    11830.066    1975.4649 
  219500    293.23152   -1160.6679      6462.11    11565.884    1887.1013 
  219600    300.29439   -1159.9363    6496.2897    11751.682    1906.7375 
  219700    298.70179   -1155.1274    6460.6788    11686.857    1923.2037 
  219800    303.78673    -1163.182    6383.8861    11710.641    1831.7663 
  219900    300.04295   -1158.4823    6397.0175    11648.492    1822.2953 
  220000    305.58765   -1154.5869    6400.7492    11774.574    1842.2724 
  220100    296.72011   -1162.0926    6454.9961    11631.873    1909.5148 
  220200    299.01242   -1163.5967    6444.6579    11669.003    1810.5076 
  220300    293.14443   -1164.5257    6426.0472    11524.103    1838.8859 
  220400    302.07538   -1157.6326    6441.8548    11737.599    1892.2307 
  220500    294.82278   -1159.1148    6324.9825    11464.304    1808.3497 
  220600    302.19806   -1158.2075    6449.9783    11747.769    1828.4159 
  220700     298.3121   -1155.4818    6497.3095    11714.808    1839.2278 
  220800    299.76163   -1164.8098    6430.1472    11669.285    1863.5658 
  220900    302.26468   -1162.7256    6422.1106    11716.806    1916.8804 
  221000    300.87776   -1161.2682    6396.2522    11662.776     1874.807 
  221100    300.53951   -1161.3427    6442.7071     11701.93    1844.8803 
  221200    298.20495   -1161.0078    6343.5668     11553.25    1820.5634 
  221300    301.24936   -1164.6256    6367.7859    11638.891    1785.9326 
  221400    301.81645   -1160.8366    6490.3473    11777.356    1851.1164 
  221500    296.67825   -1154.8062    6435.7013    11618.971    1905.7984 
  221600    300.34914   -1163.4477    6352.2495      11605.3     1839.104 
  221700    299.65495   -1155.6199    6473.6973    11719.746    1917.5301 
  221800     299.5528   -1160.1421    6452.7071    11692.051    1896.3813 
  221900    301.55292   -1159.5795    6369.7152    11652.351    1872.3151 
  222000    303.57048   -1164.0934    6403.2707    11724.495    1895.5571 
  222100    299.76914   -1160.8391    6464.4864    11707.755    1895.0394 
  222200    300.17168   -1162.6151    6462.7485    11712.841    1906.0094 
  222300    296.64553   -1166.5557    6431.4823    11602.303    1905.7633 
  222400    300.71864   -1161.2367     6396.922    11660.078    1899.4429 
  222500     303.4358   -1161.7006     6482.889    11803.629    1895.7151 
  222600    301.72023   -1159.7627    6431.4032     11717.43    1846.4017 
  222700     305.8072   -1160.1052    6435.6048    11808.601    1862.9092 
  222800    304.18353   -1163.1748    6475.9951    11811.235    1906.6337 
  222900     298.7922   -1164.6263    6371.6794     11590.29    1872.3859 
  223000     302.7258   -1165.8892    6357.5859    11658.969    1851.6298 
  223100    295.34654   -1158.6717    6478.1088    11629.063     1900.029 
  223200    297.71801   -1163.2233    6459.6608    11656.726    1896.8958 
  223300    303.32144   -1159.1191    6409.2778    11730.156    1926.5567 
  223400    296.04684   -1157.3192    6431.1442    11598.412    1849.3176 
  223500    300.84229   -1161.3047    6386.5133    11652.242    1871.9041 
  223600    292.99371    -1165.355    6289.2269    11383.233    1834.9445 
  223700    303.30604   -1160.2465    6479.2005    11798.622     1916.044 
  223800    300.61989   -1163.1595    6536.1664     11795.29    1909.9414 
  223900    300.67546   -1162.0337    6338.2777    11599.714     1874.072 
  224000    301.37507   -1159.3058    6344.9594    11624.069     1885.976 
  224100     301.4795    -1158.398    6534.8205    11817.069    1928.1812 
  224200    296.58872   -1163.0807      6483.94    11657.022    1865.5834 
  224300     300.4195   -1161.6007    6303.3966    11559.798    1834.0141 
  224400     302.4236   -1160.0804    6478.0333    11778.769    1947.0662 
  224500    298.98371   -1158.4241    6474.4986    11703.403    1885.5526 
  224600     303.3572   -1161.2105    6361.1401    11680.691    1856.3103 
  224700    300.37731   -1163.0305    6305.6509    11559.721    1824.8919 
  224800      304.211   -1161.4254    6589.7181    11927.294     1966.289 
  224900    299.53692   -1162.2653    6431.9226    11668.804    1913.4185 
  225000    297.59426   -1161.2622    6484.3793    11680.762    1893.3843 
  225100    306.15854   -1165.0524    6411.1709    11786.726    1888.9713 
  225200    296.00864   -1162.0317    6422.6569    11584.396    1868.8474 
  225300    299.22837   -1163.3817     6434.723    11663.896    1896.7478 
  225400     305.5532   -1161.8458    6485.9044    11851.734    1934.8288 
  225500    299.46352   -1162.4227     6428.232    11663.388     1892.373 
  225600    299.17898   -1168.8366    6394.9789    11617.642    1897.1698 
  225700     300.4226   -1165.6847    6439.4696    11691.853    1932.5848 
  225800     302.0335   -1162.1717    6391.8872    11682.198    1929.1772 
  225900    300.90464   -1160.6477    6400.0657    11667.784    1945.1832 
  226000    301.52052   -1161.1893    6443.1808    11723.515    1927.2742 
  226100    302.20287   -1165.9222    6495.2941    11785.473    1901.7559 
  226200    304.01593   -1169.3963    6334.9451    11660.383    1875.0494 
  226300    299.86742   -1170.0358     6361.294    11597.466    1900.9969 
  226400    294.65223   -1166.2636     6462.482    11591.011    1977.0271 
  226500     300.8975   -1172.0017    6424.4834    11680.695    1961.8123 
  226600    299.52138    -1166.411    6521.7803    11754.184    1953.2302 
  226700    300.86606   -1161.3475    6345.6822    11611.876    1906.0118 
  226800    298.88047   -1164.7666    6385.8467    11606.203     1942.494 
  226900    301.34952   -1166.5065    6481.8546    11753.218    1909.6681 
  227000    301.87342   -1166.5119    6438.3782    11720.929    1921.1409 
  227100    300.63713   -1160.9692    6409.5109    11671.193    1914.1568 
  227200    301.40378   -1167.2144    6431.1399    11702.955     1869.151 
  227300    293.02787   -1166.3905    6350.7055    11444.406    1821.1812 
  227400    302.10481   -1166.3806    6379.9027    11667.528    1897.6635 
  227500    300.08725   -1162.8484    6415.0764    11663.132    1894.1886 
  227600    298.70838   -1160.8852    6487.5716    11708.133    1933.7704 
  227700    297.88362   -1161.7168    6379.3149    11581.425    1868.3501 
  227800    302.34221   -1153.6314    6432.0641     11737.51    1898.4169 
  227900    302.69369   -1158.6599    6394.4599    11702.386     1933.996 
  228000    297.01931   -1155.8841     6375.433    11564.911    1957.7596 
  228100    302.10093   -1160.3736    6400.7882    11694.337    1982.4252 
  228200    299.44489   -1159.6469    6432.7517    11670.285    1938.0149 
  228300    301.28186    -1154.863    6489.4648    11771.026    1919.9705 
  228400    299.49066   -1164.3215    6361.7739    11595.611     1874.271 
  228500     298.8199    -1160.977    6453.2624    11676.114    1927.5245 
  228600    301.08156   -1161.4078    6378.4234    11649.161    1849.5758 
  228700    296.16752   -1162.2623    6470.0002    11634.903    1899.4804 
  228800    300.09068   -1163.9717    6447.9326    11694.938     1947.701 
  228900    298.70799   -1158.4349    6484.1807    11707.184    1933.3212 
  229000    305.45523   -1160.2126    6292.9382    11658.308    1836.4544 
  229100    300.26726   -1163.7289    6388.5625    11639.583    1925.0349 
  229200    291.01491   -1164.5102    6397.8501    11450.427    1855.1163 
  229300    298.58909   -1167.6203    6461.9169    11673.194    1960.4494 
  229400    304.00104   -1170.5804    6390.8515    11714.787    1969.3194 
  229500    297.61766   -1172.1247    6426.5343    11612.554    1975.5777 
  229600    298.89859   -1171.2477    6393.8243    11608.086    1843.3609 
  229700    295.78073   -1165.1705    6505.2647    11658.996    1901.7941 
  229800    312.36136   -1164.0277    6460.6766     11969.77    1965.0159 
  229900    294.08843   -1172.9808    6354.1267    11463.894    1890.4732 
  230000    301.73299   -1166.9095    6386.1763    11665.329    1937.1792 
  230100    301.78607   -1167.4002    6423.5379    11703.334    1990.2032 
  230200    297.91878    -1170.288     6417.591    11611.881    1921.9893 
  230300    303.42979   -1167.3087    6488.2544    11803.258    1912.8702 
  230400    299.75055    -1166.022    6542.5695    11780.258    1959.4334 
  230500    299.93346   -1170.3635    6423.1787    11660.433    1887.1035 
  230600    297.85391   -1165.2221    6373.3338    11571.303    1890.9068 
  230700    301.38028   -1164.7394    6291.2691    11565.057    1892.7811 
  230800    297.21498    -1164.285    6486.9758    11672.233    1925.0798 
  230900    297.64076   -1159.8916    6536.3824    11735.129    1901.6948 
  231000    298.52351    -1165.977     6325.291    11536.811    1887.4891 
  231100     300.2522   -1163.6257    6359.4298    11610.232     1966.921 
  231200     304.2774   -1164.9938    6393.2907    11728.717    1857.9689 
  231300     304.5013    -1161.893    6454.5698     11797.88    1884.9977 
  231400    297.31504   -1162.9046     6397.108    11585.883    1873.9405 
  231500    301.28838   -1161.0048    6381.5186    11657.078    1855.3858 
  231600    304.38539   -1161.1925    6392.7605    11734.295    1897.4141 
  231700    298.37556   -1157.1414    6398.4504    11615.645    1889.5644 
  231800    301.21291    -1159.419    6508.7115    11784.244    1920.6568 
  231900    294.07442   -1161.4177    6407.5296    11528.561      1840.69 
  232000    298.33856   -1156.3544    6420.4183     11637.61    1922.9806 
  232100    302.15255   -1162.3473    6456.3291    11749.007    1899.5714 
  232200    302.04395   -1160.9899    6383.6088    11675.324    1800.8632 
  232300    300.96364   -1164.6294    6487.9445    11752.941    1866.4266 
  232400    302.74227   -1163.4309    6491.2693    11795.462     1905.599 
  232500    297.85961    -1166.898    6458.5727    11654.988    1873.1117 
  232600     302.7253   -1162.5251    6336.0861    11640.822    1870.7248 
  232700    299.26343   -1163.7407    6367.6353    11597.199    2002.8823 
  232800    298.72981    -1160.573    6422.4748    11643.806    1971.3536 
  232900    305.64392   -1163.8561    6400.5123     11766.27     1894.837 
  233000    298.18467   -1164.5445    6385.6784    11591.392     1949.595 
  233100    301.99882    -1168.981    6416.4114    11699.172    1938.8984 
  233200    302.71829    -1165.819    6405.3171     11706.61     1878.868 
  233300    300.08338   -1168.8769    6570.8263     11812.77    2020.7536 
  233400    299.20968   -1171.8624    6451.1367     11671.43    1976.2183 
  233500      298.183   -1171.8354    6464.3833     11662.77    1927.6868 
  233600    301.42444   -1170.6924    6399.0943    11667.873    1929.0009 
  233700    301.01185   -1163.0719    6436.4319    11704.016    1899.7103 
  233800    298.43634   -1167.7395    6403.5468    11611.442    1911.6777 
  233900    301.73522   -1169.8034    6332.4898    11608.796    1908.6441 
  234000    299.09998   -1163.9655    6469.2319    11695.079    1976.5195 
  234100    303.68124   -1165.7266    6350.3593    11672.316    1891.3501 
  234200    297.91438   -1167.4328    6564.3877    11761.439    1979.9305 
  234300    298.10746   -1175.2087    6425.9754    11619.375    1862.6597 
  234400    304.20785   -1168.9535    6462.5191      11792.5    1860.2426 
  234500    300.95029   -1166.6116    6430.0642    11692.794    1830.8273 
  234600    293.69472   -1162.4851    6429.1839    11541.036    1864.1286 
  234700    299.92997    -1159.142    6396.5731    11644.975    1924.5699 
  234800     303.2582   -1158.0083    6459.0344    11779.672    1922.7273 
  234900    300.18143   -1160.5998    6428.7642     11681.08    1895.3953 
  235000    301.04708   -1153.8416    6378.1095    11655.677    1882.8418 
  235100    301.48249   -1164.8847     6436.144     11711.97    1876.0185 
  235200    301.06333   -1164.4066    6481.9624    11749.312    1906.9674 
  235300    296.62657   -1161.6349    6400.1723    11575.509    1858.5876 
  235400    302.33123   -1159.8308    6517.6823    11816.694    1958.3475 
  235500    297.24013   -1162.8658    6398.1417    11585.355    1932.2798 
  235600    297.72813     -1164.31    6412.1431    11608.338    1931.8724 
  235700    304.15023   -1164.2493    6411.5812    11745.035     1916.056 
  235800    294.19692   -1162.9389    6481.9246    11604.052    1898.9118 
  235900    300.53659   -1155.6749    6452.4661    11717.294    1894.5953 
  236000    300.75432   -1162.1634    6370.8868    11633.878    1917.3695 
  236100    298.25042   -1168.0866    6381.9144     11585.49    1890.3164 
  236200    299.39487   -1164.4412    6501.7819    11733.453    1929.9837 
  236300    302.82173   -1166.7724    6404.4592    11707.008    1869.5249 
  236400    296.21142   -1165.0864    6422.8358    11585.852    1901.5128 
  236500    302.25656   -1160.0398    6440.7227    11737.931    1945.6161 
  236600    302.66692   -1164.2518    6472.4917    11774.254    1897.4192 
  236700     300.0939   -1170.9591    6457.7299    11697.817    1884.2949 
  236800    299.68013   -1170.6437    6346.1234    11577.686    1881.8323 
  236900    302.17984   -1168.6625     6352.345    11639.291    1851.5634 
  237000    306.37224   -1169.3417    6533.9359    11909.767    1917.0248 
  237100    298.10353   -1166.3935     6366.196    11568.327    1882.7763 
  237200    295.90532   -1164.1134    6326.2398     11483.69     1810.503 
  237300    299.32617     -1166.15    6450.2812    11678.775    1889.9915 
  237400    299.68202   -1173.0341    6354.3155    11583.528    1887.2079 
  237500    297.59693   -1160.2663    6357.7138    11555.149    1871.9661 
  237600    293.25609   -1166.6064    6414.2105    11512.571    1837.4854 
  237700    302.58498    -1164.567    6501.2164    11800.913     1905.578 
  237800    299.02392   -1167.5604    6411.3913    11632.018    1808.1105 
  237900    296.64695   -1164.9856    6489.9613    11662.383    1839.7841 
  238000    299.46336   -1169.5117    6384.1674    11612.231    1845.7371 
  238100     303.8084   -1167.6808     6340.592    11663.311     1883.059 
  238200    296.20125   -1165.5108    6438.3932    11600.768    1798.7747 
  238300    303.18783   -1161.3864    6527.8088    11843.565    1845.5269 
  238400    297.98107   -1164.9003    6457.1145    11658.123    1843.5954 
  238500    300.54787   -1162.6921     6340.014    11598.066    1861.0178 
  238600    299.70683   -1157.0064    6348.5226    11594.293    1935.2021 
  238700    300.75047   -1158.2087    6384.1171    11650.981    1912.4162 
  238800    304.66124   -1162.8653     6511.572    11857.327    1874.9453 
  238900    299.50376   -1165.5988    6558.2801     11791.12    1872.6036 
  239000     305.0123   -1163.3454    6291.5398    11644.314    1822.3875 
  239100    299.29018   -1165.9399    6328.3957    11556.331    1840.4916 
  239200    294.14618   -1156.0841    6475.5233    11603.421    1880.7731 
  239300     302.3233   -1163.4667    6477.1303    11772.337    1942.3098 
  239400    299.48971   -1166.0728    6445.0706    11677.136    1930.8593 
  239500    303.96851   -1163.8597     6396.993    11726.954    1955.3925 
  239600     295.6278   -1162.8243    6284.5425    11437.352    1891.5433 
  239700    300.39445   -1166.1862    6408.9657    11660.246    1903.3607 
  239800    297.70613   -1165.5508    6460.5823    11655.066     1876.443 
  239900    300.88504   -1161.1345    6568.0752    11834.888    1921.9839 
  240000    301.18489   -1168.4476    6491.1222    11757.028    1880.3808 
  240100    298.70496   -1168.3769    6338.1086    11551.105    1803.7415 
  240200    299.89884   -1173.5159     6399.622    11632.985    1842.5779 
  240300    300.73967   -1175.1468    6362.4563    11612.151    1761.7573 
  240400    298.54475   -1167.2037    6430.3838    11641.131    1878.7774 
  240500    296.65001   -1163.8781    6413.8705    11587.465    1887.1123 
  240600    295.91294   -1166.3766    6521.7621    11677.111    1903.9271 
  240700    303.54055    -1170.177    6384.6997    11699.201    1909.3965 
  240800    296.14087   -1166.0138     6313.714    11474.295     1876.553 
  240900    303.13938    -1163.335    6447.3172     11760.09    1879.3672 
  241000    305.22885   -1169.3577    6393.8488    11745.237    1827.2413 
  241100    299.99038   -1172.5648    6513.6086    11749.878    1834.0558 
  241200    296.04121   -1172.1217    6509.2815    11661.626    1830.4814 
  241300    299.51884   -1170.0535    6396.3839    11625.091    1820.6443 
  241400     295.5772   -1165.0986    6322.1056     11471.56    1865.3985 
  241500    295.30335   -1161.5626    6293.6761    11440.816    1807.8762 
  241600    304.06956   -1163.0017    6469.1032    11802.081    1914.6858 
  241700    294.73046   -1158.1475    6530.9281    11669.245      1921.92 
  241800    303.13727   -1159.7421    6433.8215    11750.142    1892.6723 
  241900    298.42518   -1169.9485    6319.0349    11524.482    1905.6426 
  242000    305.03572   -1163.7237    6439.1629    11792.059    1925.7797 
  242100     299.0261   -1165.9287    6449.1785    11671.484    1845.7502 
  242200    296.13356   -1168.5409    6493.8793    11651.777    1860.8124 
  242300    302.29043   -1163.1373    6533.8956     11828.73    1918.2478 
  242400    294.96552   -1167.6063    6443.3342    11577.214    1865.5152 
  242500    296.28821   -1163.8668    6302.6944    11468.571    1869.7806 
  242600    305.78581   -1161.6765    6448.9947    11819.963    1893.7449 
  242700    302.08599   -1158.4277    6467.7018    11762.878    1913.2811 
  242800    299.35414   -1163.6195    6388.0398    11619.662    1849.5145 
  242900    293.27689   -1167.3618     6477.558    11575.607     1891.399 
  243000    303.99853    -1166.212    6380.8134    11709.063     1882.579 
  243100    303.73794   -1167.9751    6350.6669    11671.587    1888.2213 
  243200    297.05391   -1168.2852    6523.4554    11701.271    1898.2789 
  243300    306.87237   -1164.2846    6479.6279    11871.201    1890.7813 
  243400    299.10058    -1169.715     6432.328    11652.438    1879.6133 
  243500    302.99304    -1163.353    6268.0893    11577.718    1800.1098 
  243600    300.48425   -1165.2062     6444.657    11698.836    1839.0659 
  243700     299.4521   -1161.8603    6568.6637    11804.138    1926.7589 
  243800    298.08042   -1166.9878    6420.8403    11621.883     1896.989 
  243900    302.68161   -1170.5217     6404.955    11700.761    1933.3597 
  244000    295.64921   -1170.4013    6440.7172    11586.408     1875.605 
  244100    298.40485   -1171.7618    6478.2683    11681.468    1849.8989 
  244200    302.88426   -1169.8773    6462.1654    11762.946    1831.6731 
  244300    299.98226   -1169.2817    6387.4213      11626.8    1831.4813 
  244400    303.79815   -1166.2227    6490.4416      11814.4    1865.6689 
  244500    297.07549   -1163.9691    6447.8526    11630.445    1825.0576 
  244600    300.37363   -1159.5912    6423.1998     11680.63    1928.1915 
  244700    299.99592   -1156.7675     6400.996    11653.181    1920.5923 
  244800    303.01016   -1160.7665    6425.0067    11737.587    1912.4028 
  244900    294.90811   -1159.1159    6443.4651    11584.608    1894.1788 
  245000     297.6882    -1161.353    6433.4458    11631.745    1876.9698 
  245100    301.07867   -1162.2231    6456.3006    11726.161    1762.4355 
  245200    292.16297   -1164.6776    6445.5001    11522.436     1781.684 
  245300    300.68955   -1164.5009    6386.6691    11645.939    1844.2331 
  245400    300.44107   -1161.3006    6430.2236    11687.385    1888.3508 
  245500    300.83297   -1155.0722    6342.6284    11614.391    1838.8802 
  245600    299.07163   -1152.8685    6473.6566    11709.995    1922.7633 
  245700    303.16402   -1151.3268    6474.0154    11799.323      1843.55 
  245800    299.71219   -1153.4967    6397.5497    11646.944    1854.0172 
  245900    297.97416   -1152.7661    6374.5678    11587.562    1937.1907 
  246000    302.41161   -1159.4793    6386.6676    11687.748     1839.161 
  246100    301.02692   -1159.0925    6415.2394    11687.125    1767.5099 
  246200    298.89717   -1159.6869    6525.9171     11751.71    1866.3854 
  246300    304.01787   -1160.4126    6488.8194    11823.282    1829.1531 
  246400    296.84113   -1160.5745    6439.6413    11620.622    1838.6559 
  246500    294.85607   -1158.9546    6364.0882    11504.281    1903.9475 
  246600    297.24028   -1159.9715    6387.4643    11577.575     1913.757 
  246700    300.09624    -1156.131    6428.4251     11683.39    1852.3871 
  246800    297.96301   -1161.5661    6457.3787    11661.335    1924.6359 
  246900    302.74653   -1161.8902    6408.0368    11713.862    1904.1357 
  247000    297.55728   -1164.1038    6337.6982    11530.449    1818.1811 
  247100    302.80306   -1166.2932    6490.2053    11792.835     1896.085 
  247200    298.56406   -1171.1958    6364.1711    11571.338    1838.5384 
  247300    299.65919   -1165.8828    6430.0889    11665.965     1841.443 
  247400    300.01167   -1165.9771    6446.3018    11689.614    1913.2161 
  247500    295.75025   -1156.4105    6333.7982    11495.638    1895.2534 
  247600    303.27607   -1165.2092    6409.5195    11723.338    1868.7603 
  247700    297.55489   -1158.3674    6416.3148    11614.751    1851.8867 
  247800    301.82661   -1165.7274    6376.7125    11659.048     1879.083 
  247900    302.09203   -1166.7371    6374.3485    11661.344    1810.5879 
  248000    302.03783   -1167.1743    6351.6445    11637.045    1877.1115 
  248100    299.80751   -1160.6402    6453.9253    11698.212    1919.2584 
  248200     298.4669   -1169.6941    6486.7118    11693.305    1882.8293 
  248300    305.64489   -1159.4223    6466.5428    11836.755    1914.1589 
  248400     297.2913   -1155.6945    6401.3969    11596.875    1922.9249 
  248500    295.49984   -1161.6859    6363.7475    11514.962    1929.2109 
  248600     306.8497   -1157.0914    6461.5956    11859.877    1968.4898 
  248700    299.59085   -1158.9927    6490.1287    11731.435    1991.2363 
  248800    300.23601   -1154.9029      6409.38    11668.559    1888.8618 
  248900    297.10826   -1154.1382    6471.2544    11664.378    1918.2892 
  249000    294.91862   -1159.5859    6431.1787    11572.077    1886.2075 
  249100    299.65133   -1153.6267    6441.9309    11689.895    1926.5055 
  249200    298.99149   -1160.2748     6394.291    11621.511    1848.4608 
  249300    301.85653   -1155.5688    6458.5971     11751.73    1900.4569 
  249400     295.0031   -1155.9073    6454.3299    11600.711    1879.3144 
  249500    297.74165   -1160.1036    6352.0738    11552.764    1872.4234 
  249600    302.39146   -1161.6054    6342.6596    11641.184    1879.1128 
  249700    300.98376    -1159.824    6373.7752    11644.008    1912.6578 
  249800    297.30235   -1160.5578    6484.0952    11674.946    1906.6995 
  249900    301.62522   -1161.0631     6373.149    11655.846    1849.9891 
  250000     297.1122     -1163.31    6412.6375    11596.674    1926.9096 
  250100    300.04137    -1163.875    6494.1788    11740.227    1940.6359 
  250200    298.40213   -1166.4777    6436.1686    11644.595     1884.494 
  250300      305.809   -1164.6556    6422.3532    11790.838    1912.3381 
  250400    300.58486   -1172.2276    6393.6894    11642.996    1898.7324 
  250500    296.18644   -1170.0341    6396.2988    11553.833    1812.8536 
  250600    300.31442   -1171.9523    6453.7683    11697.573    1968.4571 
  250700    303.52547   -1166.4794    6446.8916    11764.768    1957.5682 
  250800    300.19881   -1167.2239    6337.5545    11583.618    1896.9427 
  250900    297.99113   -1170.9358    6411.9686    11607.156     1887.492 
  251000    307.52266   -1163.6697    6406.3254    11812.406    1928.8166 
  251100     298.3307   -1166.5103    6404.2155    11611.083    1887.4769 
  251200    297.92159   -1165.1419     6409.408    11608.904    1915.1669 
  251300    304.05607   -1168.2581    6325.3002    11652.734    1921.5492 
  251400    301.40296   -1165.9188    6526.1046    11799.198    2010.6117 
  251500    302.90251   -1166.1942    6376.7235    11681.577    1910.3117 
  251600    297.82728   -1161.5263    6362.5733     11563.67    1886.8056 
  251700    301.51843    -1164.159    6425.5922    11702.912    1940.3328 
  251800      295.298   -1158.2095    6409.7131    11560.092    1928.3553 
  251900    303.37975   -1160.3855    6361.9915    11682.849    1954.9422 
  252000    298.15624   -1161.1332    6464.1867    11672.704    1937.1084 
  252100    299.91119   -1158.7509    6454.9059    11703.297    1871.1452 
  252200    301.76822   -1160.3347    6495.5892    11782.069    1884.1728 
  252300    300.99685   -1156.5013     6473.431    11747.266    1886.6588 
  252400    298.36552    -1151.661    6334.7345    11557.195    1858.7529 
  252500    304.09864   -1157.2002    6348.3048    11687.705    1877.6646 
  252600    297.38222   -1149.2043    6456.9514    11660.862    1895.4497 
  252700    296.20952   -1149.4233    6357.1415     11535.78    1840.7879 
  252800    302.60734   -1153.1242    6460.2831    11771.901    1894.4371 
  252900    296.23091   -1154.6639    6526.1186    11699.974    1858.4412 
  253000    302.15385   -1155.9891    6393.3785    11692.443    1859.8369 
  253100    303.36553   -1166.0345    6329.0654     11643.97    1843.9644 
  253200    293.62089   -1160.5569    6412.6174     11524.82    1857.3057 
  253300    302.73778   -1161.0328    6433.4796    11739.975    1871.2782 
  253400    295.60063   -1170.1395    6413.3142    11558.229    1905.3174 
  253500    301.66632   -1163.1906    6499.8303    11781.278    1950.5125 
  253600    302.47387   -1160.2025    6394.3193    11696.007    1892.4721 
  253700    305.25319   -1160.6297    6336.2222    11696.858    1899.7629 
  253800    301.17038   -1164.8939    6384.4029    11653.552    1894.2679 
  253900    295.04667   -1168.1053    6380.2682    11515.382    1867.2223 
  254000    303.49907   -1169.9692    6340.6186    11654.441    1862.3896 
  254100    295.74849    -1172.111     6377.942    11524.044    1855.0725 
  254200    299.26594     -1176.32    6471.2921     11688.33    1907.4177 
  254300    300.62726   -1169.7632    6490.8031     11743.48    1961.1356 
  254400    298.58818   -1168.1572    6265.1183    11475.839    1876.7721 
  254500    294.78343   -1167.1937    6437.4604    11567.862     1920.109 
  254600    299.40703   -1159.6506    6445.9851    11682.706    1966.6649 
  254700    300.99863   -1167.8451    6281.2158    11543.745    1903.7239 
  254800    300.09853   -1162.4072    6452.7079    11701.445    1902.4353 
  254900     299.2359   -1167.5658     6482.007    11707.157     1944.404 
  255000      302.158   -1168.8961    6387.3427    11673.589    1943.5573 
  255100    294.32856   -1165.2483     6485.482    11608.112    1905.6405 
  255200     303.9333   -1165.3001    6377.3244    11705.093    1762.7169 
  255300    303.76439   -1163.0411    6487.0532    11813.472    1828.9865 
  255400    299.10564   -1157.2867    6448.5921    11681.238     1804.116 
  255500    304.82376   -1151.6158    6457.1352    11817.611    1838.5316 
  255600    298.50465   -1156.5554    6419.7891    11640.327    1835.1195 
  255700    304.38071   -1154.1506    6391.1901    11739.666    1876.8545 
  255800    299.09589   -1154.0936    6419.8724    11655.504    1846.2973 
  255900    298.93449   -1155.0036    6482.0173     11713.29    1798.5736 
  256000    306.51639    -1157.023    6477.4283    11868.658    1915.3036 
  256100    292.10162   -1159.2686    6445.0068    11526.041    1855.2308 
  256200    300.87022   -1157.9812    6483.8898    11753.539     1883.767 
  256300    297.16314   -1151.3575    6332.7477    11529.825    1918.9899 
  256400    299.63742   -1154.1117    6393.1392    11640.321    1886.5947 
  256500    301.46856   -1159.8616    6416.2327    11696.784     1865.383 
  256600    301.94663   -1155.0042      6449.78    11745.402    1943.0256 
  256700    300.20341   -1155.5583    6351.5484    11609.375    1879.1953 
  256800    302.84763   -1156.9108    6287.7262     11600.69     1873.164 
  256900     300.6396   -1156.5063    6501.5287    11767.726    1931.8616 
  257000    300.99877   -1162.4428    6545.6953    11813.629    1942.7784 
  257100    295.38232   -1167.9285    6417.1327    11559.594    1863.1178 
  257200    297.29905   -1166.8248    6348.6923    11533.206    1900.5214 
  257300    302.28954   -1171.0238    6401.3129    11688.241    1934.0307 
  257400    294.48519   -1159.4154     6374.533    11506.342    1858.5818 
  257500    298.17916   -1170.3543     6462.997    11662.783    1928.5945 
  257600    300.92685   -1160.4281    6362.9841    11631.396     1906.537 
  257700    295.40238   -1169.2223    6519.8288    11661.425    1990.8347 
  257800    298.29555   -1168.3763    6468.6417    11672.892    1966.4158 
  257900    298.46305   -1172.8944    6157.6885    11360.999    1856.9109 
  258000    300.32376    -1173.528    6333.2221    11575.651    1907.6256 
  258100    302.22881   -1169.0017    6550.0077    11837.661    1879.6222 
  258200    301.90415    -1162.417    6610.4695    11897.771    1865.5103 
  258300     296.8008   -1166.3401    6414.7707    11589.124    1899.4096 
  258400    300.51277   -1169.3031     6242.485    11493.176    1918.1588 
  258500     295.8585   -1160.0715    6411.4916    11571.983     1927.122 
  258600    299.88766   -1162.0928    6483.4471    11727.994    1942.7098 
  258700    300.99811   -1162.0882    6498.0758     11766.35    1913.3598 
  258800    300.36373    -1163.339    6402.2475    11655.719    1931.7132 
  258900     295.4228   -1167.1383     6336.166    11480.282     1959.994 
  259000    301.30761   -1161.1318    6431.5455    11707.388    2013.5934 
  259100    299.85963   -1153.8086    6442.1146    11694.347    1898.9007 
  259200    298.11107   -1156.1509    6464.3473    11676.882    1877.6441 
  259300    303.91858   -1156.8374    6493.3519    11829.269    1914.7836 
  259400    298.41618   -1157.4976    6316.3122    11534.019    1865.7137 
  259500    297.98825    -1159.328    6417.8458    11624.579    1879.1457 
  259600    299.31214   -1157.0918    6499.5322    11736.785    1922.0319 
  259700    296.79114   -1164.0125    6438.2963    11614.771    1922.4376 
  259800     300.5865   -1160.0791    6447.8521    11709.342    1962.0341 
  259900    298.95923   -1157.7296    6428.5382    11657.614    1924.2885 
  260000    296.90843   -1157.7159    6361.2739    11546.551    1870.7554 
  260100    301.14965    -1161.187    6410.3027    11682.716    1872.2731 
  260200    303.11439   -1160.8292    6511.1512    11825.896     1907.618 
  260300    297.85415   -1164.2867    6559.7325    11758.643      1973.52 
  260400    300.78473   -1173.0444    6325.7376    11578.497    1852.9017 
  260500     300.1958   -1169.6711     6436.145    11679.697     1925.379 
  260600    300.19752   -1167.8771    6378.2701    11623.652    1886.2939 
  260700    301.54417   -1168.7728    6399.1731    11672.429    1924.0199 
  260800    299.10299     -1167.48    6375.5181    11597.915    1877.9154 
  260900    298.97502   -1166.3409    6424.2572    11645.059    1893.3161 
  261000    301.24731   -1170.3538    6388.2715    11653.604    1882.8956 
  261100    296.68719   -1165.4964    6470.9152    11643.685    1910.3423 
  261200    301.43485   -1173.7224     6388.046    11654.017    1887.8731 
  261300    296.19638   -1172.8085    6421.5832    11576.556     1892.001 
  261400    302.24688   -1166.0692     6412.927    11703.899    1822.3017 
  261500    295.45287   -1168.3821    6445.2542    11588.769    1873.8152 
  261600    300.18094   -1168.1373    6453.7708    11698.539    1890.3531 
  261700     297.1006   -1163.6879    6409.6136    11593.024     1811.199 
  261800     303.8728   -1165.8178    6459.4846    11785.443    1944.8778 
  261900    296.90153   -1166.2009     6386.508    11563.153    1906.6972 
  262000    300.18524   -1161.7559    6502.5696    11753.811    1957.7899 
  262100    295.64984   -1164.5828    6406.4522    11557.975    1921.5243 
  262200    300.15171   -1165.2779     6340.867     11587.87    1900.1426 
  262300    304.78568   -1157.8019    6488.4186    11841.895    1990.5489 
  262400    297.71299   -1164.3474    6440.8894    11636.723    1931.7145 
  262500    299.34637   -1165.5838    6336.9892    11566.481    1897.1649 
  262600    298.68913   -1159.9981    6505.0956    11726.133    1927.6387 
  262700    299.07617   -1162.8285    6383.3784    11609.853     1855.067 
  262800    297.28807   -1160.1568    6444.8907    11635.837    1952.0323 
  262900    299.59967   -1163.6897    6389.2909    11626.088    1892.4968 
  263000    301.91461   -1161.9424    6329.5079    11617.508    1803.5733 
  263100    303.22768   -1164.4386    6488.7108    11802.266    1920.5509 
  263200       296.02   -1164.3822     6496.488    11656.119     1921.697 
  263300    301.91435   -1165.2218    6383.3241    11668.039    1876.6451 
  263400     300.2644   -1155.1822    6390.3377    11649.844    1839.7215 
  263500    303.20669    -1157.691    6490.7552     11810.61    1883.6383 
  263600    297.13274   -1157.7712    6428.9966     11619.01    1839.6974 
  263700    301.60913   -1161.2275    6481.4205    11763.609    1925.9639 
  263800    298.72134   -1162.3065    6254.7292    11474.146    1902.8296 
  263900    303.05754   -1164.2095    6316.2408    11626.391    1941.2123 
  264000    298.99621   -1166.1789    6541.3682    11762.785    1923.4971 
  264100    299.98484   -1164.6859    6590.3617    11834.392    1915.2526 
  264200     296.2738   -1159.0625    6330.4835    11500.856    1901.3413 
  264300    303.27417   -1163.5618     6322.517    11637.942    1963.6275 
  264400    303.10242    -1160.246    6402.8998    11717.972    1933.0179 
  264500    298.22202   -1163.2726    6606.4098    11814.193     2004.493 
  264600    301.42993    -1163.877    6385.9277    11661.639    1776.7712 
  264700    303.90139   -1163.1747    6386.5858    11715.798    1858.2379 
  264800    295.31746   -1160.6288    6413.3961    11561.772    1891.5274 
  264900    296.96267   -1159.8527    6413.1667    11597.466    1829.7277 
  265000    298.11583   -1158.4498     6452.569    11662.906    1823.3499 
  265100    300.91459   -1162.9717    6393.8261    11659.433    1817.8638 
  265200    301.60455   -1159.8751    6420.1555    11703.599    1851.6622 
  265300    302.13039   -1160.5152    6503.4469    11797.484    1886.7595 
  265400    298.60478   -1159.1531    6453.8584    11673.938    1914.0634 
  265500     297.9045   -1155.4227    6324.6964    11533.546    1931.7135 
  265600    299.66556   -1159.4553    6281.0486    11523.488    1886.8358 
  265700    302.72481   -1159.0609    6461.5577    11769.748    1922.2865 
  265800    298.66215   -1160.8827    6511.7433    11731.319      1979.97 
  265900    299.36937   -1163.1462     6436.109     11668.53    1893.2816 
  266000    304.73281   -1162.0742    6412.9965    11761.071    1864.4626 
  266100    298.23777   -1159.2713    6453.8216    11665.943    1903.6275 
  266200    301.70368   -1159.0626    6383.9105    11670.284    1865.0851 
  266300    295.44896   -1157.2057    6315.8695    11470.477     1815.444 
  266400    303.85822    -1158.863    6389.7545    11722.356    1872.9304 
  266500    295.54216   -1153.5073    6481.1051    11641.403    1840.0577 
  266600     305.3505   -1159.9513    6492.4941    11855.888    1935.4773 
  266700    302.99754   -1162.5601    6344.2342    11654.751    1929.4845 
  266800    302.03109   -1166.7914    6393.3263    11678.966      1959.76 
  266900    303.17717   -1163.0986    6329.9745    11643.791    1836.8825 
  267000    299.70726   -1160.1097    6445.5181    11688.194    1872.2473 
  267100    298.65248    -1163.614    6458.2127    11674.851    1865.1557 
  267200    302.21881   -1162.0183    6347.8008    11642.224    1873.4348 
  267300    301.36911    -1162.704    6363.3537    11638.938    1850.1078 
  267400     301.5801   -1166.4148    6471.5581    11747.939    1867.7727 
  267500    298.98128   -1157.6331    6450.7063     11680.35     1843.678 
  267600    302.95854   -1164.0568    6420.8886    11729.076    1817.5079 
  267700     300.2875   -1155.4114    6406.9845    11666.755    1897.6982 
  267800    294.95263   -1163.1485    6450.5131    11588.575    1990.0099 
  267900    303.26008   -1162.1157    6349.5756    11666.146    1862.6623 
  268000    295.23236   -1158.0486    6477.4399    11626.578    1909.0609 
  268100    302.05657   -1164.5875    6538.9166    11827.304    1976.5929 
  268200    299.95949   -1157.8411    6475.4668      11725.8    1912.4688 
  268300    303.46896   -1159.1577     6389.219     11713.21    1952.7999 
  268400    299.25199   -1163.6374    6392.0851    11621.507    1987.2386 
  268500    301.50799   -1161.9676    6394.1582    11673.446     1884.329 
  268600    297.03431   -1157.4418    6403.1904    11591.431    1859.8659 
  268700    298.41348   -1158.2043    6406.4057    11623.348    1916.7688 
  268800    301.83599   -1160.6038    6506.0345    11793.693    1954.3961 
  268900    297.37386    -1162.893     6368.303    11558.346    1856.7328 
  269000    305.34844   -1163.7716    6449.2086    11808.738    1957.0049 
  269100     297.0358   -1161.2364    6458.7804    11643.258    1920.8769 
  269200    301.09114   -1163.6521    6446.6679    11715.366    1849.8417 
  269300    298.73674   -1165.3732    6435.4304    11652.109    1903.5287 
  269400    300.80489   -1163.6311    6354.0671    11616.671    1884.4766 
  269500     297.9021   -1158.2043    6509.6331     11715.65    1887.9904 
  269600    306.95975   -1160.8868    6437.3649    11834.202    1863.8703 
  269700    300.06124   -1165.6956    6493.5168    11738.169    1984.1101 
  269800    301.49312   -1161.4414    6362.9624    11642.459    1901.2507 
  269900    296.66629    -1167.633    6314.7922    11484.979    1853.7802 
  270000    306.08002   -1169.2605    6454.6243    11824.294    1904.6784 
  270100    299.43807   -1161.8548    6525.7055    11760.886    1941.0453 
  270200    295.53232   -1163.0002    6414.1105    11564.705    1898.1478 
  270300    300.29035   -1165.1368     6266.966    11517.072    1846.9046 
  270400    299.16162   -1160.3629    6488.3357    11719.102    1955.3955 
  270500    301.13247   -1159.5637    6458.1791    11731.849    1930.4332 
  270600    300.85104   -1158.7262    6449.0417    11717.536    1984.5137 
  270700    304.94417   -1157.0256    6387.5621    11745.201    1908.4936 
  270800    297.29138    -1155.289    6408.5066    11604.392    1907.8309 
  270900    298.98208   -1168.7345    6426.9342    11645.493    1932.9611 
  271000    297.83115   -1164.3093    6486.0229    11684.419    1929.4604 
  271100    304.37771   -1155.1574    6427.1182    11774.524    1852.7506 
  271200    300.93202   -1162.5254    6488.5815    11755.007    1901.7876 
  271300    296.40365   -1157.9128    6411.5719    11585.868    1935.8234 
  271400    298.73691   -1155.7073    6389.5273    11615.876    1929.2314 
  271500    299.54545   -1147.5445    6396.5225    11648.307    1931.9131 
  271600    299.15144   -1155.6747    6400.3242    11635.561    1945.2117 
  271700    299.74351    -1156.926    6451.1142    11697.748    1942.0959 
  271800    304.91541   -1154.5517    6417.3864    11776.885    1906.3936 
  271900    299.38786    -1160.077    6367.0483    11602.934    1864.1669 
  272000    304.07389   -1163.4234    6400.4426    11733.091    1887.4905 
  272100     299.3675   -1160.5162    6556.3287     11791.34    1926.6119 
  272200    303.23179   -1161.4286    6473.6031    11790.256     1936.975 
  272300    297.01691    -1162.946    6328.0597    11510.424    1898.7486 
  272400    295.80932   -1163.7266    6416.9284    11572.714    1838.6771 
  272500     302.6835   -1164.3044    6471.3855     11773.45    1866.2303 
  272600    300.84285   -1160.5673    6467.5942    11734.073    1901.6778 
  272700    294.71061   -1162.1965    6438.0727    11571.916     1913.835 
  272800    300.41312   -1158.9099    6330.0621    11589.017    1913.2818 
  272900     295.0942   -1164.7505    6395.5644    11535.049    1882.4935 
  273000    301.79191   -1167.8798    6420.6429    11700.084    1900.8554 
  273100    299.72698   -1165.6338    6410.1432    11647.717     1910.149 
  273200    302.98481   -1172.9035    6418.7905    11718.693    1931.3078 
  273300      297.176    -1171.231    6432.2444    11609.723    1884.5406 
  273400    303.45638   -1168.1511    6388.9295    11703.658     1842.274 
  273500    301.73489   -1161.9059    6484.6764    11768.873     1941.279 
  273600    299.66005   -1168.4323    6324.2201    11557.565    1892.8667 
  273700    302.33183   -1170.2787    6368.5438    11657.121    1931.8104 
  273800    296.85262   -1165.3473    6412.4068     11588.86    1883.1566 
  273900    299.38586   -1168.2802    6456.1986    11683.838    1876.8361 
  274000    307.70042   -1167.1765    6394.4387     11800.81    1953.9166 
  274100     297.2976   -1161.0202    6392.5211    11582.808    1933.7395 
  274200    303.56625    -1157.425     6427.844    11755.646    1921.8989 
  274300    301.15375   -1162.2029    6474.0989    11745.584    1910.9592 
  274400    300.20111   -1159.9258    6451.9181    11705.328    1956.9202 
  274500    300.73611   -1159.5531    6312.1234    11577.336    1831.0674 
  274600    298.11046   -1152.9395    6463.8645    11679.598    1956.8554 
  274700    302.88823   -1154.8861     6411.768    11727.624    1917.8664 
  274800    299.15394   -1155.7264    6463.0703    11698.309    1941.4727 
  274900    297.78908   -1156.4869    6449.7968    11655.117    1922.5411 
  275000    301.20597   -1157.5049    6358.9127    11636.211    1899.4912 
  275100    296.67114   -1156.3514    6469.9237    11651.496    1884.6112 
  275200    301.80537   -1159.0502    6528.0835    11816.642     1867.774 
  275300    301.24357   -1157.3333    6317.9257    11596.199    1806.0481 
  275400    298.43365   -1160.7434     6452.247    11667.081    1912.5923 
  275500    297.49764   -1159.1129     6495.316    11691.784    1905.0442 
  275600    301.14179   -1159.1832    6418.6745    11692.924    1911.3924 
  275700    302.83587   -1159.6728      6361.11    11671.061    1876.7906 
  275800    299.45602   -1159.3851    6507.4619    11745.495    1932.5881 
  275900    303.60319   -1157.7255    6396.0677    11724.359     1865.593 
  276000    297.73801   -1159.1873    6357.0162    11558.545    1832.2367 
  276100    300.68053   -1160.3387    6393.4921    11656.732     1892.261 
  276200    305.30116   -1163.1605    6367.2257    11726.356    1809.2376 
  276300    297.41728   -1169.5717    6554.9153    11739.207    1867.3366 
  276400     299.8349   -1163.7213     6486.591    11728.382    1900.7398 
  276500    304.52943   -1171.5574    6304.1736     11638.42     1855.566 
  276600    295.52242   -1174.3482     6345.929    11484.964    1854.1972 
  276700     300.0776   -1164.4139    6463.4065     11709.69    1914.9122 
  276800    307.14896   -1159.4389    6553.5933    11955.921    1932.8206 
  276900    300.55578   -1167.2509    6428.1532    11681.815      1837.93 
  277000    292.96032    -1169.978    6318.9657    11407.636    1929.0929 
  277100    304.28214   -1161.1502    6448.6021    11787.973    1949.8202 
  277200    302.90282   -1169.0858    6374.4342    11676.402    1874.2853 
  277300    298.66849   -1173.0516    6397.6068    11605.149    1872.7192 
  277400    297.44312    -1176.334    6514.6069    11692.689    1881.4121 
  277500    301.11462   -1166.6256    6452.9038     11719.13     1835.804 
  277600    301.14473   -1169.6223    6369.1404    11633.013    1866.8079 
  277700    296.38961   -1163.6676    6382.0877    11550.329    1860.9503 
  277800    299.97769   -1159.4364    6498.4429     11747.57    1856.1627 
  277900    297.49778   -1157.6845     6406.763    11604.662     1852.358 
  278000    300.56191   -1156.7148    6340.3168    11604.646    1854.0501 
  278100     305.1022   -1160.6916    6474.4679    11831.817    1929.8576 
  278200    299.23416   -1161.4143    6489.7807    11721.045    1937.7387 
  278300    305.05017   -1163.4621    6420.4132     11773.88     1898.207 
  278400    295.56238   -1161.8839    6362.3558    11514.709    1844.0241 
  278500    302.46201   -1161.7206    6494.5538     11794.47    1919.9271 
  278600    301.28134   -1163.2697    6514.1467    11787.291    1930.6984 
  278700    300.25639   -1157.1772    6452.1877    11709.528    1914.8856 
  278800    295.58242    -1159.483    6376.5801    11531.762    1925.1239 
  278900     300.1338   -1148.0138    6530.1392    11794.024    1947.2144 
  279000    297.69114   -1153.2829    6439.6794    11646.111    1876.1649 
  279100    300.31423   -1160.4935    6399.2592    11654.518    1959.3339 
  279200    298.73192   -1168.3553    6334.7562     11548.35    1926.0365 
  279300    300.03467   -1161.5493    6421.7623    11669.993     1908.517 
  279400    295.68649   -1171.9347    6544.8129    11689.766    1931.7276 
  279500    299.65501   -1169.4595    6422.7723    11654.982    1888.0206 
  279600    296.27305   -1171.2211    6355.9126    11514.111    1837.8335 
  279700    299.26551   -1163.9962    6331.8693    11561.221    1844.1328 
  279800    296.81934   -1163.1207    6457.4036    11635.373    1968.3456 
  279900    304.00871    -1153.396    6451.5673    11792.851    1959.3088 
  280000    299.10863   -1160.2541    6410.4176    11640.161    1891.6205 
  280100    302.84424   -1166.8374    6325.7608    11628.726    1957.3482 
  280200     304.2585   -1167.9079    6492.3364    11824.445     1992.705 
  280300    297.65136   -1169.3918    6390.7054    11580.178    1802.8452 
  280400    306.19991   -1176.3218    6467.9151    11833.085    1916.8324 
  280500    300.73973   -1170.6926    6493.9436    11748.094    1974.0856 
  280600    305.65366   -1171.4664    6297.5146     11655.87    1906.2752 
  280700    302.07017    -1172.268    6333.9202    11614.918     1940.149 
  280800    299.88056   -1163.1957     6453.206    11696.498    1952.7219 
  280900    304.70784   -1154.8025    6585.1359    11939.949     1902.338 
  281000    302.33245   -1165.5066    6484.8593    11778.222    1882.9304 
  281100    299.17784   -1161.9553    6323.3772    11552.897    1880.4876 
  281200    306.82127   -1167.5374    6417.2837    11804.512    1882.7389 
  281300    295.81145   -1163.1315    6324.8915    11481.318    1797.3242 
  281400    302.00862   -1158.8972     6520.625    11813.679    1924.3214 
  281500    297.04254   -1156.9929    6522.2026    11711.068    1903.4214 
  281600    305.39191   -1165.9651    6457.4935    11815.758    1981.8675 
  281700    297.81938   -1160.6486    6354.9675    11556.773    1916.5141 
  281800    301.88651   -1162.5919    6447.6548    11734.405    1959.4287 
  281900    299.35079   -1160.6935    6433.6266    11668.103    1887.3341 
  282000    305.18543   -1157.2475    6528.5317    11891.103    1932.6844 
  282100     295.8686   -1156.5308    6352.7436    11516.992    1859.1679 
  282200    304.78743   -1157.6471    6379.2679    11732.937    1884.5289 
  282300    299.20003   -1160.0579    6468.9859    11700.877    1937.6526 
  282400    296.46512   -1161.0813     6437.235    11609.676    1886.3229 
  282500     299.1602   -1160.0282    6456.6915    11687.762    1899.2686 
  282600    300.33508   -1159.6783    6493.1867    11749.706    1941.3964 
  282700    300.06558   -1163.9488    6340.8304    11587.322    1925.7836 
  282800    300.08652   -1162.8219    6332.1149    11580.181    1894.1421 
  282900    297.93695   -1164.2346    6406.1732    11606.904    1874.4135 
  283000    302.37555   -1166.4329    6445.2625    11738.619    1914.4943 
  283100    297.21439   -1163.1588    6345.3685    11531.739    1891.1171 
  283200    302.77113   -1167.7341    6488.2591    11788.766    1935.0312 
  283300    296.49095   -1168.5626    6364.9884      11530.5    1901.3002 
  283400    300.00613   -1168.2669    6439.6525    11680.556    2018.0015 
  283500     294.8662   -1167.0367    6439.4983    11571.825    1903.0253 
  283600    304.45173   -1167.9737    6458.8781    11795.049    1901.0284 
  283700    301.10631   -1167.7603    6456.6978    11721.612    1944.6144 
  283800    300.73334   -1171.2675    6352.4977    11605.937     1889.383 
  283900    298.38718   -1163.9105    6323.6057    11534.279    1886.2134 
  284000     303.6038   -1166.0626    6473.1652    11793.132    1966.0175 
  284100    298.04435   -1160.3281     6451.271    11658.203    1890.2325 
  284200    302.85693   -1169.1137     6426.155    11727.115    1923.9842 
  284300    301.41732   -1169.2714    6465.2858    11735.333    1933.1221 
  284400      299.456   -1171.0208    6265.3359    11491.733    1824.8699 
  284500    299.43778   -1170.3462    6537.5678     11764.25    1976.2448 
  284600    306.33131   -1167.9064    6424.1656    11800.558    1889.0488 
  284700    298.45043    -1166.499    6443.1717    11652.608     1896.584 
  284800    300.65899    -1162.186    6392.5754    11653.507    1888.5372 
  284900    298.91777   -1160.2578    6441.2394    11666.901     1899.299 
  285000    305.10357   -1158.7585    6455.4266    11814.738    1925.8977 
  285100    296.41871   -1162.2208    6352.9739    11523.284    1870.5021 
  285200    298.75389   -1160.5256    6372.0053    11593.898    1858.6757 
  285300    304.59606    -1160.063    6545.5594    11892.724    1972.1808 
  285400    300.24324   -1167.7697    6528.5038     11774.97    1953.6897 
  285500    304.15385   -1166.0521    6373.2709    11704.999    1895.4022 
  285600    297.18836   -1167.6242    6350.0885    11531.438    1896.5302 
  285700    301.15663   -1161.4178    6393.6035    11665.935    1926.3069 
  285800    295.81292   -1159.0916     6474.591    11635.089    1937.8061 
  285900    302.87844   -1155.1939    6450.8013    11766.141    1962.1197 
  286000    297.65683   -1158.4681    6457.0873    11657.601    1962.2766 
  286100    301.15247   -1157.5002    6378.5308    11654.691    1907.7231 
  286200    296.10858   -1164.6624    6408.0958    11569.339    1942.9523 
  286300    301.04371   -1161.1299    6475.1643    11745.371     1967.553 
  286400    301.03984   -1163.2966     6371.675    11639.633    1814.4456 
  286500    299.95569   -1173.2451    6446.8557    11681.704    1929.9382 
  286600    296.96945   -1174.9465    6427.9778    11597.328    1901.9415 
  286700    298.96751   -1165.5561    6479.1828    11700.609    1952.4133 
  286800    298.99213   -1169.2113    6334.4386    11552.735    1853.9842 
  286900    300.45078   -1166.9102    6510.9564    11762.716    1983.1681 
  287000    302.40783   -1163.7774    6415.2125    11711.914     1915.039 
  287100    298.15312   -1158.4277    6252.5949    11463.751    1839.1318 
  287200    301.86777    -1170.821    6395.6263    11673.747    1924.9263 
  287300    297.29535   -1163.2658    6558.7399    11746.733    1883.9865 
  287400    298.15782   -1163.8853    6533.1146    11738.914    1896.2577 
  287500    300.17545   -1174.4369    6374.0637    11612.415    1871.6315 
  287600    298.92722   -1175.2063    6438.8151     11649.73    1880.0459 
  287700    309.48266   -1166.0187    6528.9861     11974.59    1936.0234 
  287800    298.25484   -1170.4709    6461.5449    11662.831    1961.2022 
  287900    303.28488   -1165.7221     6366.742    11680.236     1939.361 
  288000    302.85371   -1160.6222    6454.8384    11764.221    1951.3793 
  288100    297.90746   -1156.3557     6436.627    11644.607    2004.5367 
  288200    302.84814   -1162.2467    6350.1165    11657.756    1923.3368 
  288300    300.39289   -1163.7962    6476.5216    11730.158    1933.7808 
  288400    300.29746   -1158.6586    6479.3998    11736.136    1920.9581 
  288500    300.72221   -1161.0884    6454.8757    11718.256    1945.1683 
  288600    299.91567   -1163.1137     6390.757    11634.881    1936.0488 
  288700    300.33544   -1162.5251    6384.3351    11638.016     1966.227 
  288800    294.28505    -1163.306    6456.5144    11580.157    1937.8205 
  288900     294.4108   -1162.5963    6481.8601    11608.899     1879.365 
  289000    302.72926   -1162.4545    6375.9722    11680.864    1896.5651 
  289100     303.0396   -1161.7548    6407.9213    11720.143    1904.7451 
  289200    299.89931   -1163.2776     6484.203    11727.814    1893.6992 
  289300    293.66861   -1158.9796     6460.909    11575.709    1918.2188 
  289400    297.35444   -1161.9056    6363.3809    11553.997    1923.1285 
  289500    300.53388   -1164.3417    6384.1769     11640.28    1866.6102 
  289600    302.78445   -1163.7953    6496.8425    11801.572    1973.7672 
  289700    299.70614   -1170.8986    6420.4933    11652.356    1900.6372 
  289800     296.1001   -1168.3429    6480.6564    11638.038    1831.3889 
  289900    300.38267   -1167.9709    6398.4058     11647.65    1851.5118 
  290000    299.50959   -1165.3316    6413.0726    11646.304    1947.8548 
  290100     305.3647   -1161.2814    6301.2271    11663.594     1892.321 
  290200    302.68867   -1162.6665     6464.631    11768.444    1894.3412 
  290300    302.91563   -1161.2949    6587.0861    11897.119    1912.1343 
  290400    297.07112   -1166.6304    6317.0494    11496.888    1854.2681 
  290500    300.64663   -1175.9039    6464.5195     11711.47    1913.4967 
  290600    300.43664   -1177.9839    6442.9365     11683.32     1889.298 
  290700    298.79133   -1175.8513    6476.8236     11684.19    1923.3956 
  290800    302.82361   -1170.1689    6410.3134    11709.506    1888.6931 
  290900    298.50375   -1165.8327    6472.0384     11683.28     1886.936 
  291000    301.31537   -1163.0974    6499.0432    11773.086     1995.023 
  291100    302.10232   -1165.5555    6295.6999    11584.097    1916.3012 
  291200    298.74118   -1164.3758    6356.5691     11574.34    2007.2526 
  291300    295.30894   -1161.1201    6373.5085    11521.211    1977.5241 
  291400    305.19071   -1164.6569    6519.2317    11874.506    1979.7453 
  291500    301.28652   -1165.1075    6477.5913    11749.008    1928.8903 
  291600    297.03723    -1168.213    6381.6176    11559.149    1970.9185 
  291700    301.37707    -1166.788    6351.7123    11623.383    1958.4329 
  291800     296.3263   -1163.9712    6382.8993    11549.485    1924.0965 
  291900    302.55944   -1158.0491    6485.0868    11790.756     2000.524 
  292000    303.27357   -1158.9572    6464.3339    11784.351    1961.3393 
  292100    297.93164   -1159.5885    6421.6597    11626.924    1943.4617 
  292200    300.88661   -1159.3138    6300.5475    11569.214     1970.787 
  292300    298.52667   -1161.6939    6544.9849    11760.855    2071.9474 
  292400    294.90157   -1164.7757    6489.2998    11624.644    1963.6999 
  292500    301.39426   -1169.3923     6490.092    11759.526    1992.7936 
  292600     303.5575   -1163.0861    6526.8738    11848.828    1938.7257 
  292700     298.8731   -1168.4912    6473.2839    11689.758    1928.5335 
  292800    300.06511   -1171.5108    6439.1178    11678.038    1918.6334 
  292900    302.31438   -1167.3325    6469.5934    11760.744    1948.2467 
  293000    300.77587   -1163.1304    6420.0027    11682.487    1937.2944 
  293100    294.83543   -1162.4104     6438.347    11574.643     1963.163 
  293200    297.65781   -1165.0965    6470.5509    11664.457    1986.0353 
  293300    300.65237   -1162.5933    6426.5598    11686.943    1945.0302 
  293400    297.68344   -1168.7183    6342.0887     11532.92    1844.0917 
  293500    295.21922   -1169.9079    6536.8076    11673.805    1909.1263 
  293600    302.42103   -1167.6302    6441.3412    11734.472    1884.4381 
  293700    301.63049   -1175.4535    6388.0934    11656.512    1951.9968 
  293800    291.08804   -1171.2233    6450.8667    11498.293    1980.1153 
  293900    305.05651   -1167.0713    6482.5692    11832.562    1964.7773 
  294000    301.82815   -1172.4832    6351.0708    11626.683    1998.3777 
  294100    303.54001   -1166.6979    6406.1186    11724.087    2050.6697 
  294200    298.90614   -1160.3551    6432.3328    11657.649    2012.8556 
  294300      294.155   -1163.9321    6437.2114     11557.45    1990.2023 
  294400     301.9646   -1168.3152    6352.4788    11635.174    1942.9671 
  294500    295.70059   -1168.7633     6286.218    11434.644    1969.3584 
  294600     301.2642   -1167.8781    6544.9543    11813.124    2024.8426 
  294700    301.72894   -1162.6633    6434.3376     11717.65     1928.669 
  294800    300.29182   -1166.8738    6422.8349    11671.235    1970.1595 
  294900    299.10246   -1157.2327    6487.0446    11719.677    1985.6228 
  295000    303.52959   -1162.5081    6332.0453    11653.981    1945.6037 
  295100    294.79604    -1163.149    6355.2375    11489.954    1922.3715 
  295200    298.67323   -1162.5247    6399.8051    11617.976    1904.4253 
  295300    299.03063    -1164.944    6467.3816    11690.768    1870.2835 
  295400    299.01218   -1163.1801    6423.8298    11648.586    1885.7246 
  295500     297.5083   -1164.7535    6400.1238    11591.179    1919.9941 
  295600    296.46236   -1161.5119    6462.4728    11634.424    1934.8284 
  295700     302.5592   -1165.0192    6425.7737    11724.468    1870.8056 
  295800    301.07096   -1160.6013    6484.8397    11756.157    1921.4777 
  295900    298.79573    -1158.492    6461.9362    11686.757    1888.4352 
  296000    298.91173   -1161.7976    6433.6388    11657.632    1833.9064 
  296100    302.69137   -1160.7436    6360.9209    11666.714    1871.1249 
  296200    296.47725   -1161.8722    6391.5347    11563.444    1899.4457 
  296300    301.00059   -1162.5722    6424.1681    11692.012    1886.7615 
  296400    297.63625   -1168.6262    6467.0206    11656.936    1887.5304 
  296500    303.28566   -1172.1218    6386.0964    11693.207    1915.1292 
  296600    297.39193   -1167.8777    6405.7585    11591.203    1918.2564 
  296700    300.02515   -1165.3894    6334.4601    11578.648    1884.3128 
  296800    299.60965   -1166.6554    6466.8651     11700.91    1893.6712 
  296900    297.73425   -1164.2073    6374.4067    11570.835    1877.1732 
  297000    299.86444   -1161.9131    6399.3591     11643.59     1868.844 
  297100    301.78315      -1160.8    6460.9699    11747.304    1888.8898 
  297200    301.59865   -1163.2282    6357.2414    11637.206    1876.6156 
  297300     303.0829   -1166.6067    6335.7601    11644.055    1849.3455 
  297400    300.31624     -1168.93    6364.1178    11610.984     1866.907 
  297500    301.33636   -1166.6208    6571.4084    11842.377     2013.768 
  297600    298.79674   -1168.7913    6410.4383    11624.981     1909.984 
  297700     306.0611   -1165.2435    6388.3442    11761.626    1885.5138 
  297800    297.46559   -1163.1019    6426.4441    11618.238    1932.6315 
  297900    304.88081   -1157.7582    6403.6208    11759.173    1898.8024 
  298000    298.66926   -1160.0137    6434.6327    11655.229    1876.3289 
  298100    304.83795   -1164.0952    6341.2914    11689.591     1873.949 
  298200    300.46633   -1161.6035    6471.8972    11729.296    1930.4081 
  298300    298.97684   -1166.8338    6390.1367    11610.484    1834.2245 
  298400    301.50164   -1162.4584     6458.008     11736.67    1817.5751 
  298500    299.15279   -1167.3032    6423.7721    11647.409    1816.6971 
  298600    303.24548   -1160.0892    6443.7302    11762.015    1946.6726 
  298700     292.9952    -1155.873     6466.478    11569.998    1845.4189 
  298800    298.82501   -1162.0761    6446.4058    11668.267    1901.6769 
  298900    300.11104   -1162.6309    6403.3307    11652.112    1975.3608 
  299000    302.55261   -1158.7395    6407.8943    11712.727    1880.9988 
  299100    300.27552   -1152.8486    6465.6482    11727.725    1910.3542 
  299200    300.38178   -1164.6781    6395.8152    11648.333    1923.0208 
  299300    302.38617   -1164.3968    6315.3116    11610.931    1837.6523 
  299400    298.93778   -1168.4562    6515.9785    11733.869    1868.2969 
  299500    299.42982   -1167.6617    6438.4475    11667.644    1898.7602 
  299600    300.51748   -1158.6474    6428.6189    11690.066    1816.6754 
  299700    297.80343   -1161.8045    6419.9777    11620.286     1812.313 
  299800    303.33258   -1162.3665    6383.7484    11701.617     1985.028 
  299900    301.30931   -1164.5094    6357.7724    11630.274    1911.1786 
  300000    297.98187   -1167.2191    6435.6023    11634.309    1918.6772 
Loop time of 286.774 on 8 procs for 300000 steps with 7168 atoms

Pair  time (%) = 137.8 (48.0517)
Bond  time (%) = 81.1534 (28.2987)
Neigh time (%) = 19.5789 (6.82727)
Comm  time (%) = 33.1688 (11.5662)
Outpt time (%) = 0.464072 (0.161825)
Other time (%) = 14.6092 (5.0943)

Nlocal:    896 ave 899 max 891 min
Histogram: 1 1 1 0 0 0 0 1 1 3
Nghost:    2842.88 ave 2848 max 2839 min
Histogram: 1 1 1 2 0 1 0 0 1 1
Neighs:    23633.5 ave 23964 max 23201 min
Histogram: 1 0 1 2 0 0 0 1 1 2

Total # of neighbors = 189068
Ave neighs/atom = 26.3767
Ave special neighs/atom = 157.056
Neighbor list builds = 3046
Dangerous builds = 0
unfix           NVT
# −−−−−−−−−−−−−−− Equilibration in nve −−−−−−−−−−−−−−−−−
fix             NVE all nve
run             300000
Memory usage per processor = 11.5453 Mbytes
Step Temp E_pair E_mol TotEng Press 
  300000    297.98187   -1167.2191    6435.6023    11634.309    1918.6772 
  300100    298.01114   -1165.4446    6433.2062    11634.312    1966.4198 
  300200    299.49063   -1170.0929    6406.3307    11634.396    1914.3683 
  300300    300.34923   -1163.6998    6381.5447    11634.345    1883.1354 
  300400    298.83895   -1169.3383    6419.4809    11634.378    1931.8932 
  300500     298.9774    -1164.576    6411.7438    11634.361    1925.4795 
  300600    299.76289   -1163.4065    6393.6953    11634.263    1889.4201 
  300700    298.87694   -1165.8106    6415.1217    11634.358    1959.3408 
  300800    300.79595    -1162.275    6370.6344    11634.403    1920.7604 
  300900     297.5578   -1166.5139    6443.9758    11634.328    1878.4794 
  301000    296.36645   -1168.8976    6471.7903    11634.307     1928.256 
  301100    302.01176   -1167.0873    6349.3506    11634.281     1909.605 
  301200    300.23183   -1161.1413    6381.3384    11634.189    1884.5109 
  301300    296.84932   -1158.8638      6451.37    11634.236    1906.6745 
  301400    299.04435   -1162.9018    6408.4751    11634.197    1892.5796 
  301500    298.37079   -1165.2667      6425.24    11634.207    1820.9579 
  301600    300.32666   -1168.2524      6386.52    11634.286    1882.7255 
  301700    299.50652   -1157.2997    6392.9711    11634.169    1874.8421 
  301800    298.30337   -1162.9629    6424.4418    11634.273    1842.4855 
  301900    298.06297   -1164.2766    6430.9076    11634.289     1869.685 
  302000    298.08609   -1163.0979    6429.2683    11634.322    1910.1599 
  302100    301.25309   -1162.3082    6360.7414    11634.243    1897.0927 
  302200     297.8792    -1160.234    6430.8095    11634.307    1894.5892 
  302300    299.38468   -1161.2746    6399.6697    11634.289    1939.8687 
  302400    298.71902   -1161.8918    6414.5187      11634.3    1916.7812 
  302500    299.86221   -1161.6736    6389.8702    11634.293    1882.3387 
  302600    299.90368   -1166.6141    6393.9071    11634.275    1881.0373 
  302700    296.35143   -1167.9308     6471.186    11634.349    1882.4283 
  302800    300.31897    -1166.405    6384.8815    11634.331    1907.1242 
  302900    299.08594   -1167.6567    6412.4356    11634.291    1942.5039 
  303000    299.35776   -1162.3582    6401.3897    11634.351     1988.052 
  303100    300.24392   -1165.8779    6385.9453    11634.318    1910.5588 
  303200    297.19219   -1165.3566    6450.5834    11634.282    1891.7918 
  303300    298.69698   -1165.1502     6418.275    11634.328    1926.0661 
  303400    303.13291    -1160.783    6319.1205    11634.307    1887.6904 
  303500    301.17928   -1162.3848    6362.4372    11634.286    1899.2772 
  303600      299.956   -1172.8847    6399.0902    11634.305    1878.8793 
  303700    292.45408   -1168.5523    6555.0085    11634.289    1856.5927 
  303800    302.72278   -1169.3491    6336.4407    11634.299    1780.7239 
  303900    302.77904   -1166.4686    6332.4505    11634.391    1902.4563 
  304000    297.40677    -1166.536    6447.1842    11634.288    1880.7261 
  304100    300.51126   -1162.4702    6376.8237    11634.315    1891.7385 
  304200    300.16213   -1161.0907    6382.8048    11634.218    1928.5349 
  304300    300.02719   -1158.5695    6383.1574    11634.208    1886.0138 
  304400    298.98437   -1156.6434     6403.554    11634.253    1878.5172 
  304500    301.99257   -1164.4415    6347.1657    11634.332    1941.7757 
  304600    297.02077    -1164.073    6452.9633    11634.283    1922.7711 
  304700     297.7499   -1158.1481    6431.4833    11634.305    1915.8918 
  304800    300.27489   -1159.2636    6378.6647    11634.313    1904.8693 
  304900    297.69098   -1160.8928    6435.4387    11634.257    1905.2109 
  305000    294.20178   -1158.2547     6507.348    11634.263    1968.2236 
  305100     302.8339   -1162.5085    6327.1338    11634.207     1905.038 
  305200    295.25917   -1157.8308     6484.249    11634.177    1893.3522 
  305300    299.42499   -1161.1659    6398.6378    11634.227    1902.4142 
  305400    300.46574   -1161.8663    6377.1136    11634.237    1933.5192 
  305500    299.85314   -1158.3647    6386.7458    11634.283    1965.0162 
  305600    297.62507   -1159.6482    6435.6024    11634.257    1937.3325 
  305700     298.7378   -1163.6879    6415.8682    11634.255    1831.8321 
  305800    297.54385   -1164.8465    6442.6034    11634.325    1837.2652 
  305900    302.44373   -1168.2146    6341.3173    11634.349    1853.7882 
  306000    299.80598   -1168.3536     6397.742    11634.283    1909.0462 
  306100    298.66326   -1157.0726    6410.9777    11634.387    1910.3971 
  306200     301.1656   -1162.7984    6363.1816    11634.324      1895.01 
  306300    297.57294   -1160.5814    6437.7279    11634.336    1919.4183 
  306400    303.10304   -1159.3211    6318.3052    11634.315    1890.4248 
  306500    298.59961   -1163.0936     6418.367    11634.396    1875.7621 
  306600    304.26512   -1164.1424    6298.3317    11634.347     1925.489 
  306700    296.05778   -1170.9197     6480.523    11634.423    1932.2529 
  306800    299.49223   -1163.5585    6399.7552    11634.389    1805.3236 
  306900    298.69173   -1171.3207    6424.7056    11634.475    1852.9755 
  307000    301.40775   -1164.5298    6359.8956     11634.48    1859.0661 
  307100     299.4602   -1164.7037    6401.5744    11634.378    1896.5759 
  307200    299.79713   -1162.2663    6391.8481    11634.288    1918.4595 
  307300    297.55153   -1154.0064    6431.6483    11634.374    1950.7854 
  307400    301.05167   -1164.5238    6367.3289    11634.312    1923.7093 
  307500    298.76736   -1167.1174    6418.6645    11634.253    1890.4936 
  307600    296.98767   -1164.8575    6454.5316     11634.36    1962.0087 
  307700    303.06615   -1165.7794    6325.6131    11634.377    1965.8264 
  307800    296.91398   -1167.8094    6459.0754    11634.378    1926.6427 
  307900    298.18058   -1164.8882    6428.9616    11634.244    1853.4947 
  308000    298.22983   -1161.3069     6424.412    11634.328    1907.4807 
  308100    300.01605   -1155.5648    6380.4557    11634.273    1872.9014 
  308200    303.17084   -1163.0779    6320.5235    11634.225    1847.9981 
  308300    297.51429   -1156.0519    6434.4169    11634.301    1930.6003 
  308400    301.47561   -1161.6364    6355.3732    11634.301    1893.0333 
  308500     297.5517   -1157.4261    6434.9868    11634.296     1872.234 
  308600    298.10079   -1164.7868      6430.65    11634.329    1888.3772 
  308700     298.6661   -1164.6796    6418.4254    11634.289    1838.9979 
  308800    296.75632    -1157.911    6452.5264    11634.359    1938.3615 
  308900    304.92001   -1165.9101    6286.1783    11634.417    1863.0004 
  309000     297.2962   -1160.0029    6443.0595    11634.334    1840.4409 
  309100    297.50669   -1158.1062    6436.6238    11634.291    1858.3854 
  309200    296.85705   -1163.2777     6455.746    11634.364    1946.9923 
  309300    303.48187   -1158.3306    6309.2571    11634.351    1891.0834 
  309400    299.82699   -1162.6196    6391.5151    11634.239    1880.8886 
  309500    299.71403   -1166.3758    6397.7006    11634.255    1873.8593 
  309600    298.87238   -1168.8551    6418.3413    11634.436    1859.8711 
  309700    296.58454   -1167.0789    6465.3842    11634.379     1819.542 
  309800    302.44495   -1167.9377    6341.0144    11634.349    1810.7864 
  309900    296.78776   -1169.1467    6463.1164    11634.385    1896.1341 
  310000    300.25258   -1170.3078    6390.1724      11634.3     1880.221 
  310100    297.13306   -1154.5934    6441.0895    11634.288    1933.3773 
  310200    298.57171   -1163.7623    6419.5859     11634.35    1995.8458 
  310300    301.42611   -1164.1612    6359.0238    11634.369    1930.8833 
  310400    298.44409   -1166.9043    6425.4151    11634.311    1919.6705 
  310500    301.64034   -1165.3998    6355.6503    11634.334    1939.4471 
  310600    296.96401   -1167.1082     6457.311    11634.383    1924.8214 
  310700    300.72708    -1167.058    6376.8277    11634.342    1876.4553 
  310800    299.45647    -1164.853    6401.7953     11634.37    1933.3904 
  310900    299.27769   -1164.2607    6404.9125    11634.261    1850.2729 
  311000    298.48168   -1165.2695    6422.9431    11634.277    1879.0185 
  311100    301.84078    -1165.209    6351.1886    11634.345    1887.1617 
  311200    299.01316   -1162.5977    6408.9773    11634.337    1945.7829 
  311300    299.41399   -1164.8938    6402.6498    11634.276    1855.3515 
  311400    294.56542   -1162.7096    6504.1412     11634.37    1841.2721 
  311500    299.84539   -1161.8067    6390.4719    11634.402    1909.7998 
  311600    297.52501    -1165.184    6443.2955    11634.277      1840.62 
  311700    299.81645   -1163.0118    6392.1614    11634.268    1812.7796 
  311800    298.52456   -1166.9159    6423.7817    11634.385    1890.9959 
  311900    299.00819   -1165.3228    6411.7336    11634.262    1887.7013 
  312000      302.312   -1164.0107    6339.8275    11634.249    1839.3652 
  312100    299.60836   -1162.0733    6395.7071    11634.307    1908.0421 
  312200    298.45801   -1160.2362     6418.435    11634.296    1943.4375 
  312300    298.44221   -1162.9256    6421.4294    11634.264    1879.8706 
  312400    299.50431   -1165.5614    6401.3967    11634.285    1920.1128 
  312500    297.31517   -1164.7241     6447.333    11634.291    1913.6177 
  312600    300.44432   -1162.9888    6378.6864    11634.229    1791.9389 
  312700    297.14871   -1159.0052    6445.1683    11634.289    1845.0979 
  312800    299.29914   -1162.4129    6402.6085    11634.262    1920.4502 
  312900    297.02758   -1164.8733    6453.5218    11634.187      1911.33 
  313000     301.8325   -1165.1764     6351.239    11634.251     1877.913 
  313100    299.82922    -1161.077    6389.9155     11634.23    1902.6324 
  313200    297.32075   -1163.4842    6445.9709    11634.288    1839.3443 
  313300    299.51354   -1166.1324    6401.8798    11634.395    1797.7315 
  313400    303.10533   -1165.4818    6324.4746    11634.373    1869.4979 
  313500    298.31581   -1169.6468     6430.936    11634.349    1965.4274 
  313600    298.63008   -1168.1672    6422.7879    11634.394    1877.8895 
  313700    294.46261   -1162.0843     6505.703    11634.361    1920.5823 
  313800    301.86247   -1160.7787     6346.348    11634.398    1883.0286 
  313900    299.32271   -1168.3149    6408.1079    11634.363    1848.7921 
  314000    298.36297   -1161.8062    6422.1433    11634.404    1839.7304 
  314100    299.89628   -1164.5798     6392.183    11634.427    1901.6378 
  314200    300.73996   -1161.2617     6370.792    11634.378    1837.0033 
  314300    299.94627   -1168.5692    6395.1103    11634.433    1781.3769 
  314400      294.227   -1165.3156    6514.0364    11634.429    1845.5675 
  314500    303.07048   -1167.4968    6327.2372    11634.376    1863.3965 
  314600    300.00404   -1164.6661    6389.8571    11634.317    1845.4628 
  314700    299.37954   -1165.3247    6403.8606     11634.32    1828.3052 
  314800    299.93475   -1163.2507     6389.917    11634.312    1802.1881 
  314900    296.17417   -1160.7376    6467.7497    11634.319    1884.2836 
  315000    300.36982   -1164.2001    6381.6638    11634.404    1935.4294 
  315100    301.54658   -1164.5349    6356.7743    11634.319    1890.6286 
  315200    297.84914   -1165.8282     6437.019    11634.281    1849.0376 
  315300     296.2783   -1165.3239    6470.0952    11634.303    1828.7373 
  315400     298.3524   -1163.5437    6424.0017    11634.299    1808.6535 
  315500    303.69075   -1169.3785    6315.7287    11634.237     1823.309 
  315600    303.16512   -1161.4153    6318.9948    11634.237    1890.2963 
  315700    297.13304   -1156.6726    6443.1458    11634.265    1933.7967 
  315800    301.16526   -1156.0122    6356.3157    11634.237     1861.956 
  315900    295.04128   -1157.4026    6488.6139    11634.316    1940.8635 
  316000    301.52231   -1163.6015     6356.303    11634.263    1882.3247 
  316100    301.47925   -1163.9546    6357.6262    11634.313    1839.7613 
  316200    300.05585   -1167.1216    6391.2515    11634.363    1855.9922 
  316300    299.02898   -1171.2458    6417.2581    11634.308    1898.4364 
  316400       295.03   -1165.4752    6497.0029    11634.391    1941.6975 
  316500    299.40749   -1161.9805    6399.9487     11634.35     1848.326 
  316600    299.45372   -1164.9833    6401.9585    11634.344    1935.3803 
  316700    304.79652   -1164.5755    6287.3381    11634.272    1865.7688 
  316800    301.84605    -1158.426     6344.225    11634.277     1858.336 
  316900    298.33552   -1162.4704    6423.3201     11634.33    1847.0704 
  317000    299.02964   -1166.3124    6412.4298    11634.427    1859.7363 
  317100    303.13761   -1164.8707    6323.1512     11634.35    1840.7479 
  317200     295.3573   -1166.4848    6491.0464    11634.417    1963.4466 
  317300    301.85541   -1170.3188    6356.0276    11634.387    1857.2814 
  317400    298.60462   -1167.1105    6422.2677    11634.387    1817.1887 
  317500    302.03909   -1169.4762    6351.3137    11634.439     1870.349 
  317600    298.14245   -1162.7625    6427.7204    11634.314    1864.1011 
  317700    297.36608   -1162.2753     6443.838    11634.333    1804.3995 
  317800    299.03967    -1163.051    6408.8515    11634.324    1937.9097 
  317900    301.65559   -1157.3897    6347.2537    11634.273    1964.0385 
  318000    300.29349   -1153.8568     6372.815    11634.268    1907.2539 
  318100    300.25805   -1161.3387    6381.0494    11634.263    1877.5843 
  318200    295.39774   -1165.5015    6489.0509    11634.269    1955.9306 
  318300    300.48181   -1161.7145    6376.6991    11634.317     1872.912 
  318400    298.64784   -1164.0779    6418.1453     11634.22    1910.3402 
  318500     300.5446   -1166.8085    6380.4246     11634.29    1989.3867 
  318600    297.17941   -1162.0719    6447.5346    11634.245    1925.1971 
  318700    298.46164   -1159.3754    6417.2984    11634.098    1858.2597 
  318800    298.73992     -1158.38    6410.3984    11634.138      1945.16 
  318900    302.39822    -1160.303    6334.1365    11634.108    1942.0733 
  319000    299.95335   -1160.0296    6386.1923    11634.206    1844.7193 
  319100    297.38569   -1159.1289    6440.1527    11634.213     1856.186 
  319200    301.13716   -1157.9134    6358.8265    11634.247    1911.3858 
  319300    300.91999   -1163.6182    6369.1702    11634.246    1907.4754 
  319400    301.89946   -1161.5091    6346.2066    11634.316    1858.5786 
  319500     297.9503   -1167.0188    6436.0339    11634.266    1842.2966 
  319600    299.27704   -1165.3632     6405.967    11634.198    1831.3549 
  319700    301.27419   -1163.1485    6361.1986    11634.311     1909.041 
  319800     298.2236   -1158.5733     6421.782    11634.298    1930.5052 
  319900    298.74428   -1157.2601    6409.3255    11634.279    1905.8141 
  320000    301.27498   -1164.8958    6362.8558    11634.238    1938.8951 
  320100    301.96566   -1169.8949    6353.2389    11634.377    1921.4786 
  320200    297.65088   -1168.9964    6444.4872    11634.345      1860.38 
  320300    297.60147   -1167.8135    6444.2859    11634.271    1832.7646 
  320400    299.24861   -1170.9996    6412.3565    11634.344    1886.8011 
  320500    300.00513    -1171.146    6396.3469     11634.35    1897.7745 
  320600    300.37647   -1167.6576    6384.8979    11634.323    1917.3934 
  320700    299.27178   -1165.9904    6406.8028    11634.295     1963.645 
  320800    298.68303   -1163.9995    6417.3626    11634.268    1956.8638 
  320900    300.61636   -1162.0625    6374.1786    11634.323    1923.4289 
  321000    297.09682   -1164.4188    6451.6906    11634.289    1888.0894 
  321100    300.15707   -1164.9438    6386.8319    11634.283    1860.6322 
  321200    300.66827   -1165.7932    6376.7272     11634.25    1890.0618 
  321300    300.76921   -1164.6421    6373.5362    11634.367    1915.6327 
  321400    298.41875   -1171.5083    6430.5158    11634.266    1893.8863 
  321500    296.76026   -1171.0444    6465.4801    11634.263    1920.2259 
  321600    301.44045   -1161.1516    6355.5985     11634.26    1904.8689 
  321700    299.59818   -1159.8185    6393.6204    11634.257     1916.307 
  321800    301.24105   -1152.7272    6351.2755    11634.101     1943.004 
  321900    300.67612   -1153.5587    6364.2348     11634.16    1933.5551 
  322000    297.64146    -1164.283    6439.8453    11634.215    1928.2751 
  322100     299.0606     -1164.31    6409.5769    11634.238    1960.6405 
  322200    296.17254   -1163.0332    6470.0219    11634.261    1979.1444 
  322300    302.10458   -1166.0694    6346.2837    11634.215    1898.4109 
  322400    296.01979   -1163.6752     6473.912    11634.245    1915.5442 
  322500    297.16888   -1164.8336    6450.4788    11634.202    1918.9237 
  322600    298.93243   -1164.9942    6412.9463    11634.185    1837.9234 
  322700     295.2829    -1161.502    6487.5082    11634.272    1956.6601 
  322800    302.90999   -1160.0986    6323.1466    11634.255    1947.5453 
  322900    300.05532    -1159.281    6383.2906    11634.231    1927.1925 
  323000    298.94557   -1155.7284    6403.4509    11634.236    1899.1334 
  323100    299.64947   -1159.8267    6392.5113    11634.236      1884.85 
  323200    298.94526   -1161.5704    6409.2887    11634.225    1881.4263 
  323300    298.84542   -1167.5638     6417.506    11634.316    1871.0093 
  323400    298.63236   -1170.2512    6424.7958    11634.367    1885.1459 
  323500    301.44289   -1170.9377    6365.4988    11634.426    1844.8563 
  323600    294.84703    -1164.466    6499.8638    11634.352    1914.3773 
  323700    298.61803   -1164.4995    6419.3906    11634.407    1914.0976 
  323800     298.8372   -1158.0861    6408.2576     11634.37    1925.9589 
  323900    302.12809   -1163.6032    6343.3775    11634.277    1911.8621 
  324000    295.86628   -1163.9567     6477.557    11634.329    1965.1742 
  324100    300.44608   -1160.7585    6376.5234    11634.334     1866.959 
  324200    296.87286   -1159.8932    6451.9925    11634.333    1938.2357 
  324300    300.72168     -1166.82    6376.7175    11634.355     1943.374 
  324400    300.35253    -1168.436     6386.286    11634.421    1921.5073 
  324500    299.11631   -1161.6963    6405.9309    11634.396    1913.9925 
  324600    298.73216   -1167.0556    6419.4684    11634.367    1897.5122 
  324700    298.73308   -1159.4503    6411.8249    11634.348     1865.206 
  324800    299.32851     -1156.48    6396.1843    11634.399    1965.2702 
  324900    298.20162   -1162.2355     6425.909    11634.294    1930.8947 
  325000    298.73881   -1163.3984    6415.5535    11634.251    1925.1817 
  325100    297.78853    -1164.845     6437.195    11634.145    1952.7898 
  325200     300.5692   -1162.2847    6375.3158    11634.231    1979.2002 
  325300    298.09187   -1161.3484    6427.2161    11634.143    1890.6129 
  325400     301.6486   -1162.8549    6352.7889    11634.193    1868.6111 
  325500    301.07388   -1164.7101    6366.9865    11634.258     1929.015 
  325600     296.5379   -1162.8056    6461.9015    11634.173    1860.2353 
  325700    299.53375   -1162.6693     6397.868    11634.278    1855.2105 
  325800     297.8599   -1165.2953    6436.3017    11634.326    1933.4564 
  325900     299.4888   -1160.9183    6397.1531    11634.354     1880.549 
  326000    298.30103   -1162.4713    6423.9671     11634.24     1818.394 
  326100    302.28741    -1167.393    6343.8198    11634.333    1847.9848 
  326200    300.14169   -1170.0212    6392.3294    11634.375    1895.9722 
  326300    298.60555    -1166.479    6421.5647    11634.335    1862.8783 
  326400    300.56153   -1164.1602    6377.3458    11634.221    1845.7345 
  326500    298.03169   -1166.9154    6434.2497    11634.324    1882.1493 
  326600    301.83329   -1170.3642    6356.6283    11634.469    1912.3394 
  326700     298.5528    -1163.092    6419.4111    11634.442    1922.6221 
  326800    300.40103   -1165.5195    6382.1849    11634.273    1927.2128 
  326900    297.24415   -1165.3956    6449.5331    11634.303    1890.7317 
  327000     299.4148   -1169.2879    6407.1498      11634.4    1901.9861 
  327100    298.50107   -1165.3375    6422.7088    11634.389    1898.4928 
  327200    299.97526   -1165.8185    6391.5535    11634.246    1885.2105 
  327300     300.0212   -1159.6902    6384.4457    11634.248    1943.1514 
  327400    296.78456   -1164.0387     6457.916    11634.224    1993.4652 
  327500    301.09704   -1167.6636    6369.4203    11634.233     1932.161 
  327600    299.58054   -1160.5939    6394.7245    11634.209    1922.7164 
  327700    298.51281   -1162.6127    6419.6446      11634.3    1981.9485 
  327800    298.90558   -1166.5326     6415.116    11634.243    1928.6602 
  327900     298.7387   -1163.5429    6415.6206    11634.172    1942.4562 
  328000    298.17694    -1162.497    6426.5904    11634.186    1950.3011 
  328100    296.68284   -1168.8173    6464.9258    11634.282    1975.1189 
  328200    299.26181   -1165.6734    6406.6863    11634.282    1875.1638 
  328300    296.83321   -1161.0175    6453.8982    11634.267     1936.969 
  328400     296.2166   -1162.4161    6468.4398    11634.237    1941.6982 
  328500     303.7628   -1164.5094    6309.3263    11634.243    1899.3688 
  328600     296.8028   -1163.9751    6457.4885     11634.25    1928.7516 
  328700    298.22498   -1165.1817    6428.4216    11634.359    1924.0813 
  328800    299.69473   -1163.9969    6395.7663    11634.287    1915.6652 
  328900    299.64246   -1167.1053    6400.0484    11634.345    1949.2346 
  329000    298.22621   -1164.8652    6428.0783    11634.358     1931.964 
  329100    299.08356   -1166.5765    6411.4703    11634.355    1894.6078 
  329200    298.53384   -1165.5959    6422.2017    11634.323    1960.8605 
  329300    301.19524   -1164.2866    6364.0582    11634.346     1958.352 
  329400    300.38066   -1165.3264    6382.4627    11634.308    1919.2732 
  329500    301.23465   -1167.1272    6366.1239    11634.413    1872.4501 
  329600    300.56482   -1167.4524    6380.7269    11634.381    1923.9515 
  329700    297.45768     -1172.29    6452.0384    11634.475    1895.3118 
  329800    296.53061   -1167.4522    6466.9201    11634.389    1893.3282 
  329900    302.16741   -1166.3799    6345.3635    11634.327    1840.6387 
  330000    299.80273   -1170.1366    6399.7056    11634.394    1863.9128 
  330100    297.89158   -1171.1533    6441.4984    11634.342    1897.2842 
  330200    300.34396   -1162.2235    6380.0713    11634.236    1927.7413 
  330300    298.37621   -1162.5844    6422.5037    11634.269    1978.0931 
  330400    300.06536    -1164.738    6388.5911    11634.289    1916.1039 
  330500    299.63023    -1163.565    6396.7267    11634.302    1899.0621 
  330600    298.40254   -1168.3375    6427.7566    11634.332    1925.7324 
  330700    296.91158   -1164.3859     6455.641    11634.316    1904.0767 
  330800    301.21071   -1164.0915    6363.5572     11634.37    1860.6495 
  330900    299.72574   -1159.4812    6390.5508     11634.25    1956.2631 
  331000    297.94693   -1161.6428    6430.7161    11634.252    1887.6885 
  331100    298.30616   -1157.8672    6419.2604    11634.247    1901.4164 
  331200    301.27236   -1160.0212    6358.0262    11634.227    1973.6097 
  331300    296.34477   -1160.0788    6463.2379     11634.11    1945.5523 
  331400    300.03755   -1152.6287    6376.9398    11634.153    1868.2644 
  331500    299.40682   -1168.7959    6406.6913    11634.263    1896.1882 
  331600    299.37782   -1165.8731    6404.3601    11634.235    1922.2383 
  331700     299.5795   -1163.2683    6397.5508    11634.339    1915.7657 
  331800    302.09903   -1166.8932    6347.3108      11634.3    1868.9337 
  331900    296.09259   -1165.5033     6474.196    11634.257    1896.9937 
  332000    301.21747   -1165.8795    6365.1418    11634.311    1908.5477 
  332100    296.76695   -1164.5766    6458.8773    11634.271    1923.2602 
  332200    301.15877   -1161.8237    6362.3823    11634.354    1922.4911 
  332300    296.97881   -1157.3993    6447.2161    11634.313    1919.9782 
  332400    297.78962   -1168.5267    6441.0537    11634.345    1944.5048 
  332500    299.75732   -1169.2271    6399.7664    11634.395    2001.6131 
  332600    298.42631   -1166.6585    6425.6456    11634.407    1936.9372 
  332700    297.08964    -1167.101     6454.671    11634.434    1898.5635 
  332800    300.45764   -1166.1454    6381.7695     11634.44    1952.4199 
  332900     298.9933   -1170.6224    6417.5251    11634.436    1916.0112 
  333000    300.07009   -1166.1445    6389.9933    11634.386    1932.9176 
  333100    298.53899   -1164.5376    6421.1288    11634.419    1963.2056 
  333200    299.01666    -1167.311     6413.678    11634.399    1917.7074 
  333300    299.44863   -1167.0233    6404.1207    11634.358    1936.4449 
  333400    298.37576   -1168.6808    6428.7479    11634.407     2017.891 
  333500    301.43366   -1169.1715    6363.8774    11634.373    1951.9582 
  333600    297.15797   -1164.8193    6450.8932    11634.398    1938.0182 
  333700    302.88006   -1168.3668    6332.1675    11634.368    1849.3503 
  333800    297.28454   -1166.1829    6449.4782    11634.323    1946.4619 
  333900    300.20958   -1164.7358    6385.4944    11634.276    1949.0566 
  334000    297.01399    -1162.853    6451.9008    11634.296    1997.5354 
  334100    299.93763   -1160.0033    6386.5366    11634.241    1968.4303 
  334200     296.4675    -1163.996    6464.5934    11634.171    1945.1699 
  334300    297.34772   -1162.6264    6444.4724    11634.224    1948.0868 
  334400    302.49471   -1161.4998    6333.4511    11634.287     1962.795 
  334500    295.46986   -1159.1826     6481.158    11634.236    1968.5282 
  334600    298.52164   -1164.7302     6421.459    11634.186    1933.7146 
  334700    302.34465   -1167.0781    6342.1768    11634.228    1915.4446 
  334800    298.16485   -1157.3446    6421.6895    11634.179    1905.0515 
  334900    301.21623   -1159.9793    6359.1541    11634.197    1980.9723 
  335000    296.48845   -1157.5447    6457.7309    11634.207     1983.151 
  335100    297.72405   -1161.1103    6434.9205    11634.228     1929.892 
  335200    299.51852   -1158.8329    6394.3383    11634.259    1922.7372 
  335300    299.83178   -1161.8396    6390.7089    11634.315    1962.4601 
  335400    297.61734   -1161.5835    6437.7832    11634.337    1941.8671 
  335500    302.10527   -1166.0103    6346.2285    11634.234     1857.778 
  335600    296.04001   -1162.6392    6472.5226    11634.324    1946.8466 
  335700    300.50851   -1163.5804    6377.9215    11634.244     1881.018 
  335800    303.29771   -1166.1543    6320.9102    11634.246     1896.645 
  335900    299.83968   -1160.6879    6389.3597    11634.287    1928.5785 
  336000    298.85653   -1168.2341    6417.8682    11634.245    1872.4035 
  336100    298.83401   -1162.1343    6412.2238     11634.22     1892.289 
  336200    298.98203   -1171.0395    6418.0152    11634.268    1856.2836 
  336300    300.30088   -1168.9939     6387.823    11634.297    1900.2216 
  336400    299.58512   -1171.4432     6405.609    11634.342    1887.7913 
  336500    301.11066   -1166.6774    6368.2949    11634.385    1882.5495 
  336600    303.11375   -1168.5341    6327.3618    11634.388    1932.7875 
  336700    299.10396   -1160.3695    6404.7086    11634.236    1995.8642 
  336800     296.7456   -1157.1278    6451.8934     11634.28    1963.2687 
  336900     299.8336   -1163.6316    6392.4111    11634.264    1948.7122 
  337000    300.66848   -1162.4062    6373.4083    11634.323    1881.8793 
  337100    294.18258   -1169.3454    6518.9198    11634.334    1956.0517 
  337200    302.40395   -1166.5293    6340.4256    11634.293    1917.1001 
  337300    299.94259   -1171.4552    6397.9691    11634.327    1938.7626 
  337400    297.40078   -1158.9945    6439.7485    11634.265    1865.6119 
  337500    297.64447   -1161.4431    6437.0124    11634.287    1851.3415 
  337600    302.93963   -1165.7445    6328.1851    11634.281    1915.3562 
  337700    297.03977   -1163.6437    6452.1107    11634.266     1973.287 
  337800    297.11116   -1157.9719    6444.8628    11634.215      1965.27 
  337900    299.32278   -1158.3886    6397.9939    11634.177    1878.3437 
  338000    297.71588   -1155.3978    6429.4388    11634.284    1936.1255 
  338100    302.06771   -1165.0289    6346.0865    11634.271    1870.3678 
  338200    298.76333   -1165.4223    6417.0894    11634.287    1854.1757 
  338300    296.58973   -1162.3918    6460.4725    11634.265    1942.4174 
  338400     298.2817   -1164.8738    6426.8098    11634.267    1908.3632 
  338500     296.5538   -1157.6309    6456.4249    11634.211    1881.4628 
  338600    299.87085   -1157.0539    6385.0281    11634.255     1910.556 
  338700    295.83565   -1155.5831    6469.7372    11634.229    1910.5999 
  338800    299.38068   -1162.3442    6400.7746    11634.239    1809.3429 
  338900    296.81345   -1161.1038    6454.3732    11634.233    1910.5447 
  339000    297.04324   -1163.1451    6451.5685    11634.296    1877.8751 
  339100    301.92005   -1163.2477     6347.499     11634.31     1782.055 
  339200    299.53465   -1158.7377    6393.8979    11634.258    1815.5474 
  339300    300.82699   -1164.2758    6371.8885     11634.32    1956.4932 
  339400    298.89386   -1161.6981    6410.5461    11634.257     1866.558 
  339500    296.58403   -1159.6602    6457.8394    11634.242    1862.7805 
  339600    300.69673   -1161.4092    6371.7317    11634.247    1904.2597 
  339700     299.3599   -1155.5528    6394.4094    11634.222     1915.679 
  339800    299.80757   -1162.7941    6392.0854     11634.22    1899.5396 
  339900    302.15691   -1164.3694    6343.5008     11634.25    1886.7178 
  340000    296.65271   -1160.3148    6456.9566    11634.172    1885.4188 
  340100    301.39811   -1163.3506    6358.6119    11634.169     1871.609 
  340200    303.07321   -1165.6377    6325.1832     11634.24     1879.931 
  340300    294.74018    -1161.547     6499.103    11634.228    1921.5506 
  340400    302.31183   -1162.0855    6337.9058    11634.249    1900.1374 
  340500     298.8687   -1160.8206    6410.2139    11634.265    1920.8928 
  340600    296.74518   -1159.9981    6454.7921      11634.3    1853.8595 
  340700    298.26424   -1162.7358    6425.0341    11634.256    1880.7594 
  340800     300.1256   -1163.2779    6385.8016    11634.247    1874.0707 
  340900    295.95051   -1167.3493    6479.1369    11634.316    1875.3694 
  341000    300.20782   -1161.1191    6381.9467    11634.307    1940.9146 
  341100    296.37139   -1157.7272    6460.4623    11634.255    1944.6458 
  341200    297.50706   -1163.1633    6441.6576    11634.276    1951.7381 
  341300    301.73923   -1163.3171    6351.4292    11634.308    1947.3764 
  341400    300.09842   -1159.3202    6382.4565    11634.279    1947.0611 
  341500    299.10997   -1164.2569    6408.5942    11634.363    1977.8102 
  341600    299.18062    -1164.782    6407.5205    11634.273    1917.1608 
  341700    297.12546   -1168.8232    6455.5234     11634.33     1936.644 
  341800    299.16568   -1165.6381    6408.7968    11634.374    1924.3851 
  341900    299.47119   -1168.1965    6404.7821    11634.328    1906.0781 
  342000     296.8178    -1161.047     6454.354    11634.364    1918.0903 
  342100    296.80961   -1161.1713    6454.6257    11634.336    1996.9214 
  342200    298.80175   -1157.3881    6408.1662    11634.219    1918.4818 
  342300    299.94496   -1162.0669    6388.4195    11634.216    1926.1665 
  342400    299.04621   -1162.8731    6408.4632    11634.254    1921.3972 
  342500    299.54921   -1165.5817    6400.5093    11634.337    1960.4637 
  342600    299.43142   -1168.1989    6405.5674    11634.261    1894.9383 
  342700    296.31517   -1164.7413    6468.6681    11634.246    1926.9342 
  342800    300.58401   -1164.7228    6377.4242    11634.218    1872.2046 
  342900    298.71057    -1169.602    6422.3583    11634.249    1919.3468 
  343000    303.28489   -1162.9019    6317.9001    11634.215    1913.4738 
  343100    297.25068   -1152.1299    6436.0196    11634.194    1977.9688 
  343200    301.16443   -1163.7795    6363.9705    11634.107    1898.1541 
  343300    299.14564   -1164.4921    6407.8743     11634.17    1883.9745 
  343400    297.53186   -1163.1913    6441.0509    11634.171    1913.3528 
  343500    296.70937   -1162.6422    6458.0452    11634.143     1854.901 
  343600    300.75074   -1166.5878    6375.6897     11634.18    1859.6092 
  343700    299.12339        -1160    6403.7787    11634.091    1856.8616 
  343800    295.39544   -1158.7016    6482.1012     11634.07    1907.6606 
  343900    301.77299   -1160.0658    6347.2703    11634.121    1878.4668 
  344000    296.69128   -1154.5065    6450.2784    11634.126    1966.4332 
  344100    298.40284   -1158.8059    6417.9265    11634.039    1987.6762 
  344200    298.45239   -1159.9538    6418.0617    11634.085    1915.5088 
  344300    300.02228    -1164.721    6389.3112    11634.106     1927.584 
  344400     298.0324   -1172.1461    6439.3201    11634.179    1934.7178 
  344500    303.10755   -1165.4106     6324.256    11634.273    1820.0947 
  344600    297.87406    -1164.498    6435.1586    11634.283    1808.1427 
  344700    301.02374   -1165.2918    6368.6139    11634.232    1858.9662 
  344800    299.01367   -1162.9053     6409.202    11634.265    1889.6888 
  344900     298.2802   -1162.7773    6424.7201    11634.242     1922.473 
  345000     299.9814   -1166.3332    6391.9171    11634.226    1856.2796 
  345100    296.32606    -1162.343    6466.0814     11634.29    1834.4021 
  345200    298.98873   -1163.0404    6409.9798    11634.375    1882.7637 
  345300    300.28385   -1166.6065    6385.7923    11634.289    1841.5194 
  345400    300.63875   -1169.9676    6381.6294    11634.347     1920.301 
  345500    299.92872   -1169.4291    6396.2044    11634.292    1892.3859 
  345600     297.9426   -1164.5156    6433.6431    11634.214    1835.6395 
  345700    297.67215    -1164.186    6439.1809    11634.304    1905.3497 
  345800    300.54663   -1162.6148    6376.0364    11634.139    1870.1011 
  345900    300.10417   -1162.6824    6385.5753    11634.158    1884.1413 
  346000    299.53007   -1163.8085    6399.0819    11634.274    1877.8908 
  346100    296.62419   -1162.0288    6459.3188    11634.211    1909.0517 
  346200    302.07509   -1160.7401    6341.5561    11634.187    1851.3426 
  346300    299.87677   -1165.9968    6393.7821    11634.192    1819.0758 
  346400    297.21206   -1164.8381     6449.642    11634.284    1844.9846 
  346500    302.45905   -1163.1381    6335.7618    11634.197    1827.4692 
  346600     301.3251   -1149.6984    6346.4826    11634.133    1776.2567 
  346700      296.086   -1160.4658    6469.2335    11634.191    1793.8105 
  346800       296.98   -1165.6187    6455.2703    11634.174    1893.0494 
  346900    300.03155    -1159.421    6383.8165    11634.109    1910.2777 
  347000    299.64898   -1160.3334    6392.8201    11634.027    1894.0768 
  347100    297.30232   -1161.9733    6444.7093    11634.144    1910.8571 
  347200    298.40598   -1158.6202    6417.7319    11634.098    1852.2242 
  347300     301.2215    -1165.255    6364.2609    11634.141    1864.2242 
  347400    298.94412    -1157.965    6405.5977    11634.115    1855.8395 
  347500    297.07288   -1162.9246    6450.5796    11634.161    1852.2991 
  347600    301.27704   -1161.0872    6359.0423    11634.277     1900.986 
  347700    298.82902   -1160.5411    6410.7944    11634.277    1913.2963 
  347800    301.51806   -1160.0214    6352.7464    11634.196    1875.2026 
  347900     297.3128   -1159.3456    6442.0727    11634.359     1886.437 
  348000    294.86647    -1159.302    6494.2397    11634.307    1820.9041 
  348100    300.89571   -1162.1279    6368.2516    11634.299    1838.9381 
  348200    299.19442    -1164.913    6407.3903    11634.307    1905.1998 
  348300    299.16162   -1161.8797    6405.1738    11634.423    1859.8717 
  348400    297.43495   -1163.0387    6443.1636    11634.366    1888.1249 
  348500    302.22785   -1161.3579    6339.0678    11634.344    1923.6791 
  348600    297.86801   -1164.7902    6435.6826    11634.385    1931.0797 
  348700    301.80462   -1168.3696    6355.1218    11634.345    1883.2467 
  348800     298.6591   -1160.6716    6414.5961    11634.318    1906.6126 
  348900    298.04856   -1161.4757    6428.5319    11634.406    1817.5257 
  349000    297.67127   -1165.4645    6440.5776    11634.403    1816.8816 
  349100     301.5443   -1171.0119    6363.3428    11634.362    1882.5902 
  349200    302.01998   -1162.4003    6344.5957    11634.389     1914.961 
  349300    301.40433   -1162.2222    6357.4504    11634.269    1838.6536 
  349400    297.98317   -1163.6727    6431.9977    11634.278    1827.5179 
  349500    295.86345   -1164.3744    6478.0347    11634.329    1874.2146 
  349600    299.90723   -1160.8151    6388.0204    11634.263    1908.6669 
  349700    302.02908   -1156.3731    6338.1955     11634.21    1855.0438 
  349800    298.85194   -1157.5728    6407.2578    11634.198    1866.3813 
  349900    300.14171   -1159.9993    6382.1766    11634.244    1844.2029 
  350000    299.22641   -1163.5773      6405.31    11634.246    1890.4817 
  350100    302.02422   -1161.8633    6343.8029    11634.224    1911.7378 
  350200    299.45324   -1162.3451    6399.2456    11634.259    1852.3559 
  350300    294.28026   -1163.3524    6510.7901    11634.284    1844.7419 
  350400     300.4817     -1162.78    6377.6546    11634.205    1863.4473 
  350500    299.77693   -1162.1391    6392.0742    11634.209    1917.5193 
  350600    300.77838   -1163.0777    6371.6541    11634.245    1898.6575 
  350700    299.76634   -1158.4309    6388.5547    11634.172      1937.38 
  350800    300.52927   -1156.6842     6370.446    11634.108     1934.331 
  350900    299.94439   -1163.0245    6389.3659    11634.193    1858.3869 
  351000    301.26149   -1162.3583    6360.6606    11634.292    1883.9297 
  351100     294.3207   -1165.9651    6512.6148     11634.36    1941.2094 
  351200    300.82182     -1167.84    6375.4828    11634.239    1798.4696 
  351300    297.77768   -1167.0842    6439.8739    11634.353    1891.9983 
  351400    299.69888   -1169.5229    6401.2334    11634.317    1929.3478 
  351500    300.85667   -1165.1699    6372.0755    11634.247    1846.0223 
  351600    299.01205   -1165.3695    6411.7063    11634.271    1859.0222 
  351700    300.29087   -1156.8722     6375.898    11634.279     1895.844 
  351800     298.1841   -1156.0159    6419.9682    11634.198    1877.7184 
  351900     301.7255   -1161.4253    6349.8009    11634.278    1814.9673 
  352000    302.00911    -1170.718    6353.1586    11634.402    1816.3856 
  352100    298.82995   -1164.3884    6414.6986    11634.354    1826.9105 
  352200    296.91888   -1167.0991    6458.1591    11634.276    1853.7632 
  352300     298.5107   -1165.2078    6422.3246     11634.34     1847.101 
  352400    298.43182    -1166.166     6424.986    11634.358    1866.0939 
  352500    298.31217   -1158.3099    6419.6422    11634.314    1912.5978 
  352600    297.79785   -1158.7618    6431.0814    11634.314      1980.57 
  352700    298.41934   -1154.4484    6413.4351    11634.258    1877.9042 
  352800     302.1328   -1156.8065    6336.4692    11634.266    1893.8619 
  352900     302.3994   -1162.4407     6336.296    11634.154    1840.2567 
  353000    298.05718   -1164.9726    6431.6991    11634.261    1844.5374 
  353100    301.06037   -1163.9934    6366.5514    11634.251    1835.8394 
  353200    300.60654   -1161.4058    6373.6599    11634.252    1836.3088 
  353300    298.89663   -1160.9242    6409.6203    11634.164    1876.5059 
  353400    295.38758   -1157.1678    6480.8406    11634.175    1863.8221 
  353500     300.8249   -1158.3959    6365.8812    11634.148    1870.8057 
  353600     300.2532   -1159.3855    6379.0497    11634.113    1949.9272 
  353700    297.79862   -1157.0704    6429.2004    11634.141      1885.66 
  353800    300.88684   -1161.2292    6367.3941    11634.151    1892.8806 
  353900    298.63321   -1162.3504    6416.6817    11634.172     1894.761 
  354000    300.03523   -1168.2538     6392.703    11634.242    1809.0795 
  354100    300.73686   -1162.3885    6371.9146    11634.308    1848.5547 
  354200    295.85805   -1165.6555    6479.4183    11634.316     1783.546 
  354300    297.90891    -1167.568    6437.4653    11634.264    1867.2513 
  354400    303.24458   -1165.8811    6321.8992    11634.373    1888.8639 
  354500    297.40144   -1156.3322    6437.1881    11634.381    1899.3418 
  354600    300.25083   -1161.1112    6381.0021    11634.289     1894.075 
  354700    299.31028   -1160.7665    6400.7191    11634.257     1921.545 
  354800    301.27125   -1166.5761    6364.7488    11634.371    1893.6807 
  354900    297.51786   -1166.3308    6444.6548    11634.337    1894.2112 
  355000    300.42221   -1168.4932    6384.7018    11634.268    1831.9846 
  355100     297.6949   -1166.5184    6441.0323    11634.309    1872.7319 
  355200    299.11455   -1166.6816    6410.8725    11634.314    1777.3373 
  355300    299.55127    -1162.217    6397.1528    11634.389     1820.503 
  355400    298.34895   -1161.5908    6422.1826    11634.359    1848.7895 
  355500    301.90639   -1162.5139    6347.1231    11634.376    1846.5656 
  355600    298.39426   -1160.6163    6420.2084    11634.328    1890.2846 
  355700    300.17817   -1159.7286     6381.197    11634.314    1889.1519 
  355800    299.72193   -1163.9417    6395.1967    11634.354    1918.2312 
  355900    301.81108   -1160.2729      6346.83    11634.288    1921.4565 
  356000    300.84242   -1165.9314    6373.2218    11634.327    1855.5664 
  356100    299.37417   -1168.7528    6407.3763    11634.293     1909.339 
  356200    296.34632   -1161.9568     6465.284    11634.312    1910.2871 
  356300     302.0651   -1163.0247    6344.1474     11634.28    1844.4818 
  356400    298.52241   -1160.2308    6417.0504    11634.293    1859.9329 
  356500    298.66986   -1165.3004    6419.0654    11634.388     1911.668 
  356600    299.18907   -1163.1064    6405.8207     11634.43    1914.4634 
  356700    301.70151   -1164.5533    6353.5703    11634.407    1871.9576 
  356800    296.47094   -1162.9673    6463.6818    11634.361    1917.1755 
  356900     296.9611   -1161.6228    6451.9093    11634.405    1951.7517 
  357000    300.42909   -1168.8901    6385.0645    11634.381    1915.1189 
  357100    296.34717   -1164.2699    6467.6045    11634.337    1955.9196 
  357200    299.55639   -1168.2062    6402.9657    11634.322    1879.0504 
  357300    300.63333   -1164.9878    6376.7852    11634.367    1816.6168 
  357400    300.93098   -1165.9825    6371.3969    11634.343    1840.0085 
  357500      299.786   -1163.8769    6393.7518    11634.343    1917.3384 
  357600    299.11605   -1164.9842    6409.1929    11634.364    1923.9664 
  357700    301.09213   -1159.9999     6361.951    11634.322    1874.2815 
  357800    298.18081   -1160.3024    6424.4903    11634.363    1866.5719 
  357900    299.73961   -1162.7727    6393.5863     11634.29    1869.5215 
  358000    298.60912   -1164.8176    6419.8216     11634.33    1878.9184 
  358100    296.64336   -1170.0287    6467.0522    11634.354    1912.8992 
  358200    301.43005   -1170.6354     6365.318    11634.273    1835.1415 
  358300    294.78567   -1155.5632    6492.2027    11634.283    1865.7913 
  358400    300.52017   -1163.9142    6378.0312    11634.269    1893.1252 
  358500     298.7249    -1160.115    6412.5626    11634.247    1958.7493 
  358600     298.9867   -1165.9284    6412.8018    11634.265    1932.4715 
  358700    299.12556    -1160.589    6404.5748    11634.344     1905.033 
  358800    300.95179   -1161.9576     6366.752    11634.168    1923.7398 
  358900    298.81134   -1163.8119    6414.3579    11634.192    1917.1455 
  359000    298.92573   -1164.7287    6412.8632    11634.224    1887.6671 
  359100    295.54559   -1161.5812    6481.9475    11634.244    1995.8144 
  359200    303.01397   -1159.1442    6319.9713    11634.256    1948.1969 
  359300    298.49584   -1158.5208     6415.846    11634.231    1915.8424 
  359400    296.23122   -1155.4871    6461.2038    11634.242    1927.3591 
  359500    299.63164   -1162.0058     6395.049    11634.214    1897.0087 
  359600    300.26322   -1161.7372    6381.3543     11634.28    1855.3791 
  359700    296.21616   -1166.3805    6472.4872     11634.31    1882.4704 
  359800    297.85898    -1156.563    6427.5195    11634.256    1886.1018 
  359900    300.29807   -1162.7356      6381.57    11634.242    1932.5319 
  360000    299.44982   -1168.1742    6405.1897    11634.301    1931.7028 
  360100    301.84397   -1164.6769    6350.6313    11634.388     1866.195 
  360200    298.40635   -1163.6255    6422.9646    11634.333    1916.1042 
  360300    302.74383   -1170.6757    6337.3496    11634.331    1869.7728 
  360400    299.58221   -1169.5627    6403.8636    11634.415    1869.8943 
  360500    300.02072   -1166.4208    6391.3354    11634.397    1823.8151 
  360600    297.94228   -1166.6283    6435.9242    11634.376    1849.0149 
  360700    298.86996   -1168.6997    6418.1019      11634.3     1895.784 
  360800     302.9589   -1167.1276    6329.2588    11634.383    1852.5569 
  360900    298.43471    -1165.179    6423.9735    11634.394    1922.8952 
  361000     299.1082   -1160.8359    6405.2229    11634.375     1930.691 
  361100    299.44823   -1164.8228    6401.9243    11634.353     1848.746 
  361200    299.10226   -1167.7994    6412.3309    11634.392     1931.301 
  361300     303.4016   -1166.7485    6319.3691     11634.33    1863.4207 
  361400     299.2784   -1168.0819    6408.9105    11634.452    1866.2162 
  361500    297.21449   -1171.0158     6455.898    11634.414    1805.8267 
  361600    298.98654   -1165.0406    6411.8705    11634.219    1897.1858 
  361700    301.01592   -1164.3603    6367.8997    11634.283    1937.7155 
  361800    297.84225   -1159.7389     6431.047    11634.251      1910.28 
  361900    300.13268   -1158.1509    6380.5263     11634.25    1914.7429 
  362000    298.99888   -1160.5275      6407.14    11634.265    1892.0102 
  362100    298.20186   -1154.5182    6418.0452    11634.152    1898.0386 
  362200    300.33741   -1162.1914    6380.1986    11634.255    1904.6358 
  362300    299.55358   -1159.0933    6393.8039    11634.213     1884.281 
  362400    296.65611   -1160.8864     6457.593    11634.309    1921.1551 
  362500    298.99157    -1166.038     6412.836    11634.294    1929.4377 
  362600    298.49375   -1169.5589    6426.9317    11634.234    1845.6529 
  362700     296.7534   -1162.8905    6457.4427    11634.233    1872.4507 
  362800    294.91509    -1160.359     6494.285    11634.334    1928.3329 
  362900    302.88978   -1161.0195    6324.5683    11634.324    1892.8286 
  363000    299.69442   -1161.5439    6393.2677    11634.235    1867.3928 
  363100    299.39004   -1163.4618     6401.691    11634.238    1891.8988 
  363200    299.91279   -1158.4518    6385.6471    11634.372    1880.9006 
  363300    297.11766   -1165.0772    6452.0638     11634.45    1868.7072 
  363400    296.32519   -1169.9229    6473.8952    11634.505    1924.3546 
  363500    299.92452   -1167.1254    6394.2353    11634.537    1871.0637 
  363600    299.66739    -1166.972    6399.5221    11634.484    1899.5852 
  363700     299.2202   -1165.8509    6407.9576    11634.487    1865.8459 
  363800    295.38323   -1165.4496    6489.4249    11634.385    1896.7437 
  363900    300.79002   -1157.8444    6366.3417    11634.415    1887.8991 
  364000    299.58344   -1163.1285    6397.3468    11634.359    1927.0374 
  364100    298.90876   -1165.9058     6414.522    11634.343    1923.4643 
  364200    301.12599   -1165.3443    6366.7018    11634.452     1910.698 
  364300    296.66001   -1171.6293    6468.3844    11634.441    1906.6722 
  364400    296.57018   -1171.8034    6470.4317    11634.395    1900.1012 
  364500     303.0506   -1171.5362    6331.7524    11634.427    1792.6237 
  364600    296.49218   -1163.1225    6463.4274    11634.405    1865.3268 
  364700     299.1645   -1166.3383    6409.5053    11634.357    1905.6742 
  364800    303.29004   -1167.2424    6322.2548    11634.339    1855.5986 
  364900    297.06165   -1155.7788    6443.7774    11634.265    1982.6614 
  365000    296.32502   -1154.9448    6458.6485    11634.233    1927.2093 
  365100    302.14337   -1161.7216    6341.1295    11634.237    1960.3229 
  365200    299.43296   -1165.2413    6402.5443    11634.229    1889.2938 
  365300    295.04641   -1165.1067    6496.2496    11634.357    1954.9638 
  365400    302.09692   -1162.0326    6342.4458    11634.251    1825.3583 
  365500    296.57057   -1160.0247    6458.3895     11634.14     1831.955 
  365600    300.11372   -1156.0137    6378.7619    11634.217    1847.1758 
  365700    295.78486   -1158.1335    6473.3379    11634.194    1902.9682 
  365800    300.05828   -1160.8983    6384.7919    11634.178    1862.4219 
  365900    297.50771    -1165.941    6444.3764    11634.231     1880.285 
  366000    299.75727   -1160.8374    6391.2647    11634.282    1922.3364 
  366100    299.80203   -1168.0735    6397.5706    11634.307    1907.6349 
  366200    299.38405   -1168.1721     6406.655    11634.364    1870.8106 
  366300    299.99087    -1165.338    6390.8397    11634.346    1940.7297 
  366400     298.5076   -1164.7128    6421.9364     11634.38    1887.0073 
  366500    298.60532   -1165.4417    6420.5492    11634.352    1847.2708 
  366600    301.89318   -1160.4548    6345.3741    11634.404    1880.9957 
  366700    299.95509   -1163.2712    6389.5988    11634.408    1845.8605 
  366800    298.22546   -1161.4754    6424.7038    11634.358    1893.7941 
  366900    301.76954   -1162.2545    6349.7933    11634.382    1903.7058 
  367000    302.17286   -1168.6672    6347.7302    11634.523    1849.4147 
  367100    298.29221   -1160.9433    6422.8718    11634.484    1814.2265 
  367200    300.89284   -1166.7103    6373.0269    11634.431    1874.6381 
  367300    298.75557   -1167.5475    6419.5149    11634.422    1868.6227 
  367400    300.19899   -1168.4922    6389.6205    11634.419    1901.3236 
  367500    299.47544   -1167.2628    6403.7482    11634.319    1926.1564 
  367600     299.1817   -1161.5299    6404.3242    11634.352    1937.6781 
  367700    297.97148    -1158.557    6427.0871    11634.233    1886.2667 
  367800    300.58173    -1162.481    6375.3108    11634.297    1875.6464 
  367900    300.21052   -1158.5717     6379.256    11634.222    1886.1786 
  368000    297.38905   -1158.7611    6439.7449    11634.244    1875.6508 
  368100     301.0672   -1161.9693     6364.377    11634.246    1825.9533 
  368200    299.58649   -1163.5199    6397.5176    11634.203    1784.3384 
  368300    297.32823   -1162.9949    6445.2528    11634.219    1832.3492 
  368400    299.87294   -1160.3692    6388.2892    11634.245    1868.0058 
  368500    301.15803   -1157.3762    6357.7307    11634.134    1836.4201 
  368600    298.49249   -1154.3925    6411.7926    11634.234    1860.7492 
  368700    297.42314   -1150.4638    6430.6082    11634.133    1917.7142 
  368800    296.90274    -1156.857     6448.133    11634.148    1886.4016 
  368900     301.6822   -1158.4504    6347.5682    11634.095    1886.8467 
  369000    300.55574   -1159.2456    6372.4466    11634.113    1945.8158 
  369100    296.73544   -1164.4741    6459.3859    11634.209     1911.713 
  369200    299.88941   -1168.1592    6395.7477    11634.265    1849.2321 
  369300    299.94221   -1162.9964    6389.4882    11634.297     1826.447 
  369400    298.22888   -1158.6709    6421.7424    11634.274    1844.8682 
  369500    302.19446    -1159.863    6338.2601    11634.318    1830.6605 
  369600    296.90838   -1168.0687    6459.3992    11634.322    1954.6501 
  369700    302.24872   -1168.3095    6345.6274    11634.398    1912.7633 
  369800    297.57827   -1163.6465    6440.6553    11634.312    1861.8509 
  369900    299.65649   -1166.2905    6399.0031    11634.414    1960.3188 
  370000    300.09071   -1166.9214    6390.3483    11634.405    1971.2925 
  370100    300.96662   -1165.9688    6370.6854    11634.407     1902.475 
  370200    297.74915   -1166.6581    6440.1236    11634.419    1915.7303 
  370300    296.64479   -1175.4599    6472.6717    11634.573    1932.8284 
  370400    298.17101   -1170.2657    6434.7871    11634.488    1845.5837 
  370500    300.58119   -1171.2774    6384.2749    11634.454    1857.0926 
  370600    302.54906   -1174.5615    6345.6191    11634.554    1940.0057 
  370700    295.96808     -1172.17    6483.7627    11634.497    1895.4867 
  370800    301.46065   -1168.0758    6362.3353    11634.504    1895.1292 
  370900    299.52323   -1167.4269    6403.0803    11634.508    2009.9511 
  371000    298.77914    -1171.388    6422.9441    11634.514    1961.1617 
  371100    298.86074   -1173.7872    6423.6027    11634.517    1916.3122 
  371200    298.77485   -1165.3886    6416.9477    11634.425    1894.7116 
  371300     300.7463    -1166.685    6376.1639    11634.462    1854.9759 
  371400    297.31174   -1168.7905     6451.652    11634.471    1840.9291 
  371500    296.35947   -1169.8809    6473.0959     11634.48     1885.143 
  371600    297.23985   -1166.8967    6451.1316    11634.308    1892.3593 
  371700    299.82357   -1168.0044    6397.0273    11634.293    1944.5993 
  371800    300.38365   -1162.7544    6379.7446    11634.226    1847.2469 
  371900    297.59535   -1161.3482    6437.9546    11634.275    1915.6404 
  372000    299.13745   -1161.8818    6405.4977    11634.228    1910.1827 
  372100     300.4267   -1157.1474    6373.1916      11634.2    1825.4069 
  372200    297.74469    -1165.026    6438.3865    11634.219    1832.2088 
  372300    300.11812    -1164.581    6387.2441    11634.226    1921.5719 
  372400    295.92794   -1161.1422     6473.345    11634.249     1877.489 
  372500    296.11055   -1162.4217     6470.695    11634.221    1839.1755 
  372600    299.48521   -1159.9823    6396.1532    11634.213    1875.1678 
  372700    302.27311   -1163.1919    6339.6745    11634.084     1919.442 
  372800     300.6961   -1154.4708    6364.6599      11634.1    1835.3344 
  372900    300.61116   -1156.8706    6368.8849     11634.11    1842.3609 
  373000    297.44805   -1161.6077    6441.2833    11634.197    1956.7627 
  373100    300.23065   -1161.6284    6381.8299    11634.168    1893.2002 
  373200     294.1622   -1162.9196    6512.8497    11634.254    1974.4577 
  373300    301.55448   -1165.5266    6357.4968    11634.219    1857.6768 
  373400    296.44553   -1171.9377    6473.1521    11634.318    1897.9004 
  373500    298.64675   -1167.9896    6422.2318    11634.372      1831.91 
  373600    300.75536   -1162.1492    6371.3351    11634.363    1863.8614 
  373700    297.92815   -1164.3305    6433.9223     11634.37    1922.8923 
  373800    301.55622   -1164.0217    6356.1405    11634.405    1924.7654 
  373900    297.24899   -1162.6567    6446.7605    11634.372    1924.4969 
  374000    298.77215   -1166.0248    6417.6498    11634.434    1888.4948 
  374100     298.5856   -1165.4323    6421.0643    11634.455    1931.0112 
  374200    301.15175   -1169.2837    6370.0509    11634.412    1908.2545 
  374300    298.15069    -1172.711    6437.6266    11634.448    1937.1938 
  374400     298.9555   -1169.4052    6417.0925    11634.413    1906.9122 
  374500    300.89894   -1172.3503    6378.5202    11634.414    1787.5398 
  374600    299.83562   -1168.6136    6397.5311    11634.445    1821.0478 
  374700    294.79578   -1171.5552    6508.1374    11634.442     1941.272 
  374800     299.7411   -1171.1499    6402.0522    11634.411    1933.5095 
  374900    299.55871   -1169.1552    6403.9285    11634.386    1898.4922 
  375000    297.49977   -1163.9514    6442.7692    11634.444    1912.0714 
  375100    298.10976   -1169.3519    6435.0758    11634.381     1908.594 
  375200    297.86284   -1167.7424    6438.7888    11634.429    1889.5499 
  375300    299.53603   -1168.3429    6403.5063    11634.291    1921.7347 
  375400    299.76183   -1166.3465    6396.7395    11634.345     1911.744 
  375500    298.12535   -1167.5175    6432.9379    11634.411    1880.8012 
  375600    296.33663   -1166.7358    6470.1413    11634.183    1945.4602 
  375700    297.81875   -1165.0642    6436.8652    11634.242    1943.8415 
  375800    303.95125   -1158.0794    6298.8587    11634.231    1854.5755 
  375900    298.01043   -1158.5729    6426.3344    11634.297    1951.5479 
  376000    298.03798   -1164.9732    6432.0209    11634.172    1957.6108 
  376100    298.34248   -1162.3191    6422.8623    11634.173    1891.1635 
  376200     299.0971   -1165.0652    6409.4981    11634.183    1864.8889 
  376300    297.31981   -1161.3771    6443.6783    11634.083    1928.7814 
  376400    297.89488   -1157.0009    6427.0585    11634.125    1931.1375 
  376500     303.6394   -1161.1455    6308.5188    11634.163    1905.2177 
  376600    293.35957   -1160.6356    6527.6738    11634.215    1977.5115 
  376700    300.16513   -1157.0905    6378.7675    11634.244     1890.239 
  376800    298.26487   -1165.6584    6428.0059    11634.319    1919.7983 
  376900    302.57449   -1164.1789    6334.4321    11634.293    1879.9549 
  377000    295.97742   -1167.6087    6478.7653     11634.26    1910.1701 
  377100    298.87979   -1162.9595    6412.1638    11634.313    1888.7837 
  377200    299.28113   -1165.3846     6406.022     11634.32    1898.7952 
  377300     298.6838   -1163.7313    6417.0927    11634.283    1953.5017 
  377400    300.74667   -1160.4785    6369.7607    11634.273    1910.4518 
  377500    297.23976   -1159.6529    6443.9218     11634.34    1904.2519 
  377600    300.91083   -1169.5073    6375.4135    11634.404     1884.637 
  377700    298.70472   -1168.1893    6421.2706    11634.449    1840.8509 
  377800    296.58986   -1168.1656    6466.4204    11634.442    1879.4504 
  377900     299.5132   -1170.4548    6406.3201    11634.505    1896.4295 
  378000       298.44   -1166.9663    6425.8249    11634.571    1907.0937 
  378100    299.37222    -1165.988     6404.867    11634.507     2001.104 
  378200     303.0491   -1164.8685    6325.1346    11634.445    1916.6758 
  378300    295.83829   -1164.0647    6478.4169    11634.483     1901.553 
  378400     304.1934   -1166.0158    6301.8165    11634.426    1950.8224 
  378500    297.90626   -1168.9391    6439.0981    11634.469    1926.2188 
  378600    293.96348   -1171.2981    6525.7834    11634.564    1858.1236 
  378700     302.1744   -1173.4181     6352.405    11634.479    1882.8884 
  378800    296.81852   -1171.4996    6464.8107    11634.383     1949.634 
  378900    297.52427   -1168.1825    6446.5275    11634.494    1907.5124 
  379000    299.36879   -1165.6988    6404.5202    11634.376    1923.7593 
  379100    300.83957   -1161.7021    6368.9996    11634.273    1932.6387 
  379200    295.77388   -1157.3387    6472.8315    11634.248     1957.722 
  379300    301.12598   -1160.8401    6361.9879    11634.242    1940.4492 
  379400    297.21179   -1156.5894    6441.4257     11634.31    1918.8101 
  379500    298.31164   -1158.9934     6420.236    11634.213    1860.6492 
  379600    298.63832   -1167.8086    6422.0826    11634.223    1831.5779 
  379700    299.80438    -1163.088    6392.5517    11634.324      1833.48 
  379800    296.36652   -1165.7294    6468.4732     11634.16    1871.3346 
  379900    300.81013   -1159.5954    6367.3865    11634.138    1846.7788 
  380000    294.18239   -1166.0061    6515.5482    11634.298    1983.1882 
  380100    300.15006   -1160.7294    6382.6668    11634.183    1931.9934 
  380200    297.55741   -1155.4721    6432.7807    11634.166    1931.5043 
  380300    296.77239    -1156.243    6450.3799    11634.224    1894.7592 
  380400     297.8171   -1162.5002    6434.3722    11634.277    1917.3595 
  380500    297.37372   -1165.9781    6447.3036    11634.259    1856.0131 
  380600    299.50664   -1168.4001    6404.2105     11634.31    1860.8293 
  380700    298.23798   -1169.5156    6432.6011    11634.482    1909.3267 
  380800    299.38357    -1161.474    6400.0083    11634.405    1844.4602 
  380900    302.22827   -1165.8349    6343.5711    11634.379    1858.0448 
  381000    297.95681   -1168.7151    6437.7694    11634.444    1946.6946 
  381100    299.25803   -1162.6419    6403.8073    11634.354    1858.5748 
  381200    300.22022   -1161.5041    6382.1859    11634.426    1892.0965 
  381300    301.88787   -1167.1709    6352.2899     11634.49    1913.1827 
  381400    301.81816    -1169.572    6356.1544    11634.464    1861.7769 
  381500    296.99824   -1169.9236    6459.4441    11634.432    1900.6288 
  381600    301.74659    -1173.431    6361.6067    11634.529      1982.12 
  381700    298.87783   -1169.2499    6418.6766    11634.493    1913.7718 
  381800    300.67222    -1169.761     6380.837    11634.477    1889.1241 
  381900    300.75411   -1174.3572    6383.6532    11634.446     1904.131 
  382000     298.6811   -1165.3856    6418.8593    11634.337     1872.227 
  382100     300.7201   -1160.7068    6370.6667    11634.383     1788.627 
  382200    297.31328   -1161.2227    6443.9149    11634.334    1934.2766 
  382300    297.65078   -1167.2127    6442.6289    11634.268    1905.8228 
  382400    301.66443     -1167.45    6357.1019     11634.25    1814.7811 
  382500    298.73122   -1163.3602    6415.6915    11634.266    1899.0236 
  382600    298.61844    -1159.443    6414.1643    11634.246    1850.2788 
  382700    299.95273   -1166.4332     6392.622    11634.219    1769.1354 
  382800    297.17897   -1165.9266    6451.3452    11634.191    1904.0386 
  382900    299.78398   -1160.7609    6390.5447    11634.209    1907.8435 
  383000    299.39731   -1157.9028    6395.8769    11634.138    1856.4999 
  383100    296.05319    -1160.139    6469.5423    11634.125    1855.3474 
  383200    299.63563   -1160.1955     6393.166    11634.226    1925.1558 
  383300    300.46042   -1158.3413    6373.6093    11634.144    1870.3603 
  383400    296.72253   -1158.3544    6453.4457    11634.113    1865.7686 
  383500    299.12667   -1162.1108    6405.9196    11634.191    1863.9891 
  383600    296.01204   -1158.1967    6468.4779    11634.124    1872.8906 
  383700    298.82744   -1157.4392    6407.5443    11634.095    1864.9255 
  383800    299.67599   -1155.0335    6387.0321    11634.116    1910.5554 
  383900    300.37589   -1162.1766    6379.3266     11634.22    1919.2727 
  384000    295.64638   -1164.5038     6482.644    11634.172    1920.5725 
  384100    302.24308   -1159.1462    6336.4463     11634.26    1879.0902 
  384200     299.7623   -1165.4288    6395.7125    11634.245    1855.4204 
  384300    298.31639   -1170.1807    6431.4589     11634.35    1871.7138 
  384400    300.63675    -1170.998    6382.7135    11634.358    1858.3939 
  384500    299.20893   -1166.9095    6409.1072    11634.337    1895.0169 
  384600     303.1851   -1166.8773    6324.1414    11634.348    1857.6112 
  384700    296.41162   -1166.6912    6468.7765    11634.465    1933.2754 
  384800    297.65542   -1160.5424    6435.9782    11634.387    1904.2603 
  384900    302.30123   -1163.9734    6340.1886    11634.417    1887.9929 
  385000     297.0093   -1163.8804    6453.2054    11634.473    1874.4962 
  385100     303.1106   -1168.9778    6327.9273    11634.442    1885.9827 
  385200    300.13663   -1164.8533    6387.3432    11634.448    1861.1653 
  385300     296.9884   -1173.6298    6463.4244    11634.496    1844.4021 
  385400    296.30187   -1166.4884    6470.9233     11634.47    1856.4975 
  385500    299.04952   -1168.3878     6414.105    11634.451    1855.9336 
  385600    299.96413   -1171.7909    6397.8477     11634.33    1840.8213 
  385700    300.52209   -1167.3116    6381.4701    11634.352     1807.689 
  385800    298.27831   -1163.9924    6425.9762    11634.242    1823.9413 
  385900    299.51726   -1161.9426    6397.5565     11634.34    1862.9149 
  386000    302.83708   -1164.6904    6329.3302    11634.289    1845.4954 
  386100     295.8668   -1166.9411    6480.4629    11634.262    1840.9871 
  386200    302.25013   -1159.9127    6337.0331    11634.231    1833.1477 
  386300    297.52249   -1162.5033    6440.6402    11634.248    1908.1736 
  386400    301.39671   -1156.4092    6351.7066    11634.176    1890.5003 
  386500     298.0234   -1161.4751    6428.8652    11634.203    1911.8322 
  386600     301.0599   -1161.1511    6363.6617    11634.193    1849.5744 
  386700    296.33644   -1166.5724    6469.9852    11634.186      1869.41 
  386800    299.35986   -1160.6814    6399.4639    11634.147    1852.6251 
  386900    295.59562   -1158.0105    6477.2113    11634.148    1907.8418 
  387000    299.05447   -1158.0498    6403.3601     11634.15    1920.4864 
  387100    304.06907   -1159.8715    6298.0703    11634.168    1866.6061 
  387200     294.3432   -1162.5203    6508.5783    11634.249    1955.6618 
  387300    299.13842   -1166.2486     6409.841    11634.226    1935.6161 
  387400     296.9201   -1162.6775    6453.6301    11634.195    1938.8718 
  387500    300.37697   -1164.1681    6381.3701    11634.295    1926.0665 
  387600    302.70992   -1163.5263    6330.9101    11634.317     1876.436 
  387700     298.5941    -1165.749    6421.1901    11634.446    1855.6767 
  387800    297.71102    -1169.455    6443.7839    11634.468    1896.3413 
  387900    295.67438   -1168.7066    6486.5897    11634.513    1896.1839 
  388000    300.87763   -1168.5428    6375.2403    11634.486    1822.9499 
  388100    302.97065   -1168.9738    6330.8785    11634.408    1784.3362 
  388200    297.89981    -1164.799    6435.1192    11634.493    1854.9484 
  388300    300.01308   -1164.3486    6389.5356    11634.506    1881.8928 
  388400    298.39535   -1166.2796    6425.9018    11634.381    1856.0472 
  388500    297.45328   -1172.8153    6452.5986    11634.416    1856.1202 
  388600    299.33414   -1173.9036    6413.5443    11634.455    1945.7639 
  388700     297.5644   -1164.9498    6442.3979    11634.455    1878.3035 
  388800    298.27282    -1173.843     6436.196    11634.494    1924.7028 
  388900    300.95844   -1172.7138    6377.5723    11634.374    1898.0313 
  389000    298.90735   -1171.1126    6419.6741    11634.258    1864.4671 
  389100    299.89983   -1166.0439    6393.4448    11634.301    1850.5543 
  389200    295.79968   -1164.3272    6479.3778    11634.357    1926.6347 
  389300    303.76034   -1163.7582    6308.6876    11634.303    1870.5874 
  389400    297.68535   -1169.9173    6444.6133    11634.287    1902.6809 
  389500    297.99113   -1167.0611    6435.2942    11634.356    1869.3136 
  389600    299.02823    -1164.742    6410.7668    11634.304    1857.7342 
  389700    299.00424   -1166.1403    6412.7181    11634.345    1867.5535 
  389800    295.88029   -1163.0166    6476.3114    11634.323     1955.265 
  389900    300.33241    -1159.139    6377.2265    11634.229    1927.7634 
  390000    299.67594   -1161.6044    6393.6713    11634.183    1900.1064 
  390100    299.05967   -1164.4445    6409.7376    11634.244    1925.3179 
  390200    296.80123   -1163.2831    6456.8268    11634.246    1962.9896 
  390300    301.65105   -1159.9822    6349.8625    11634.192    1944.1497 
  390400    302.01543   -1162.6541    6344.7647    11634.207    1850.3962 
  390500    295.44048   -1159.7129    6482.3647    11634.284    1848.3348 
  390600    297.81201   -1165.8417    6437.8309    11634.286    1899.0761 
  390700    298.18821   -1165.0481    6428.9093    11634.195    1942.4649 
  390800    299.50751   -1161.2543    6396.9896    11634.254    1914.3804 
  390900    296.28443   -1164.4055    6469.0404    11634.297    1937.2461 
  391000    304.13346    -1169.034    6305.9764    11634.287    1936.6601 
  391100    299.75997   -1165.7136    6396.1102    11634.308    1943.7157 
  391200    299.44759   -1165.8128     6402.805    11634.231    1880.2219 
  391300    297.11814   -1160.0303    6446.8192    11634.262     1908.704 
  391400    297.48183   -1158.2903     6437.313    11634.266    1907.1494 
  391500    301.48403   -1168.0001    6361.5731    11634.317    1835.2404 
  391600    299.91856   -1166.6359    6393.7027    11634.367     1952.358 
  391700    297.93871   -1170.0336    6439.4516    11634.421    1915.2107 
  391800     301.9042   -1166.6566    6351.3319    11634.395    1803.1335 
  391900      296.271   -1164.5245    6469.5292     11634.38    1864.7367 
  392000    300.01409   -1162.6113    6387.7046    11634.434    1926.4193 
  392100    303.89508   -1163.3323    6305.4547    11634.374    1887.1633 
  392200    296.52725   -1163.0545    6462.6105    11634.406    1911.7007 
  392300    300.03914    -1164.084     6388.571    11634.363    1959.7038 
  392400    297.91002   -1160.7973    6430.7218    11634.315    1915.3471 
  392500    300.96886   -1161.8648    6366.4291    11634.302    1863.7759 
  392600    299.22846   -1162.8102    6404.5856    11634.332    1922.1188 
  392700    302.08956   -1164.5316    6345.2108    11634.359    1922.9487 
  392800    295.16493   -1159.7309    6488.2451     11634.26    1852.1306 
  392900    297.86845    -1165.766    6436.6123    11634.349    1885.9497 
  393000    298.95963   -1167.7949    6415.3825    11634.401     1912.135 
  393100    301.28283   -1165.6176    6363.3615    11634.189    1849.3037 
  393200    298.59933   -1162.2982    6417.5063    11634.325    1932.9231 
  393300    299.43281   -1162.0664    6399.3928    11634.249    1907.8715 
  393400    300.43793   -1165.2956    6381.0769    11634.177    1864.1323 
  393500    295.06194   -1157.2607    6487.9629    11634.248    1925.5994 
  393600    299.83029   -1160.5173    6389.3812    11634.278    1991.7495 
  393700    300.55152   -1157.8262    6371.1867    11634.183    1909.7516 
  393800    302.65484   -1163.4852     6331.907    11634.178    1881.6998 
  393900     299.6399   -1156.6574    6389.5406     11634.23    1884.3089 
  394000    298.15257   -1162.9037    6427.5777    11634.246    1828.7086 
  394100    301.48086   -1167.0749    6360.7768    11634.378    1809.4888 
  394200    300.76047   -1165.6126    6374.6691    11634.342    1883.0033 
  394300    300.96087   -1159.4489    6364.1219     11634.24    1874.5386 
  394400    296.84517   -1154.7442    6447.3235    11634.221    1906.1079 
  394500    298.68561   -1162.4692    6415.8262    11634.317    1952.1201 
  394600    301.29787   -1168.1016    6365.5634    11634.228    1906.7499 
  394700    298.50984   -1167.3908    6424.4127    11634.227    1945.4163 
  394800    298.47267   -1161.8766    6419.8435    11634.377    1965.5705 
  394900    296.86081   -1162.9788    6455.3224    11634.319    1901.6298 
  395000     300.5942   -1164.4756    6377.0555    11634.314    1855.3591 
  395100     299.4034   -1168.3277    6406.3771    11634.344    1924.6876 
  395200    297.43871   -1162.9586    6443.0101    11634.373    1877.7383 
  395300    299.95142   -1164.6391     6390.934    11634.297    1784.8522 
  395400    298.88621   -1157.6533    6406.8061    11634.398    1890.5581 
  395500    301.30378   -1162.9663    6360.3757    11634.302    1905.6065 
  395600    298.65361   -1162.4798    6416.5993    11634.396    1901.3877 
  395700    298.11107   -1165.8318    6431.4936    11634.347     1956.458 
  395800    298.98916   -1162.9573    6409.9057    11634.393    1953.1978 
  395900    298.75191   -1163.8883    6415.8345    11634.322    1869.6562 
  396000     303.0127   -1167.1033    6328.0585    11634.357     1872.272 
  396100    298.19699    -1162.495    6426.2831    11634.309    1912.9611 
  396200    301.20463   -1163.1097    6362.5535    11634.218    1903.9293 
  396300     300.0611   -1162.4994    6386.4627    11634.308    1909.6192 
  396400    298.31318   -1160.6075    6421.9261    11634.322    1958.0771 
  396500    297.33285   -1162.2617    6444.5198    11634.318    1925.8234 
  396600    299.14069   -1164.7322    6408.2902     11634.24    1895.0564 
  396700     298.9854   -1166.8476    6413.7871    11634.304     1885.801 
  396800     298.6107   -1166.7625    6421.7716    11634.368    1881.2216 
  396900    299.72865   -1160.8947    6391.9645    11634.313    1806.8579 
  397000     299.9816   -1165.1927    6390.8881    11634.342    1897.9939 
  397100    299.89252   -1166.5418     6394.176    11634.378    1951.6637 
  397200    300.63786   -1164.1618    6375.8008    11634.306    1888.2901 
  397300    297.57516   -1169.6186    6446.7199    11634.338    1905.0622 
  397400    299.72391   -1167.1041    6398.3045    11634.342     1923.296 
  397500    297.74304   -1166.2345    6439.7369    11634.326    1951.7963 
  397600    298.13149   -1167.5541    6432.7335    11634.301    1889.3188 
  397700    298.99767   -1166.0369      6412.74     11634.33    1973.9662 
  397800    302.57929   -1165.6878    6335.9361    11634.391    1933.1698 
  397900    299.31346   -1164.7853    6404.7073    11634.295    1875.7737 
  398000    300.17554   -1170.0786    6391.6403    11634.351    1943.5522 
  398100    302.83674   -1165.7063    6330.4083    11634.344    1939.4715 
  398200    297.56092   -1161.5583    6438.9473    11634.322    1865.1996 
  398300    299.50313   -1170.9517    6406.8764    11634.349    1891.4776 
  398400    300.51263   -1170.0718    6384.4334    11634.353    1892.7769 
  398500     296.8595   -1160.8673    6453.2981    11634.379    1903.0372 
  398600    295.70507   -1161.1254    6478.2179    11634.378    1937.8835 
  398700    298.66151   -1167.3555    6421.1631    11634.252    1974.8062 
  398800    301.20993    -1159.829    6359.2343    11634.293    1886.5151 
  398900    300.21106   -1162.6741    6383.4177    11634.292    1834.0425 
  399000    297.28983   -1159.6254    6442.9137    11634.429    1881.3795 
  399100     299.9201    -1166.174    6393.2437    11634.402    1846.7417 
  399200    300.42359   -1170.6281    6386.8552    11634.316    1844.4894 
  399300    300.53484   -1165.3905    6379.2895    11634.365     1851.095 
  399400    295.46595   -1162.4899      6484.71    11634.397    1888.8907 
  399500    299.11291    -1164.046    6408.2393    11634.282    1863.2611 
  399600    296.95728   -1163.2785    6453.5312    11634.289    1896.5164 
  399700    298.99699   -1163.0907    6409.7807    11634.302    1925.7618 
  399800    298.54726   -1160.1058    6416.3949    11634.293    1895.6003 
  399900    300.04522   -1161.7992    6386.0384    11634.245    1891.6748 
  400000    300.83529   -1159.4264    6366.8407    11634.299    1888.8212 
  400100    299.62512   -1165.5535    6398.8987    11634.376    1908.9899 
  400200    296.99758   -1170.5805    6459.9829      11634.3     1921.008 
  400300    300.81658   -1165.6688    6373.5332    11634.349    1834.2671 
  400400    301.40569   -1161.1964    6356.4398    11634.314    1846.7912 
  400500    299.90603    -1164.411    6391.6474    11634.268    1910.7321 
  400600    300.09176   -1163.5243    6386.7551    11634.231    1895.4418 
  400700     299.4726   -1157.3514    6393.8928    11634.314    1930.3901 
  400800    297.90638   -1161.7563    6431.7178    11634.274    1917.0422 
  400900    298.29969   -1163.6563    6425.2989    11634.358    1927.0529 
  401000    302.14891   -1163.2095    6342.6874    11634.426    1888.0101 
  401100    296.59511   -1159.5109     6457.629    11634.418    1910.5637 
  401200    299.42041   -1168.8223     6406.499    11634.334    1921.6998 
  401300    295.72209   -1165.7445    6482.4825    11634.387    1942.6086 
  401400    298.78872   -1168.4425    6419.6795    11634.399    1852.2668 
  401500     302.8903   -1165.1979     6328.714    11634.303    1803.7854 
  401600    298.38665   -1159.6112    6419.3595    11634.321    1899.6609 
  401700    297.67901   -1155.8111    6430.7472    11634.392    2009.7534 
  401800    304.13601   -1168.3234    6305.2368    11634.313    1936.7236 
  401900    296.73052   -1160.1538     6455.232     11634.27    1943.2407 
  402000    299.40521   -1165.4259    6403.4496    11634.357    1988.7386 
  402100    302.91043   -1164.3212     6327.489    11634.384    1869.2841 
  402200    297.07704   -1167.3502    6455.1331    11634.378    1937.3843 
  402300    301.50259   -1167.5497    6360.6936    11634.284    1915.9141 
  402400    297.32059   -1165.3242    6447.7812    11634.255    1919.4994 
  402500    298.45852   -1163.7564    6421.9419    11634.294    1839.2885 
  402600    297.92399   -1163.6642     6433.261    11634.286    1851.0959 
  402700     295.0323   -1161.8593    6493.2649    11634.318    1930.4806 
  402800    300.08053   -1160.2668     6383.715    11634.208    1848.9507 
  402900    302.20656   -1161.4918    6339.6142    11634.302    1905.4389 
  403000    297.59242    -1169.834    6446.5944    11634.366    1978.6873 
  403100    302.04946   -1172.7634    6354.3615    11634.421    1889.6464 
  403200    295.37724   -1167.8616    6491.9657    11634.386    1887.0081 
  403300    304.60683    -1171.693    6298.6346    11634.399    1878.2517 
  403400    298.86553   -1167.7539    6417.3233    11634.373    1863.8607 
  403500    298.15379   -1171.8973    6436.7193     11634.42    1902.4162 
  403600    303.16914   -1166.5923    6324.1497    11634.301    1897.7908 
  403700    298.60248   -1164.0446    6419.2097    11634.349    1891.5053 
  403800    298.02764   -1162.0922    6429.5474    11634.358    1904.4638 
  403900    302.23473   -1165.3252    6342.8756    11634.332    1885.8028 
  404000    299.12825   -1169.6438    6413.7275      11634.5     1896.707 
  404100    300.79684   -1169.7366    6378.0534     11634.38    1883.3516 
  404200    296.62282   -1162.1185    6459.6256    11634.398    1888.0325 
  404300    297.65561   -1167.8658    6443.2644    11634.354    1902.6374 
  404400    298.15492    -1168.561    6433.2497    11634.311    1928.6621 
  404500    298.05826   -1160.3532    6427.0786    11634.283    1938.1777 
  404600    304.49522   -1164.2814    6293.4024    11634.194    1927.7467 
  404700    299.33002   -1165.1285    6404.5961    11634.194    1943.3796 
  404800     298.1633   -1164.1317    6428.5747    11634.244    1883.8552 
  404900    297.63641   -1162.6539     6438.374    11634.265    1837.1294 
  405000    301.29649   -1169.2793    6366.7975    11634.255    1872.5561 
  405100    299.00978   -1163.3121    6409.6834    11634.256    1907.4701 
  405200    299.32056   -1158.6186     6398.425    11634.331    1939.6867 
  405300    299.20373   -1159.3707    6401.5973    11634.255    1886.7956 
  405400    295.49666   -1152.6324    6473.9358    11634.136    1950.9831 
  405500    300.53444    -1150.892    6364.5397    11634.105    1897.3389 
  405600    300.46648   -1161.9878    6377.2072    11634.225    1920.9758 
  405700    300.70774   -1159.8236    6369.9857    11634.322    1925.9421 
  405800      298.432   -1159.4921    6418.2905     11634.34     1912.288 
  405900    296.68131   -1163.3797    6459.4833    11634.245    1930.7207 
  406000    297.68915    -1161.506    6436.1153    11634.281    1917.5951 
  406100    299.93642   -1159.6078    6386.1841    11634.258    1887.7723 
  406200    299.17971   -1163.9454     6406.732    11634.302    1929.5091 
  406300    298.04974   -1158.7182    6425.7184    11634.376    1936.8425 
  406400    299.20112   -1163.2915     6405.636    11634.317    1861.5901 
  406500     296.9157   -1166.8647    6458.1261     11634.41    1871.9821 
  406600    300.15633   -1161.1272    6383.1585    11634.411    1898.1088 
  406700    301.45306   -1167.4711    6361.8082    11634.419    1825.1322 
  406800    298.34488   -1168.4986    6429.3529    11634.535    1881.5914 
  406900    299.60379   -1166.9376    6400.8965    11634.534    1876.5633 
  407000    296.88482   -1168.0274    6459.9661    11634.427    1856.4769 
  407100    298.65465   -1160.7204    6414.8287    11634.407    1830.9141 
  407200    302.30775   -1167.0629    6343.1336    11634.412     1890.447 
  407300     302.7821   -1164.0449    6330.0291    11634.459    1865.3069 
  407400    299.37375   -1168.8693    6407.5471    11634.339    1891.4012 
  407500    297.33531   -1163.7358    6446.0362    11634.413    1855.2925 
  407600    300.27212   -1169.6701    6389.2452    11634.428    1881.2095 
  407700    300.85511   -1163.6824    6370.7396    11634.365    1875.8701 
  407800    296.68605   -1165.1951    6461.3278    11634.375    1930.7787 
  407900    301.76603   -1160.3228    6347.8927    11634.338    1851.9322 
  408000    298.14811   -1159.3219    6424.1769    11634.332    1899.2119 
  408100    298.40944   -1159.5361    6418.6896    11634.213     1870.343 
  408200    298.24587   -1160.5112    6423.0947    11634.149    1876.0175 
  408300    297.58179   -1152.4123    6429.1692    11634.135    1914.7313 
  408400    301.42677   -1161.8545    6356.4598    11634.126    1895.0196 
  408500    301.05711   -1160.7693    6363.3288    11634.183    1855.5934 
  408600    295.55302   -1158.6975    6478.7725    11634.112    1789.7796 
  408700     296.7329   -1164.2787     6459.192    11634.156    1758.8695 
  408800    301.44399   -1160.2982    6354.5121    11634.102    1846.7176 
  408900    300.43062   -1157.2609    6373.0661    11634.044     1846.977 
  409000    297.43451   -1157.5475     6437.469    11634.153    1850.9531 
  409100    301.03426   -1162.4123    6365.4181    11634.141    1856.9379 
  409200    297.32405   -1162.2532    6444.6254    11634.244    1824.8027 
  409300     297.7103   -1158.3803      6432.46    11634.203    1793.0638 
  409400    298.42225   -1167.0404    6425.9587    11634.252    1868.8989 
  409500    297.49369   -1162.0706    6440.8967    11634.322    1833.9772 
  409600    302.36125    -1163.152    6337.9853    11634.317    1833.9446 
  409700    299.24985   -1164.6531    6406.0104    11634.371    1802.0438 
  409800     296.7595   -1170.7969    6465.3879    11634.403    1790.0658 
  409900    299.17861   -1167.6075    6410.6141    11634.498    1795.2408 
  410000    299.98481   -1162.8393    6388.6319    11634.508    1806.7616 
  410100     299.3893   -1171.0579     6409.489    11634.424    1830.6348 
  410200    295.82246   -1159.0079    6473.6702    11634.455    1883.8678 
  410300    299.84341   -1169.9571     6398.747    11634.484    1807.0718 
  410400    300.27788   -1166.8039    6386.3189    11634.491    1853.2504 
  410500    300.83961   -1168.0079    6375.4744    11634.443    1863.5743 
  410600    299.90824   -1170.8985    6398.2578    11634.439    1880.3807 
  410700    299.06341   -1169.4196    6414.7774    11634.389     1833.595 
  410800    298.59042    -1174.439    6429.8912    11634.378    1883.0015 
  410900    299.35675   -1167.5479    6406.6235    11634.373     1874.506 
  411000    295.83984   -1164.2068    6478.4323     11634.39    1821.7028 
  411100    303.72754   -1171.8276    6317.5602    11634.406     1785.582 
  411200    297.30209   -1166.3117    6449.2958    11634.387    1874.0846 
  411300    299.14449   -1159.2812    6402.7864    11634.268    1844.3663 
  411400    298.09765   -1153.2465    6419.1173     11634.27    1897.0739 
  411500    297.20179   -1158.5924    6443.6352    11634.303    1895.0405 
  411600    301.19446   -1164.7491    6364.4456    11634.254     1839.069 
  411700    297.13005   -1158.8483    6445.3257    11634.205    1914.8158 
  411800    299.48307   -1163.6748    6399.9619    11634.283    1864.0061 
  411900    295.71418   -1160.7897    6477.4641    11634.154    1815.0603 
  412000    298.86276   -1159.5622    6408.9557    11634.138    1794.0316 
  412100    299.38031   -1155.9099    6394.2712    11634.162    1900.4979 
  412200    297.60564   -1160.7165    6436.9982    11634.169    1878.5316 
  412300    300.43906   -1160.6677    6376.3874    11634.139     1877.675 
  412400    303.30875   -1156.0778    6310.5804    11634.229    1798.6323 
  412500    293.70967   -1160.4564      6520.03     11634.23    1892.7574 
  412600      300.597   -1164.7381    6377.1781    11634.234    1870.3589 
  412700    299.13842   -1164.6616    6408.2712    11634.243     1884.087 
  412800    298.21579   -1163.1115    6426.4707    11634.282    1877.4025 
  412900    299.51466    -1165.035     6400.722    11634.358    1925.7759 
  413000    297.96355   -1167.1133    6435.8816    11634.302    1945.3108 
  413100    298.13547   -1169.8272    6434.9915    11634.371    1909.5638 
  413200    301.47678     -1168.33    6362.2055    11634.464    1852.4907 
  413300    299.45548   -1170.1994    6407.2221     11634.43    1924.1054 
  413400    298.14709   -1161.1801    6426.1339    11634.409    1903.8931 
  413500    299.87439   -1160.0744    6388.1154    11634.397    1891.7952 
  413600    302.09017   -1163.5975    6344.3467    11634.442     1917.794 
  413700    297.85897   -1166.5719    6437.7426    11634.471    1903.9281 
  413800    298.69895   -1170.3107    6423.5207    11634.455    1858.5084 
  413900    299.60237   -1169.6213    6403.6696    11634.593     1830.827 
  414000    295.82184   -1169.7523    6484.5382    11634.566    1866.1848 
  414100    301.74041   -1171.0112    6359.2801     11634.49    1825.0959 
  414200    296.00121   -1168.8953    6479.6334     11634.35    1901.9319 
  414300    303.21876   -1164.4221    6320.9624    11634.344     1832.018 
  414400     294.9391   -1160.0008    6493.4459    11634.366    1893.4594 
  414500     301.1838   -1158.5671    6358.5993    11634.362     1893.655 
  414600     298.1354   -1155.2053    6420.2829    11634.283    1927.5309 
  414700    301.58807   -1165.0897    6356.4089    11634.285    1951.7729 
  414800    299.77666   -1164.1584    6394.1289    11634.239    1922.8268 
  414900    299.80851   -1161.0507    6390.3427    11634.241    1852.8169 
  415000    297.13616   -1160.9116    6447.3917    11634.338    1901.9304 
  415100    300.63385   -1164.8802    6376.5528    11634.254    1896.9991 
  415200    297.96013   -1154.6347    6423.2762    11634.103    1863.8554 
  415300    296.71434   -1154.3689    6449.6274    11634.105     1873.718 
  415400    302.68987   -1155.3798     6323.006    11634.131    1921.2481 
  415500    299.85176   -1156.2103    6384.5199    11634.182    1871.5405 
  415600      298.841   -1156.7044    6406.5402    11634.115    1874.5369 
  415700    297.86368   -1161.4184    6432.1877     11634.17    1912.6542 
  415800    298.23188   -1167.6088    6430.5007    11634.159    1895.3366 
  415900    300.49866    -1165.168    6379.7758    11634.301     1863.324 
  416000    297.17082   -1171.2981    6456.9921    11634.292    1868.9054 
  416100    296.88369   -1167.7185    6459.5793    11634.325    1867.4326 
  416200    300.30364   -1169.7874    6388.6242    11634.363    1873.5723 
  416300    298.29678   -1167.1455    6428.7921      11634.3     1982.914 
  416400    301.21608   -1165.9152    6365.2537    11634.358    2032.7049 
  416500    297.88674   -1165.2037    6435.7686    11634.458    1941.7979 
  416600    300.68492   -1166.1872    6376.9515    11634.436    1884.0933 
  416700    299.57484   -1173.3213    6407.9015    11634.537    1921.2958 
  416800    298.78834   -1173.1982    6424.5868    11634.543    1957.1299 
  416900    301.44755   -1170.6224    6365.2132    11634.555    1876.0646 
  417000    298.75425    -1174.891    6427.0974    11634.633    1847.5271 
  417100    297.36145   -1175.2901    6457.1778    11634.559    1882.5302 
  417200    299.44745   -1173.2765    6410.6287    11634.588    1914.7492 
  417300    297.67316   -1172.2913    6447.5568    11634.596    1957.8234 
  417400    299.60507   -1166.3727    6400.2958    11634.526    1916.1602 
  417500    300.80074    -1160.785    6369.0586     11634.42    1854.8215 
  417600     300.6759   -1161.6771    6372.6374     11634.44    1961.0109 
  417700    300.07324   -1165.7641    6389.4714    11634.312    1932.6405 
  417800    296.60393    -1163.263    6461.1341    11634.359    1919.2689 
  417900    301.23083    -1164.495    6363.4452    11634.285    1867.1171 
  418000    295.35708   -1169.3742    6493.8197    11634.296    1903.7966 
  418100    299.25578   -1167.3005    6408.3947    11634.235    1856.7423 
  418200    298.93903   -1163.1541    6410.9131    11634.133    1871.4778 
  418300     298.8913   -1163.2668    6412.0045    11634.092    1947.5084 
  418400    299.02636   -1159.4223    6405.2963    11634.113    1932.1756 
  418500    297.39914   -1154.3921    6435.0072    11634.091    1856.4416 
  418600    299.69321   -1153.0563    6384.5815    11634.011    1896.7901 
  418700    299.83829   -1155.1143    6383.5296        11634    1954.2517 
  418800    300.59361   -1156.7235    6368.9981    11633.996    1961.8485 
  418900    296.01753   -1159.0903    6469.2405    11634.111    1965.8406 
  419000    297.32683   -1164.2356    6446.4184    11634.114    1992.1417 
  419100    299.97042   -1163.7413    6389.5005    11634.167      1933.53 
  419200    299.47919   -1159.4621     6395.765    11634.216    1896.0212 
  419300    301.63676   -1166.6726    6356.9933    11634.327    1919.3325 
  419400      299.542   -1163.7259    6398.7312    11634.261    1920.4079 
  419500    301.19364   -1167.3975    6367.1473     11634.29    1938.5366 
  419600    299.29265   -1161.4753    6401.9977    11634.451    1913.6155 
  419700    298.83763   -1161.1447    6411.3625    11634.425    1966.8981 
  419800    300.93189   -1159.0326    6364.4015    11634.317     1957.449 
  419900    300.43346   -1169.5299    6385.6129    11634.383    1980.0991 
  420000      301.513    -1170.435    6363.5534    11634.481    1930.2097 
  420100    298.71825   -1165.9396    6418.6903    11634.408    1929.2041 
  420200    301.78096   -1173.7222    6361.1113    11634.476     1844.803 
  420300    299.06522    -1175.853    6421.3561    11634.573    1877.8788 
  420400    300.19185   -1175.4024    6396.7495    11634.485    1896.9105 
  420500    296.38779   -1169.0603    6471.5466    11634.357    1881.7746 
  420600    296.86756   -1168.5422    6460.8841    11634.462    1938.1507 
  420700     300.8623   -1164.4858    6371.5326    11634.508    1902.5218 
  420800    299.48804   -1158.7879    6395.0114    11634.326    1940.9701 
  420900    299.45409   -1165.3749    6402.3694    11634.372    1954.4983 
  421000    297.56418   -1167.9213    6445.3013    11634.382    1903.1273 
  421100    298.98468   -1163.5348    6410.5896    11634.404    1922.2311 
  421200    303.33164   -1172.2726    6326.4143    11634.357    1922.1887 
  421300     296.6571   -1166.3607    6463.0565     11634.32    1893.3817 
  421400    299.28378   -1165.7674    6406.4231    11634.394     1867.714 
  421500    293.95683   -1157.8929    6512.2309    11634.275    1934.6528 
  421600    302.74842   -1160.9939    6327.4148    11634.176    1906.9876 
  421700    298.59297   -1154.9918    6410.1225    11634.111    1928.6859 
  421800    299.54527   -1153.2382    6388.0095    11634.096    1928.0597 
  421900    294.52106   -1149.0021    6491.1395    11634.128    1929.7571 
  422000    298.24301   -1157.7834    6420.2599    11633.981    1865.6146 
  422100    298.53744   -1165.2383    6421.5746    11634.131    1924.1593 
  422200    296.96951   -1161.0063    6450.9224    11634.214    1930.6932 
  422300    300.80172   -1164.1635    6372.1738    11634.177      1838.14 
  422400    291.58202   -1166.1373    6571.0569    11634.122    1889.3941 
  422500    299.74463   -1165.3506    6395.9772    11634.211    1948.5801 
  422600    300.23607   -1164.5021    6384.6439    11634.225    1937.2372 
  422700    299.71841   -1159.0994    6390.2323    11634.157    1916.3887 
  422800    298.48554   -1159.4378    6416.9445    11634.192    1924.6864 
  422900    300.12163   -1163.4782    6386.0425    11634.203    1903.7343 
  423000    296.01528   -1162.0001    6472.3545    11634.267    1951.7054 
  423100    305.23234   -1166.3984    6279.7901    11634.212    1895.6813 
  423200     299.1328   -1173.0426    6416.8575    11634.328    1926.7291 
  423300    299.00544   -1173.4634    6420.1474    11634.476    1931.0948 
  423400    296.37651   -1171.0029    6473.8427    11634.469    1909.2955 
  423500    298.38293   -1174.0837    6434.0408    11634.451    1971.0614 
  423600    305.02361   -1167.9737    6286.0332    11634.421    1893.8109 
  423700     295.9758   -1159.5976    6470.9731    11634.444     1953.912 
  423800    300.97261   -1161.4415    6365.9456    11634.322    1921.4932 
  423900    299.64233   -1161.2268    6394.1024    11634.274    1890.3596 
  424000    297.36654   -1161.8628    6443.5219    11634.439     1935.435 
  424100     302.7203   -1172.7412    6339.9773    11634.391    1884.4269 
  424200    296.82261   -1169.6103    6462.8412    11634.391    1840.4614 
  424300    300.73405   -1174.6998    6384.3821    11634.404    1916.4519 
  424400    295.99269   -1171.6741    6482.7202    11634.476    1928.6754 
  424500    296.63216   -1167.7212    6464.9277    11634.297    1902.9846 
  424600    301.78203   -1163.2116    6350.2475    11634.146    1918.8941 
  424700    296.48608     -1151.89    6452.2228    11634.303    1960.1492 
  424800    304.27173   -1157.0931    6291.0075    11634.213    1877.0712 
  424900    298.37406   -1159.3306    6419.1915    11634.165    1864.1037 
  425000    298.87849   -1154.7483    6403.7812    11634.113    1916.6617 
  425100    297.33091   -1159.1447    6441.3218    11634.196    1934.9403 
  425200    303.05289   -1166.8111    6326.7709     11634.22    1833.2798 
  425300    298.33133   -1163.3288    6424.2232    11634.285    1871.8873 
  425400    300.71269   -1163.6544    6373.7007    11634.311    1867.6639 
  425500    297.06606   -1162.9655    6450.8645     11634.26    1862.5937 
  425600    298.50604   -1162.1346    6419.2434    11634.232    1884.6337 
  425700    299.09565   -1158.1391    6402.7045    11634.285    1961.5969 
  425800    300.44576   -1152.4183    6368.0359     11634.18    1899.6242 
  425900    301.65816   -1157.3788    6347.1316    11634.216    1926.2529 
  426000    301.08556   -1167.6868    6369.7206    11634.265    1897.8664 
  426100    297.40978   -1164.3941    6444.9876    11634.297    1896.2116 
  426200    301.37067   -1170.1577    6366.2028    11634.367    1832.9225 
  426300    297.05354   -1166.3349    6454.6134    11634.372     1955.463 
  426400     300.6929   -1171.3457    6381.9794    11634.476    1902.9185 
  426500    296.17587   -1164.7381    6471.8708    11634.476    1853.1384 
  426600    298.69281   -1167.9353    6421.2239    11634.402    1850.9335 
  426700    300.34257   -1167.6041    6385.6004    11634.355    1865.1667 
  426800    297.76389   -1166.4661    6439.6095    11634.412     1921.844 
  426900     300.0464   -1164.1515    6388.5356    11634.415    1962.2532 
  427000    297.76994   -1165.8456    6438.8411    11634.393    2006.4772 
  427100    299.53259   -1166.4268     6401.831    11634.458    1957.2844 
  427200    299.70805   -1171.5852    6403.2261    11634.444    1877.6987 
  427300    295.94665   -1167.7636    6479.7555    11634.438    1967.2335 
  427400    301.45558   -1169.2521    6363.4942    11634.378    1913.6759 
  427500    297.70221   -1166.4069    6440.8554    11634.399    1862.1584 
  427600    300.49552   -1165.2379    6379.9861    11634.374    1878.2699 
  427700    297.85011   -1163.0003    6434.2165    11634.327    1925.4548 
  427800    299.09372   -1160.1378    6404.7674    11634.308    1930.6459 
  427900    297.76101   -1163.9541    6437.1283    11634.381    1922.4997 
  428000    299.26302   -1159.7609    6400.7978    11634.332     1950.098 
  428100    300.30922   -1164.3256    6382.8815    11634.202    1894.7162 
  428200     298.1927   -1160.0253    6423.9561     11634.36    1928.0557 
  428300    297.83483   -1163.9297    6435.4479    11634.302    1941.1274 
  428400    298.29684   -1151.7826    6413.4177    11634.289    1920.4688 
  428500    299.60246   -1159.9065    6393.5648    11634.205    1923.1366 
  428600    299.40175   -1164.7299    6402.6871    11634.216     1894.964 
  428700      300.258    -1155.132    6374.8205     11634.24     1896.845 
  428800    300.58982   -1158.7665    6371.2951    11634.169    1932.8553 
  428900    294.72146   -1157.7424    6495.6613    11634.191    2030.1333 
  429000    300.06146   -1163.0626    6386.9361    11634.226    1904.0849 
  429100    298.87499    -1157.375    6406.5691      11634.2    1884.3837 
  429200    300.60842    -1162.239    6374.3801    11634.179    1911.5099 
  429300    302.26458   -1161.8087    6338.6393     11634.25    1870.7958 
  429400    296.40925   -1168.0662    6469.9741    11634.237    1910.1875 
  429500    301.45402   -1162.1129    6356.1742    11634.164    1942.0743 
  429600    298.05501   -1160.5608    6427.2435    11634.171    1985.9451 
  429700    301.13512   -1164.1283    6365.1865    11634.348    1932.4536 
  429800    296.72439   -1166.4536    6461.7267    11634.334    1953.3321 
  429900    300.56006   -1167.7157    6380.9915     11634.28    1885.9741 
  430000     297.6572   -1166.1561    6441.4556    11634.289     1884.629 
  430100    299.00216    -1166.969     6413.676    11634.429    1876.1855 
  430200     298.1009   -1167.7251    6433.6589    11634.402    1923.7986 
  430300    299.34822   -1169.3329    6408.5784    11634.361     1898.424 
  430400    302.15164   -1167.0406    6346.4361    11634.402    1889.5501 
  430500    297.84929   -1169.4801    6440.7658    11634.379    1891.5384 
  430600    298.73613   -1170.2764    6422.5509    11634.314    1895.2339 
  430700    297.78331   -1168.8881     6441.489    11634.284    1932.7076 
  430800    300.10689   -1162.2546    6385.2373    11634.306     1953.281 
  430900    299.74134   -1167.5875    6398.4567    11634.383    1940.0602 
  431000    296.93512   -1168.8536    6459.6366    11634.346    1988.7862 
  431100    299.72319   -1162.5021    6393.7688    11634.393    1965.5941 
  431200    296.77759   -1169.8205    6463.9196    11634.297    1952.5323 
  431300     299.9366   -1167.0209    6393.7568    11634.421    1955.6743 
  431400    296.15805   -1159.1741    6466.5977    11634.386    1925.3335 
  431500    301.36079   -1164.8339    6360.9664    11634.243    1828.7758 
  431600    300.38111   -1160.4154    6377.6451    11634.411    1948.7408 
  431700    301.88147   -1164.6906    6349.7622    11634.306     1946.968 
  431800    296.18666   -1156.5227    6463.2185    11634.269    1947.0413 
  431900    298.10411   -1155.2596    6420.9571    11634.234    1912.7306 
  432000    297.21522   -1163.4756     6448.184    11634.256    1882.8516 
  432100     299.7723    -1164.723    6394.7584    11634.211    1824.4748 
  432200    298.77696   -1162.0348     6413.378    11634.254    1874.0875 
  432300     299.7213   -1157.0434    6388.2438    11634.286    1853.9797 
  432400    295.70505   -1163.2252    6480.2088    11634.268    1871.6913 
  432500    303.12842   -1161.7125    6320.0199    11634.181    1824.0018 
  432600    294.92847   -1153.3061    6486.7826    11634.171    1938.8206 
  432700    300.36038   -1159.5493    6377.0493    11634.239    1857.9167 
  432800    295.26082   -1159.3547    6485.7562    11634.196    1845.6232 
  432900    299.96586   -1163.5214    6389.4158    11634.205     1894.023 
  433000    299.48841   -1164.0644    6400.2027    11634.249    1894.5939 
  433100    297.08671   -1165.8153    6453.2829    11634.269    1853.8025 
  433200    299.13513   -1168.2144    6411.9793    11634.328    1954.2164 
  433300    297.33362   -1165.9846    6448.2016    11634.294    1947.5615 
  433400     303.9953    -1165.479    6305.4065    11634.321    1959.6182 
  433500     295.7328    -1167.647    6484.1049    11634.335    1862.8119 
  433600    298.89591   -1168.6366      6417.48    11634.296    1873.0233 
  433700    301.32975   -1171.2833    6368.1923    11634.357    1924.6812 
  433800    299.32346   -1166.1875    6405.9164    11634.315     1856.028 
  433900    301.64293   -1164.0086    6354.2078    11634.338    1841.6534 
  434000    296.06166   -1165.1541    6474.7265    11634.476    1977.0999 
  434100    302.81817   -1161.3961    6326.4728    11634.322    1887.9136 
  434200    300.05703   -1167.8328    6392.0196    11634.445    1888.8664 
  434300      298.474   -1166.0443    6423.9961    11634.391    1877.8545 
  434400    298.30636   -1170.2474    6431.8041    11634.414    1885.4719 
  434500    297.86497    -1171.477    6442.4381    11634.389    1854.3377 
  434600    299.96193   -1170.1919    6396.3735    11634.408    1942.8317 
  434700    297.91898   -1165.5592     6435.389    11634.412    1952.8715 
  434800     301.5318   -1161.7381    6354.3311    11634.357    1890.7149 
  434900    299.38222   -1161.8221    6400.2924    11634.312      1868.18 
  435000    301.89545   -1170.2406    6355.0613    11634.354    1923.4823 
  435100    296.94852   -1162.4985     6452.973    11634.324    1859.7857 
  435200    300.59008   -1165.2517    6377.8192    11634.213    1821.5952 
  435300    301.51326   -1161.8734    6354.6778    11634.173    1897.5433 
  435400    296.63515   -1159.6348    6456.7501     11634.27    1904.6214 
  435500    299.76255    -1161.078    6391.3293    11634.218    1853.1395 
  435600    298.67729   -1158.6316    6412.0046    11634.155    1916.8448 
  435700    299.55058   -1161.1082    6395.7928    11634.123    1902.6173 
  435800    298.67877   -1158.5062    6411.8411    11634.148     1863.044 
  435900    300.20615    -1157.043    6377.6277    11634.029    1892.9129 
  436000    299.91074   -1154.0796    6381.0636    11634.117    1912.3381 
  436100    298.45209   -1157.1994    6415.3913    11634.163    1873.0962 
  436200    295.49583   -1158.4119    6479.7651    11634.168     1893.711 
  436300    300.49906   -1160.2013     6374.633    11634.133    1902.2491 
  436400    298.47804   -1156.4521    6413.9798    11634.053     1905.113 
  436500    299.92165   -1161.4817    6388.2045    11634.089    1871.7811 
  436600    299.36388   -1158.6491    6397.3472    11634.148    1895.0871 
  436700    301.82187   -1161.0542    6347.2515    11634.158    1904.8895 
  436800    298.95243   -1160.7911    6408.2738    11634.143    1879.5845 
  436900    297.96966   -1159.0264    6427.6152    11634.253    1884.6843 
  437000    298.61404   -1164.5161    6419.3184    11634.233    1905.4577 
  437100    300.11418   -1160.5647    6383.4192    11634.333    1874.6531 
  437200    296.38284   -1159.1981    6461.7703    11634.337    1882.8616 
  437300    299.09801   -1169.4885    6414.0876    11634.369    1922.5512 
  437400     300.5214   -1171.8055     6385.937     11634.31    1878.3239 
  437500    295.67573   -1158.7277     6476.398    11634.329    1922.4124 
  437600    303.00662   -1173.6506    6334.6909    11634.312    1858.4075 
  437700    297.32474   -1166.3644    6448.8841    11634.407    1920.5918 
  437800    298.50922   -1166.2014    6423.4434    11634.434    1902.3403 
  437900    300.65563   -1167.2848    6378.6299    11634.391    1875.0474 
  438000    299.78525   -1165.2387    6395.2201    11634.433     1842.227 
  438100    301.16749   -1170.7739    6371.2591    11634.466    1839.4834 
  438200    297.97306   -1168.1026    6436.8318    11634.466    1861.7194 
  438300    299.47481   -1169.4457     6406.037    11634.411     1875.502 
  438400     303.0298   -1167.9945    6328.5702    11634.342    1804.0963 
  438500    298.65322   -1167.8243    6421.8886    11634.332    1878.5213 
  438600    301.00123   -1161.9795    6365.8196     11634.27    1914.8361 
  438700     299.0629    -1160.191    6405.4598    11634.289    1878.8461 
  438800    298.56569   -1155.8341    6411.7105    11634.274    1827.2368 
  438900    298.39775   -1162.3565    6421.8251    11634.279    1849.5552 
  439000    296.96433   -1159.7267    6449.8414    11634.302    1864.3107 
  439100    300.99487   -1160.0084    6363.9454     11634.23    1799.2847 
  439200    299.51111   -1168.1775    6403.8285    11634.246    1859.9055 
  439300    301.24039   -1161.9775    6360.6374    11634.199    1838.9295 
  439400    298.42612   -1155.2861    6413.9777    11634.108    1819.1552 
  439500     300.7767   -1161.7202    6370.2539    11634.166    1861.0556 
  439600    296.60571   -1160.6699    6458.2792    11634.135    1924.7373 
  439700    300.42952    -1160.306    6376.2105     11634.12    1904.0679 
  439800    297.33474   -1151.0546    6433.1686    11634.214    1909.2158 
  439900    301.84223   -1149.9375    6335.6093    11634.068     1867.607 
  440000    294.58549   -1154.7613    6495.5251    11634.131    1903.1284 
  440100    298.46846   -1158.4269    6416.2936    11634.187    1858.4832 
  440200    301.87474   -1172.5435    6357.7156    11634.263    1889.0731 
  440300    301.97338   -1171.8114    6354.8966    11634.283     1842.201 
  440400    297.75311   -1167.5174    6440.7847    11634.306    1826.7824 
  440500    297.56805   -1170.2193    6447.4608    11634.326    1855.1139 
  440600    299.59694   -1160.2996    6394.2085    11634.338    1907.9114 
  440700    299.60538   -1157.3499    6390.9963    11634.256    1892.3675 
  440800    299.89023   -1161.7643    6389.4534    11634.384     1931.976 
  440900    298.83571   -1160.1402    6410.4667    11634.493    1994.6593 
  441000     302.0051   -1164.4516    6346.9494    11634.374    1889.1175 
  441100    302.22245   -1171.6377    6349.5835    11634.465    1900.5495 
  441200    293.61494   -1173.9539    6535.8425    11634.521     1911.415 
  441300    302.48018   -1174.9256    6347.4036    11634.503    1898.0293 
  441400    298.65803   -1172.1807    6426.3391    11634.529    1918.4561 
  441500    301.10958   -1172.5364    6374.2134    11634.421    1871.7805 
  441600    301.20429   -1168.0529    6367.6498    11634.364    1867.0205 
  441700    296.69451   -1159.7639    6455.7117    11634.371    1943.4628 
  441800    299.80372   -1156.1902    6385.7252    11634.381    1982.0033 
  441900    301.66318   -1158.2576    6347.9854    11634.299    1916.6455 
  442000    298.05749    -1164.966    6431.7712    11634.346     1905.582 
  442100    303.02573   -1168.1138    6328.7709    11634.337    1900.4689 
  442200    297.26504    -1163.951    6447.6841    11634.345    1970.0499 
  442300    300.53046     -1168.26    6382.1835    11634.296    1845.3822 
  442400     296.2361   -1164.8488    6470.5055    11634.286    1885.2979 
  442500    300.46918   -1157.4341    6372.4696    11634.098    1836.0805 
  442600    297.51063   -1154.7683    6433.0833    11634.173     1885.231 
  442700     298.8606   -1150.5721    6400.0119    11634.138    1899.3751 
  442800    302.47519   -1155.4727    6327.6213    11634.067    1912.8297 
  442900    300.42035   -1159.7342    6375.7332    11634.019    1856.5253 
  443000    295.88876   -1154.3071    6467.2217    11634.124    1851.4401 
  443100    300.73849    -1157.611    6366.9089    11634.114     1844.922 
  443200    296.50114   -1156.9634    6456.7605    11634.089    1881.4768 
  443300    299.03276   -1161.1288    6406.8644    11634.112    1871.6857 
  443400    299.03929    -1158.223    6403.7774     11634.07    1834.2631 
  443500    298.63564   -1158.9923    6413.3035    11634.203    1880.1712 
  443600    297.60505   -1161.1946    6437.4423    11634.123    1886.8857 
  443700    294.34675   -1153.3465    6499.2572    11634.177    1879.2404 
  443800    299.92332   -1160.7578    6387.5876    11634.231    1882.1828 
  443900    298.22992   -1162.6266     6425.666    11634.264    1888.9087 
  444000     303.4341   -1167.4289    6319.3295    11634.305    1913.2906 
  444100    296.90475   -1164.9543    6456.3794     11634.34    1946.3638 
  444200    296.04385   -1168.7981    6478.6192    11634.344    1873.2311 
  444300    301.94881   -1169.3664    6353.1239    11634.431    1893.7861 
  444400    299.20585   -1170.9221    6413.2794    11634.431    1905.2173 
  444500    299.64118   -1167.0258    6400.0567    11634.405    1862.9204 
  444600    298.01665   -1167.1212    6435.0202    11634.567    1861.1765 
  444700    302.24731    -1169.844    6347.2952    11634.501    1890.7625 
  444800    300.67978     -1168.69     6379.685    11634.557    1902.4137 
  444900    299.22744   -1163.8586    6405.8963    11634.573    1881.2162 
  445000    300.35995   -1169.5022    6387.3821    11634.609    1907.3904 
  445100     297.8216   -1167.6508    6439.6167    11634.468    1856.9287 
  445200     300.5866   -1170.1266    6382.9608    11634.406    1845.7086 
  445300    301.31338    -1166.527    6363.8835    11634.454    1860.5586 
  445400    299.23481   -1164.5189    6406.2421    11634.416    1921.9122 
  445500    299.74961    -1163.519    6394.1827    11634.354    1835.4462 
  445600    296.19899   -1163.9906    6470.4821    11634.329    1901.0645 
  445700    303.27697   -1164.5491    6319.7689    11634.267    1829.1172 
  445800    297.97555   -1162.2087     6430.607    11634.189    1868.0652 
  445900    300.30874   -1163.5582    6382.1297    11634.207    1943.4885 
  446000    299.90577   -1156.9147    6384.0783     11634.19       1859.2 
  446100    296.61866   -1157.0189    6454.3544    11634.138    1865.2573 
  446200    303.37688   -1163.0389    6315.8814    11634.024    1839.7126 
  446300    297.16333   -1157.9082    6443.6179    11634.148     1961.466 
  446400    295.92494   -1156.8893     6469.025    11634.118    1937.9758 
  446500    300.89608   -1157.0307    6362.9005    11634.053    1888.2873 
  446600    299.20319   -1158.9948    6401.0072    11634.029    1848.5775 
  446700    298.12795   -1157.7925    6422.8469    11634.101    1850.0907 
  446800    298.88113   -1160.3174    6409.3275    11634.147    1867.6561 
  446900    299.23442   -1160.6668    6402.0978    11634.115    1934.6799 
  447000    300.99369   -1157.9282    6361.8122    11634.152    1918.7293 
  447100    299.65994    -1163.157    6395.5864    11634.204    1962.9589 
  447200    299.57358   -1160.3068    6394.5667     11634.19     1842.226 
  447300    297.83641   -1168.6411    6440.0624    11634.239    1849.5068 
  447400    296.60139   -1166.6084    6464.5448     11634.37    1919.7951 
  447500    300.28878    -1170.583    6389.6374    11634.263    1930.4453 
  447600     300.9786   -1163.3784    6367.7322      11634.3    1897.4311 
  447700    298.58978   -1160.1908    6415.6057    11634.327    1904.8913 
  447800    300.55145    -1165.981    6379.5141    11634.354     1876.846 
  447900    296.36271    -1165.601    6468.5984    11634.332    1918.4161 
  448000    305.46822   -1168.7017    6277.1653    11634.323    1858.1391 
  448100    297.83191   -1169.9333    6441.5673    11634.356    1907.2853 
  448200    299.00728   -1164.2306    6410.8139    11634.415    1838.1723 
  448300    302.67506   -1165.8806    6333.9906    11634.298    1876.6968 
  448400    301.19191   -1166.8255    6366.7428     11634.42    1911.1947 
  448500    298.89701   -1169.5677    6418.4904    11634.399    1899.1861 
  448600    301.10873   -1165.4153    6366.9852    11634.296    1875.1786 
  448700    298.15594   -1167.8844    6432.6525    11634.412    1908.6136 
  448800    304.27728   -1165.3304    6299.2372    11634.324    1875.5415 
  448900    296.23256   -1160.6885     6466.398    11634.264    1899.3362 
  449000    297.82576   -1159.1547    6430.8008    11634.237    1853.4979 
  449100     298.2753   -1164.6346    6426.6714    11634.231    1858.2504 
  449200    300.44329    -1166.479    6382.2316    11634.262    1879.6699 
  449300    298.76726   -1156.7968    6408.3068    11634.214    1805.7456 
  449400    296.67542   -1157.5093    6453.7484    11634.254    1871.7438 
  449500    301.59994   -1160.0217    6350.9973    11634.196    1839.3924 
  449600    296.29934   -1160.3549    6464.5455    11634.171    1856.3495 
  449700    301.06785   -1162.0832     6364.374    11634.143    1835.6489 
  449800    298.99504   -1161.0931    6407.6226      11634.1     1910.355 
  449900    298.61399   -1159.8552    6414.5311    11634.106    1920.6669 
  450000    301.85988   -1163.2817    6348.6724    11634.164    1879.5378 
  450100    296.55908   -1162.6082    6461.2997    11634.221    1940.0457 
  450200    297.54257   -1162.0555    6439.6822    11634.167    1893.7848 
  450300    297.52584   -1158.9241    6436.8812     11634.14    1866.7481 
  450400     299.1079   -1166.2996     6410.579    11634.261    1889.0857 
  450500    302.27471    -1164.017     6340.701    11634.319    1919.8652 
  450600    299.96756   -1163.1958    6389.1483    11634.299     1885.963 
  450700    299.11767   -1168.3065    6412.3215    11634.205    1859.3119 
  450800    301.76034   -1159.9078    6347.5395    11634.278    1880.9004 
  450900    296.78052   -1161.5197    6455.5967    11634.338    1945.9866 
  451000    300.93477   -1161.9216     6367.126    11634.214    1912.9784 
  451100    302.55473   -1159.3914    6330.0002    11634.226    1883.8599 
  451200     300.1651   -1164.4638    6386.1603    11634.263    1908.6164 
  451300    298.76665   -1163.8942    6415.5599    11634.357    1906.0891 
  451400    300.94691   -1167.7279    6372.7522    11634.293    1886.1507 
  451500    300.56008    -1162.612    6375.8524    11634.245    1898.3411 
  451600    298.31162   -1165.1772    6426.4539    11634.247    1912.8636 
  451700    295.42969   -1163.8706    6486.7313    11634.263    1914.3633 
  451800    301.39663   -1158.8577    6354.1802    11634.199    1844.9309 
  451900    298.86499   -1161.0072    6410.3471    11634.132    1880.0515 
  452000    298.27909   -1156.3799    6418.3331    11634.228    1906.0921 
  452100    298.02767    -1157.628    6424.8791    11634.155    1895.1682 
  452200    300.19242   -1164.3218    6385.2664    11634.095    1847.4945 
  452300    299.38186   -1165.5493     6403.862    11634.147    1891.5555 
  452400    296.30919   -1162.5775    6466.5696    11634.183    1875.5374 
  452500    295.65295   -1165.6749    6483.6628    11634.159    1824.1167 
  452600    298.24321   -1155.4086    6418.0725    11634.172    1875.5665 
  452700    300.86732   -1159.5454    6366.0656    11634.089    1850.9701 
  452800    297.29889   -1160.4574    6443.2501    11634.127    1846.1032 
  452900    297.98418   -1161.3507    6429.5888    11634.213    1865.5275 
  453000    299.09228   -1162.4254    6406.9927    11634.215    1891.4782 
  453100    299.91952    -1164.027    6390.9502    11634.244    1913.1908 
  453200    297.10893   -1159.9497     6447.043     11634.37    1921.1436 
  453300    301.42227   -1163.6134    6358.4987    11634.309    1888.9092 
  453400    296.12279   -1167.8364    6475.9827    11634.355    1937.6295 
  453500    298.80724   -1171.5337    6422.3509    11634.375    1927.3284 
  453600    297.04041   -1161.2798    6449.8774     11634.41    1925.6924 
  453700    302.51117   -1167.8236    6339.4789    11634.342    1920.2514 
  453800    295.69898   -1159.5581    6476.8997    11634.497    1893.5921 
  453900    303.77059   -1163.7314    6308.5811    11634.442    1837.4628 
  454000    299.60654   -1166.8396    6400.5658     11634.36    1940.2468 
  454100    298.86018   -1165.8826    6415.6021    11634.409    1944.2693 
  454200    297.82722   -1165.3752    6437.1316    11634.378    1926.8768 
  454300    301.08476   -1167.6373    6369.7949    11634.372    1911.7512 
  454400    295.73543   -1159.8427    6476.3814    11634.473    1962.1584 
  454500    299.98352   -1165.4139    6391.0888    11634.362    1906.6832 
  454600    298.48459   -1153.6508    6411.3123    11634.327     1935.905 
  454700    299.90161   -1154.9451    6382.2362    11634.229    1889.3082 
  454800    296.45512   -1158.2704    6459.0817     11634.12    1837.0053 
  454900    299.24475   -1159.5897     6400.854    11634.169    1927.6747 
  455000    299.20669   -1158.1065    6400.1687    11634.154    1925.8832 
  455100     293.9546   -1159.6851    6513.8701    11634.074    1870.6712 
  455200     301.1148   -1158.8267    6360.0764    11634.105    1944.8528 
  455300    296.08519   -1154.5733    6463.2661    11634.099    1893.7242 
  455400    297.44364   -1155.9259     6435.465    11633.966    1801.9074 
  455500    296.38946   -1151.5042    6453.5712    11633.973    1895.7423 
  455600    300.08378   -1155.1782    6378.4158    11634.067    1920.2909 
  455700    294.28454   -1154.2009    6501.2893    11634.026    1952.8673 
  455800    300.32946   -1148.8432    6366.7602    11633.995    1951.1649 
  455900    298.23643   -1152.3404    6414.9447    11633.968    1905.0991 
  456000    299.18201   -1153.4688    6395.9714    11634.067    1820.4683 
  456100    301.88289   -1156.6352    6341.4553    11634.085    1873.4992 
  456200    295.66333   -1158.4502    6476.1978    11634.141    1911.9509 
  456300    298.55051   -1157.9933    6414.0951    11634.175    1882.6486 
  456400    301.17248   -1162.5595    6362.7397    11634.268     1880.859 
  456500    302.46835    -1167.289    6339.7938    11634.277    1897.5126 
  456600    297.95831   -1158.2642     6427.155    11634.313    1874.1906 
  456700    295.48679   -1166.6244    6488.3378    11634.335    1910.7575 
  456800    303.60757   -1167.6961    6315.9977    11634.411    1943.8033 
  456900    295.97618   -1169.2518    6480.6055    11634.431    1954.7716 
  457000    301.51461   -1173.6978    6366.7346    11634.434    1958.7029 
  457100    297.56474   -1171.4255    6448.9023    11634.491    2026.8183 
  457200     299.9564   -1163.0748    6389.4775    11634.511    1921.0112 
  457300    297.26082   -1170.4129    6454.4326    11634.541    1902.4948 
  457400    297.99534   -1171.5959    6439.9183    11634.536    1933.7553 
  457500    298.25393   -1173.0558    6435.8053    11634.487    1876.6959 
  457600    300.44464   -1173.3932    6389.3776    11634.523    1895.7364 
  457700    300.19718   -1173.1048    6394.3795    11634.527    1934.8336 
  457800    298.41286   -1171.3541    6430.7739    11634.553    1921.4387 
  457900    299.88239   -1169.9099    6397.9537    11634.571     1917.297 
  458000    300.02607   -1166.6801    6391.5598    11634.476    1954.9193 
  458100    299.74748   -1167.4197    6398.2107    11634.436    1927.0464 
  458200    300.61194   -1166.0396    6378.3463     11634.42    1865.8885 
  458300    300.77616   -1161.1136    6369.7491    11634.257    1916.6814 
  458400    298.09706   -1157.8177    6423.6904    11634.259    1854.6059 
  458500    296.46196   -1164.6948     6465.533    11634.293    1846.2915 
  458600     298.8236   -1159.4845    6409.8068     11634.23    1862.0614 
  458700    297.87855   -1160.2461    6430.6697    11634.142    1917.3928 
  458800    303.61073   -1159.0091    6306.9097    11634.078    1874.2538 
  458900    297.56023   -1157.3505     6434.537    11634.104    1905.0113 
  459000    297.17723   -1151.9901    6437.3423    11634.088    1882.6701 
  459100    302.84901   -1149.1713     6313.307     11634.04    1819.1585 
  459200     298.0278   -1148.0307    6415.2802    11634.156    1882.2716 
  459300    301.43401   -1152.8127    6347.1838    11634.046     1855.562 
  459400    296.26448   -1147.5956    6452.3477    11633.988    1875.6307 
  459500    296.98985   -1154.9591    6444.1935    11633.967    1880.0491 
  459600    298.18615   -1159.0779    6422.8429    11634.055    1931.7163 
  459700    300.20188   -1157.6638    6378.3495    11634.038     1842.989 
  459800    300.51326   -1156.1156     6370.242    11634.131    1815.9496 
  459900    297.61438   -1165.0217    6441.1621    11634.215    1944.2766 
  460000    299.37048   -1162.2854    6400.8968    11634.202    1910.9839 
  460100    300.48737   -1163.7994    6378.6068    11634.259    1886.2231 
  460200    299.93063   -1163.6933    6390.4238    11634.288    1893.9185 
  460300      300.671    -1165.391    6376.4236    11634.407    1931.2982 
  460400    298.93369   -1166.0253    6414.2396    11634.474    1892.2007 
  460500    302.19422   -1167.4546    6346.0373    11634.499    1910.6908 
  460600    301.79039   -1167.8118    6355.0319    11634.509    1937.4166 
  460700    301.21904   -1166.4688    6365.8595    11634.473    1875.2307 
  460800    297.15691   -1166.8782    6453.0877    11634.511    1894.1098 
  460900    299.37511    -1172.253     6411.138    11634.575    1885.9636 
  461000    296.95617   -1172.5198    6463.0559    11634.549     1893.086 
  461100    300.95536   -1170.7729       6375.8    11634.477    1908.0505 
  461200    300.03331   -1171.3911    6396.0961    11634.456    1903.7103 
  461300    300.15406   -1167.5127    6389.6934    11634.512    1897.4353 
  461400    299.34528   -1170.1359    6409.4977    11634.414    1918.9485 
  461500     297.7138   -1162.2683     6436.435    11634.365    1901.2923 
  461600    300.62479   -1170.0279    6382.0152    11634.375    1867.8782 
  461700    300.77919   -1168.8537    6377.5713    11634.404    1886.4484 
  461800    301.62613   -1164.6371    6355.1894    11634.332    1914.2083 
  461900     297.4131   -1159.0304    6439.5563      11634.3    1929.3106 
  462000    300.52703    -1157.842    6371.8402    11634.297     1872.396 
  462100    297.44149    -1159.728    6439.6082    11634.261    1898.2182 
  462200    302.00984   -1157.0754    6339.2415    11634.143    1902.6139 
  462300    298.35072   -1156.1277    6416.4494    11634.127    1899.6083 
  462400    297.07123   -1160.1281    6447.8163    11634.159    1847.3142 
  462500    300.85914   -1156.9979    6363.6427    11634.039    1829.8523 
  462600    301.27658    -1153.684    6351.4057    11634.034    1883.8208 
  462700    297.65152   -1154.7365    6429.8797    11634.011    1853.6558 
  462800    296.37242   -1154.3397    6456.8862    11634.088    1918.1235 
  462900    301.09146   -1155.0163    6356.6712    11634.012     1918.145 
  463000    298.11001   -1152.1767    6417.5458    11634.032    1892.3848 
  463100    297.09984   -1158.5633    6445.5653    11634.084    1872.8569 
  463200    300.33836   -1163.0051    6380.9828    11634.246    1965.4773 
  463300    301.72234   -1167.0846     6355.353    11634.103    1867.2904 
  463400    300.11572   -1157.7966    6380.4044    11634.119    1811.0233 
  463500    296.94043   -1166.5012     6457.014     11634.19    1873.7625 
  463600    300.53832   -1165.6938     6379.423    11634.269    1912.8681 
  463700    299.88221   -1161.6186    6389.3265    11634.231    1835.4502 
  463800      300.004   -1163.1261     6388.236    11634.235     1895.378 
  463900    298.78638   -1161.9584    6413.2528    11634.407    1970.4949 
  464000    302.45679   -1166.8471    6339.7545    11634.433    1919.9567 
  464100    301.31568   -1168.9703    6366.2945    11634.471     1803.177 
  464200    297.34142   -1168.7076    6450.8996    11634.435    1890.5781 
  464300    300.79352   -1169.3883    6377.8599    11634.464    1919.6168 
  464400    299.87136   -1170.9373     6399.062    11634.416    1888.3847 
  464500     298.5418   -1160.6124    6417.1658    11634.441    1867.0876 
  464600    301.02149   -1168.7382    6372.3197    11634.444    1893.8499 
  464700    301.12045   -1167.4671    6368.8454    11634.355    1892.7369 
  464800    296.85574   -1169.7274    6462.2554    11634.396    1961.9646 
  464900    299.92455   -1169.2236    6396.2279    11634.432    1961.4324 
  465000    299.44373   -1163.0162    6400.1932    11634.333    1835.1301 
  465100    298.73865   -1161.0362    6413.1532     11634.21    1837.4023 
  465200    295.84203   -1159.6457    6473.6648     11634.23    1871.9918 
  465300    303.82555   -1163.2101    6306.6318    11634.188    1861.2808 
  465400    294.39037   -1158.1788    6503.1628    11634.183    1890.1457 
  465500    301.54999   -1159.7212    6351.6655    11634.097     1834.746 
  465600    297.17925   -1162.1304    6447.5288    11634.177    1850.4365 
  465700    296.97849   -1160.7601    6450.3935    11634.123    1879.1938 
  465800    301.21418   -1160.1757    6359.2849    11634.088    1944.7484 
  465900    297.75195   -1156.7369    6429.7209    11633.998    1943.0424 
  466000    294.85429   -1156.0135    6491.0101    11634.106     1881.286 
  466100     302.2378   -1154.4885     6331.718    11634.076    1874.5454 
  466200    297.61362   -1152.1703    6428.1643    11634.052    1886.3079 
  466300    298.26298   -1159.3584    6421.5108    11634.083    1893.3718 
  466400    295.96308   -1162.4321    6473.7887    11634.154    1853.9796 
  466500    299.13344   -1161.6272    6405.2546    11634.154    1803.2886 
  466600    298.82502   -1163.5541     6413.791    11634.175    1864.7885 
  466700    300.51189   -1164.1476    6378.4249    11634.253    1906.6697 
  466800    300.41076   -1160.9348    6377.3267    11634.207     1892.157 
  466900    300.08093    -1155.931    6379.4013    11634.239    1889.1211 
  467000    298.34604   -1158.1081    6418.6534    11634.251    1929.7999 
  467100    300.37916   -1163.5247     6380.637    11634.252    1917.1628 
  467200    300.95053   -1159.3037     6364.239    11634.282     1903.678 
  467300    294.74952   -1166.9824    6504.3897    11634.279    1925.8615 
  467400    298.24576   -1164.9927    6427.7379    11634.308    1869.8662 
  467500    300.11485   -1168.3258    6391.1981    11634.366    1841.0843 
  467600    299.85506   -1167.3909    6395.7945    11634.347    1879.7581 
  467700    302.41041   -1167.2456    6340.9737    11634.262    1831.7287 
  467800    294.85379   -1168.9492    6504.1733    11634.323    1856.0018 
  467900    300.50906   -1163.1042     6377.533    11634.344    1845.8127 
  468000    297.34606    -1165.498     6447.392    11634.236    1907.8375 
  468100    300.19363   -1163.1099    6384.0626    11634.129    1948.9413 
  468200    299.98343   -1160.2653    6385.7431    11634.163    1932.2793 
  468300    300.53509    -1160.394    6374.1284    11634.206    1855.2322 
  468400    295.79027   -1160.9986    6476.0169    11634.124    1898.8729 
  468500    301.30452   -1164.8602    6362.1269    11634.175    1855.5813 
  468600    299.49029   -1162.7172    6398.7952    11634.228    1910.5026 
  468700     305.9586   -1167.0939    6264.9847    11634.227     1865.333 
  468800     296.4436   -1158.8717    6459.9695    11634.161    1833.1076 
  468900    296.72686   -1158.8806    6453.9614    11634.195    1782.7298 
  469000     299.3497   -1160.2925    6399.3312    11634.186     1853.154 
  469100    300.12975    -1157.471    6379.7636    11634.104    1955.3655 
  469200    299.33601   -1157.5562     6396.937    11634.235    1953.5165 
  469300    301.00417   -1163.4623    6367.1952    11634.225    1886.9557 
  469400    298.66799   -1159.3999     6413.043    11634.226    1838.9614 
  469500    299.47978   -1160.3629    6396.7227    11634.286    1815.2331 
  469600    297.72112   -1163.2439     6437.228    11634.339    1960.7884 
  469700    303.06428   -1165.4917    6325.3374    11634.349    1937.3152 
  469800    297.11481   -1165.3523    6452.2221    11634.272    1882.4511 
  469900    303.15394   -1158.3062    6316.2184    11634.331     1795.371 
  470000    296.94764   -1164.3961    6454.9894    11634.424    1822.3422 
  470100    299.50396   -1161.7278     6397.583    11634.298    1824.1792 
  470200    300.41721   -1160.3663    6376.7702    11634.357    1902.3468 
  470300    301.26464    -1161.494    6359.7544    11634.317    1915.3125 
  470400     297.6945    -1163.497    6438.0667    11634.356     1882.183 
  470500    298.03361   -1165.2811    6432.6667    11634.416    1833.0133 
  470600    295.67935   -1164.1855    6481.7838    11634.334    1878.3818 
  470700    298.34919   -1169.9904    6430.5895    11634.372    1921.2542 
  470800    301.63409   -1163.8051    6354.1203    11634.265    1830.4018 
  470900    295.26098   -1164.5145    6490.9839    11634.267      1911.35 
  471000    296.50298   -1163.3334    6463.3434    11634.341      1902.42 
  471100    300.69207   -1154.6961    6365.0669    11634.195    1860.0914 
  471200    296.42395   -1158.6931    6460.2483    11634.198    1866.1179 
  471300     298.6228   -1163.0594    6417.6048    11634.163    1921.3691 
  471400    297.28767   -1160.2604    6443.3111    11634.146    1874.9871 
  471500    297.14666   -1164.0385    6450.1837    11634.228    1880.2017 
  471600    302.17257   -1159.7655    6338.5488    11634.237    1878.2575 
  471700    298.12994   -1160.6839    6425.7697    11634.174    1902.8106 
  471800    298.06068   -1161.0735    6427.5196    11634.055    1873.9066 
  471900      298.293   -1158.7486    6420.2622    11634.086    1933.0568 
  472000    298.22769   -1159.9605    6423.0635     11634.28    1953.1148 
  472100    295.34952   -1159.2883    6483.8649    11634.266    1947.3715 
  472200    297.89906   -1153.9385    6423.9482    11634.166     1968.102 
  472300     298.8862   -1159.9807    6408.9277    11634.192    1944.6289 
  472400    296.69228   -1157.9274    6453.8729    11634.321    1924.9775 
  472500    298.85964   -1162.5529    6412.1794    11634.304    1845.5792 
  472600    297.62467   -1166.6199    6442.6977    11634.372    1917.9951 
  472700    300.32205   -1168.7428    6387.1644    11634.341    1875.6748 
  472800    299.36792   -1167.5723    6406.4369    11634.401    1870.4994 
  472900     301.1971   -1165.2649    6365.1075    11634.456    1913.0357 
  473000    298.53485   -1163.9663    6420.6335    11634.406    1939.4097 
  473100     299.5039   -1157.4319    6393.3472    11634.357    1937.5125 
  473200    301.88447   -1167.9528    6352.9995    11634.345    1871.4711 
  473300    300.55262   -1164.5921     6378.149    11634.402    1971.9886 
  473400    299.19739    -1165.075    6407.5634    11634.382    1928.6929 
  473500    300.65775   -1168.8201    6380.1387     11634.41    1879.0215 
  473600    302.44817    -1171.167    6344.2467    11634.421    1831.7843 
  473700    298.89455   -1167.7723    6416.8418    11634.493    1822.4602 
  473800    297.17855   -1165.2099    6450.8551    11634.409     1859.565 
  473900    301.89483   -1159.8175    6344.7045    11634.407    1860.8727 
  474000    297.36126   -1167.2887     6448.981    11634.359    1860.1924 
  474100    303.06958   -1166.5407    6326.3208    11634.397    1844.5757 
  474200    297.56219    -1162.077    6439.4188    11634.301    1891.6536 
  474300    300.79563   -1168.6949    6376.9815    11634.324    1873.6949 
  474400    296.54632   -1165.4748    6464.5998    11634.382    1897.7539 
  474500    298.39831   -1164.1261    6423.5426    11634.238    1894.7516 
  474600    299.02687   -1160.2987    6406.2957    11634.247    1886.0462 
  474700    297.47728   -1158.5423    6437.6079    11634.211    1868.8367 
  474800    297.30715   -1157.9717    6440.6962    11634.236    1913.7841 
  474900    301.34857   -1164.4434    6360.8604    11634.267    1911.7787 
  475000    297.48292   -1163.7307    6442.6544     11634.19    1842.9805 
  475100    300.42236    -1162.076    6378.2651    11634.252    1863.6077 
  475200    301.22767   -1163.7801     6362.716    11634.203    1878.7043 
  475300    298.90567   -1156.5749    6405.0927    11634.179    1825.2012 
  475400     301.5696    -1158.862    6350.5115    11634.221    1868.6334 
  475500    299.34122   -1159.7647    6399.0999    11634.301    1948.3092 
  475600    300.73205   -1165.4118    6374.9829     11634.25    1874.1163 
  475700    300.62194     -1160.08    6371.9813    11634.228    1797.6926 
  475800    298.72253   -1166.5663    6419.2115    11634.394    1856.4293 
  475900    300.83823   -1168.1811    6375.6418    11634.408     1901.519 
  476000    295.44517   -1168.5365    6491.2858    11634.482    1940.1195 
  476100    302.29333   -1164.9443    6341.2922    11634.381    1859.5011 
  476200    299.67951   -1162.5837    6394.7135    11634.323    1895.2765 
  476300    298.34661   -1161.7365     6422.429     11634.41    1925.0584 
  476400    297.86676   -1161.3091    6432.2031     11634.36    1954.3475 
  476500     300.6583    -1169.707    6380.9329    11634.329    1935.9407 
  476600    296.08794   -1165.0313    6473.8979    11634.331    1920.4755 
  476700    300.63097     -1162.88    6374.7714    11634.411    1833.4167 
  476800    299.25484     -1166.54    6407.7533    11634.334      1817.19 
  476900     300.9135   -1172.0612    6377.8763     11634.37    1783.2032 
  477000    298.35494   -1167.5579    6428.0744    11634.412     1840.865 
  477100    300.34529   -1167.5442    6385.5286    11634.401    1851.7156 
  477200    300.11326   -1166.2434    6389.0845    11634.301    1939.9519 
  477300    296.39725    -1158.139     6460.336    11634.269     1939.095 
  477400    300.17094   -1158.8766    6380.4759    11634.291    1904.2992 
  477500    299.60606   -1160.3179    6394.0052    11634.311    1900.9422 
  477600    299.63484   -1160.6689    6393.6367    11634.206     1880.399 
  477700    297.39435   -1165.3006    6446.2156    11634.289    1933.8723 
  477800    297.69433   -1161.4812    6435.9787     11634.28    1846.7058 
  477900    297.95763   -1161.5279    6430.3852    11634.265    1858.2736 
  478000    301.46839   -1164.5259    6358.3807    11634.264    1884.6545 
  478100    300.39818   -1163.6806    6380.2558    11634.121    1844.0341 
  478200    294.54058   -1160.0803    6501.9467    11634.274    1931.4272 
  478300    302.61457   -1156.6677    6325.9679    11634.196    1931.3194 
  478400    295.04256   -1157.8001    6488.8905    11634.222    1878.3334 
  478500    300.79817   -1160.9141    6369.0775    11634.255    1868.0532 
  478600    298.73755     -1156.32    6408.4259    11634.175    1903.8722 
  478700    300.54464    -1166.871    6380.4914    11634.296    1854.2024 
  478800    297.56547   -1163.4889    6440.8045    11634.345     1868.383 
  478900    300.06127   -1164.7182    6388.7447    11634.375    1886.6865 
  479000    298.45884   -1167.6818    6425.9472    11634.381    1876.7961 
  479100    301.98319   -1165.7794    6348.7826    11634.411    1826.7803 
  479200    299.34563   -1163.9984    6403.3437    11634.405    1867.2011 
  479300    298.09826   -1162.1128    6428.1132    11634.412    1893.5052 
  479400    298.83751   -1161.6086    6411.8009    11634.397    1862.9867 
  479500    301.23072   -1166.2549    6365.3376    11634.415    1936.1195 
  479600    300.97572   -1164.5797    6369.1157    11634.421    1947.8499 
  479700    295.91734   -1161.4679    6473.9545    11634.307    1865.2973 
  479800    297.34987   -1164.4725    6446.3632    11634.314     1853.631 
  479900    302.89102   -1171.7375       6335.3    11634.364    1858.6467 
  480000    299.28493   -1168.4398     6408.985    11634.309    1859.7119 
  480100    296.20893   -1168.6286    6474.9381    11634.359    1908.0048 
  480200    297.81148   -1163.5357    6435.6637    11634.413    1944.6903 
  480300    299.92264   -1163.6284    6390.5228    11634.281    1898.1438 
  480400    296.12907   -1160.2505    6468.1554    11634.248    1915.6443 
  480500    300.54054   -1156.8172    6370.4015    11634.172    1878.7835 
  480600    298.66878   -1162.2454    6415.9068    11634.262    1908.2222 
  480700    301.62644   -1160.3246    6350.7914    11634.253    1877.4167 
  480800    295.00953   -1158.9714    6490.7466    11634.201    1870.0434 
  480900    297.58431   -1157.5301    6434.4284    11634.331     1858.243 
  481000    301.45248    -1161.475     6355.656    11634.251    1907.4147 
  481100     301.1317   -1158.4596    6359.4974    11634.255    1897.0491 
  481200    297.04058   -1161.6389    6450.0206    11634.198    1883.7858 
  481300    301.15985   -1153.2111    6353.5901    11634.197    1918.4754 
  481400    298.25763    -1156.903    6419.3373    11634.251    1897.7409 
  481500    297.01368   -1156.1429     6445.055    11634.154    1836.2975 
  481600    302.14387    -1161.487    6340.8078    11634.161    1888.9251 
  481700    298.16811   -1157.9491    6422.2523    11634.207    1921.7754 
  481800    300.58107   -1161.5472    6374.3433    11634.249    1884.7487 
  481900    295.46227   -1164.6777    6486.8882    11634.309    1951.0786 
  482000    299.00527   -1165.6324    6412.1503    11634.307    1938.1305 
  482100    299.35523   -1167.4042    6406.4558    11634.317    1905.5736 
  482200     300.6012   -1166.9412    6379.3953    11634.338    1878.7976 
  482300    296.34937    -1166.896    6470.2263     11634.38     1907.853 
  482400    299.71874    -1165.339    6396.7003    11634.392    1911.5716 
  482500    303.64076   -1167.6038    6315.1595    11634.375    1933.7881 
  482600    301.11763   -1167.6036    6369.1006    11634.413    1915.4356 
  482700    296.47773   -1166.1227    6466.8531    11634.522    1919.1311 
  482800    301.26348   -1169.8313    6368.2751    11634.476    1872.8013 
  482900    299.59679   -1175.0854    6409.1999     11634.54    1885.4293 
  483000    302.53018   -1173.6344    6345.0147    11634.474    1866.4802 
  483100    297.97853   -1171.2095    6439.9938    11634.638    1869.1418 
  483200    299.60256   -1172.2852    6406.3305    11634.594    1896.4756 
  483300    299.55962   -1167.0785    6401.9367     11634.49    1953.0803 
  483400    300.29051   -1160.1384    6379.3505    11634.458    1945.4281 
  483500    302.04137    -1160.591    6342.3977    11634.457    1919.8918 
  483600    301.76198   -1167.5552    6355.2985    11634.425    1943.3175 
  483700    298.61085   -1163.0753    6418.1976    11634.485    1948.7881 
  483800    301.62141   -1162.8551    6353.5333    11634.357     1833.686 
  483900    296.54568   -1163.9033    6463.0341    11634.374     1924.835 
  484000    300.62471   -1165.4631    6377.4377     11634.36    1916.1351 
  484100    297.86342   -1160.0571    6430.8582    11634.196    1926.8542 
  484200    297.77211   -1159.2614    6431.9714    11634.154    1942.3024 
  484300    299.74998   -1158.6778    6389.1315    11634.152    1844.0382 
  484400    294.16451   -1152.7561    6502.4245    11634.042    1820.6603 
  484500    302.38814   -1152.5394    6326.5037    11634.023     1867.129 
  484600    300.92132   -1151.4812     6356.859      11634.1    1919.5295 
  484700    296.61139   -1154.8597    6452.2736    11634.061    1938.4983 
  484800    297.98959   -1155.4951    6423.4985    11634.094    1933.1075 
  484900    296.58712   -1156.1903    6454.1609    11634.099    1942.6198 
  485000    297.85348   -1155.8741    6426.8036    11634.112    1883.2769 
  485100    299.14058   -1156.4684    6399.8718    11634.083    1870.9697 
  485200     296.5338   -1158.1508    6457.3373    11634.176    1935.0873 
  485300    298.72759   -1160.3432    6412.6547    11634.168    1882.2683 
  485400    298.17112   -1161.7147    6425.9126    11634.166    1866.2703 
  485500    298.33216   -1155.1957    6416.0774     11634.29    1903.9722 
  485600    296.20134   -1164.2581    6470.7013     11634.33    1933.7144 
  485700    303.31995   -1162.2431    6316.6013    11634.324    1816.3228 
  485800     299.4997    -1172.633     6408.643    11634.361      1839.88 
  485900     296.6235   -1171.1065     6468.684    11634.484    1905.8468 
  486000    302.69818   -1172.9406    6340.6343    11634.376     1850.173 
  486100    296.94977   -1174.1558    6464.7072    11634.428     1900.013 
  486200    302.44291   -1169.1918    6342.4899    11634.527    1909.0206 
  486300    299.77524    -1166.986    6397.2513    11634.503    1880.4334 
  486400    298.86985   -1169.8499     6419.428    11634.474    1882.7235 
  486500    300.74025   -1175.9686    6385.6944     11634.58    1924.3821 
  486600    299.93771   -1165.5108    6392.3696    11634.568    1894.0139 
  486700    301.91935   -1168.5757    6353.0878    11634.556    1891.3277 
  486800    298.24267   -1166.3361    6429.4034    11634.564    1957.3579 
  486900    303.23021   -1172.0715    6328.5743    11634.551    1839.8419 
  487000    299.70324     -1177.67    6409.4841    11634.514    1806.5982 
  487100    299.60509   -1167.8608    6401.7153    11634.458    1869.7325 
  487200    298.10281   -1161.4661    6427.2704    11634.313    1841.7905 
  487300    301.41073   -1162.4785    6357.6591    11634.358    1860.8305 
  487400    295.45721   -1165.1757    6487.5289    11634.343    1967.1241 
  487500    300.23718   -1160.4851    6380.6284     11634.25    1884.0921 
  487600    300.13392   -1156.8856    6379.2203    11634.235    1841.1733 
  487700    296.23967    -1160.941    6466.3575    11634.122    1900.8576 
  487800    295.46015   -1156.1118    6478.1666    11634.107    1874.6399 
  487900    298.66446   -1157.2147    6410.7655    11634.059    1831.1728 
  488000    300.31713   -1153.5421    6371.7546    11634.027    1830.4338 
  488100    298.25439   -1154.7504    6417.1013    11634.098    1839.5137 
  488200    298.67851   -1152.9852    6406.2146    11634.037    1814.3931 
  488300    297.61601   -1149.5316    6425.3817     11633.96     1861.393 
  488400    299.79635   -1158.3006    6387.5999    11633.988    1847.0132 
  488500    297.50123   -1154.8756    6433.2966    11634.078    1905.3751 
  488600     299.3827    -1157.096    6395.3175    11634.073    1877.6623 
  488700    297.97369   -1157.3111    6425.7072    11634.147    1861.4761 
  488800    301.94826   -1159.5386    6342.9841    11634.107     1829.023 
  488900    296.97712   -1155.6244    6445.4544    11634.291    1848.4747 
  489000    300.82795   -1161.8702    6369.4474    11634.305    1917.0788 
  489100    299.71568   -1158.9737    6390.2594    11634.251    1906.7185 
  489200    299.39191   -1157.8527    6396.0962    11634.292    1837.5535 
  489300    297.95965   -1161.3725    6430.3025    11634.381    1856.1124 
  489400    300.16186   -1166.8325    6388.7604    11634.425    1935.5888 
  489500    299.97578    -1167.127    6392.9751     11634.37    1963.3225 
  489600    300.07061   -1167.4426     6391.285    11634.391     1900.251 
  489700    301.89242   -1169.2648    6354.2615    11634.465    1933.7119 
  489800    297.84578   -1166.1868    6437.6484     11634.48    1919.4827 
  489900    298.34747    -1167.172    6427.8884    11634.452    1836.5007 
  490000      302.726   -1166.6054    6333.7405    11634.412    1852.7721 
  490100    298.82604   -1174.4396     6424.949    11634.469    1949.8432 
  490200    298.17597   -1172.8983    6437.3166     11634.49    1905.0321 
  490300    301.02014   -1164.1754    6367.7398    11634.398     1821.472 
  490400    299.88701   -1166.6157      6394.32     11634.33    1871.5934 
  490500      300.519   -1164.4033    6378.6387    11634.363    1897.0773 
  490600    294.95424   -1159.9053    6492.9968    11634.336    1953.1356 
  490700    299.03678   -1164.2047    6410.0564    11634.314    1930.9376 
  490800    299.22523   -1160.5845    6402.3021    11634.205    1832.6635 
  490900    300.20774   -1161.2092    6382.1203    11634.389    1885.9701 
  491000    298.80716   -1161.2615    6411.9114    11634.206    1903.8985 
  491100    300.70205   -1163.7506    6373.8727     11634.16    1869.9283 
  491200    301.53515    -1162.574    6354.9286     11634.19    1887.3349 
  491300    299.10258   -1161.5584    6405.9408     11634.25    1853.5551 
  491400    299.23715   -1161.7974     6403.259    11634.204    1853.6974 
  491500    295.79437   -1155.9693    6470.9159    11634.139    1918.7014 
  491600    299.76796    -1158.735    6388.8739    11634.221    1936.1589 
  491700    296.75836   -1154.7164    6449.1312    11634.202    1890.6072 
  491800    296.01635   -1151.8586    6462.0785    11634.155    1980.4248 
  491900    298.52344   -1154.5935    6411.2424    11634.144    1989.1974 
  492000     301.4674   -1156.6667    6350.4986     11634.22    1904.5674 
  492100    299.06771   -1165.1368    6410.2864    11634.272    1790.7191 
  492200    299.50976   -1163.5051    6399.1764    11634.238    1814.6163 
  492300    296.22156   -1162.2223    6468.2573    11634.354    1900.0794 
  492400    300.02676   -1164.8041    6389.3956    11634.203     1897.942 
  492500     300.2018   -1156.1648    6377.0082    11634.194    1905.8811 
  492600    296.27415   -1161.9369     6466.729    11634.235    1956.7791 
  492700    303.73225   -1162.8216    6308.2766    11634.229    1877.3862 
  492800    297.22695   -1154.5266    6439.0052    11634.276    1884.6693 
  492900    299.81224    -1165.814    6395.0157     11634.23     1837.604 
  493000    302.87364   -1165.1801    6329.1286    11634.379    1873.4273 
  493100    297.07433   -1168.8182    6456.6359    11634.355    1878.7535 
  493200    297.95372   -1173.0566    6442.0856    11634.353    1862.2713 
  493300    298.33994   -1161.5635    6422.3313    11634.343     1916.836 
  493400    299.03399   -1160.4547     6406.353    11634.301    1881.1236 
  493500    303.06193   -1164.6622    6324.5328    11634.324    1867.8434 
  493600    299.00047   -1159.6244    6406.2149    11634.277    1883.4096 
  493700    296.80111   -1161.0265    6454.5716    11634.245    1850.7673 
  493800    299.05002   -1159.2097    6404.8061    11634.341    1824.3214 
  493900     301.2214   -1166.3239    6365.5317    11634.341    1861.3909 
  494000    299.19012   -1168.8828    6411.4463    11634.301    1885.1861 
  494100    295.57736   -1164.6748    6484.3456    11634.228    1872.4997 
  494200    300.81257   -1164.1811    6372.0575    11634.275    1863.8767 
  494300    295.64675   -1168.7957    6487.1041    11634.348    1884.1761 
  494400    295.89115   -1160.8108    6473.8044    11634.254    1833.4887 
  494500    302.25913   -1158.0243    6335.0101    11634.288     1895.716 
  494600    297.83156   -1154.8065     6426.364    11634.272    1912.5575 
  494700    297.03077   -1155.0355    6443.6269    11634.198    1920.4117 
  494800    300.39488   -1154.6225      6371.44    11634.293    1993.4504 
  494900    298.39661   -1160.7806    6420.3005    11634.306    1917.3904 
  495000    299.04179   -1163.4919    6409.1816    11634.259    1841.3179 
  495100    298.60561   -1165.6395    6420.6686     11634.28    1888.8244 
  495200    297.83579   -1165.4899    6436.9145    11634.229    1871.8577 
  495300    298.74038   -1165.8277     6418.006    11634.308    1887.8875 
  495400     301.0343    -1163.847    6366.9327    11634.222    1928.9567 
  495500    297.74014   -1155.5766    6428.9697    11634.154    1933.2106 
  495600    299.42758   -1149.0372     6386.375    11634.149    1938.9503 
  495700    300.96238   -1160.0597    6364.6327    11634.173    1944.2204 
  495800    299.79101   -1158.4486    6387.9509    11634.077    1897.8494 
  495900    297.11166   -1161.6322    6448.4487    11634.151    1938.3217 
  496000    299.09172   -1168.5704    6413.0797    11634.145    1904.7851 
  496100    298.97862   -1164.5244    6411.5745    11634.269     1893.096 
  496200    293.41825   -1162.1389    6527.9403    11634.232    1901.1171 
  496300    300.96523   -1161.8458    6366.2773    11634.092    1854.8387 
  496400    299.82252   -1157.1806    6386.1136    11634.181    1845.2218 
  496500     300.3926   -1157.4286    6374.1283    11634.127    1890.6141 
  496600    298.07123   -1155.4553    6421.7921    11634.171    1881.5605 
  496700    297.16218   -1160.3595    6446.1361    11634.191    1897.8324 
  496800    297.28765   -1157.7684    6440.8831    11634.209     1878.211 
  496900    299.30022   -1160.3198    6400.4222    11634.192    1900.6677 
  497000    300.14009   -1164.0628    6386.2753    11634.245    1905.9032 
  497100    295.08844   -1157.1245    6487.2379    11634.225    1889.1105 
  497200    298.81167    -1162.382    6413.0546    11634.325    1928.3032 
  497300    298.36024   -1161.2196    6421.4702    11634.259    1905.3966 
  497400    299.29048   -1165.2735    6405.7138    11634.322    1862.0237 
  497500     298.1005   -1162.5409    6428.3284    11634.247    1940.3911 
  497600    301.09797   -1166.2005    6368.0034    11634.299    1960.2772 
  497700    299.58477   -1161.1093    6395.2428    11634.303    1964.1403 
  497800    299.95328   -1159.0569    6385.3625    11634.347    1867.1925 
  497900    294.53541   -1158.5736    6500.6788    11634.402    1928.0835 
  498000    300.64587   -1170.9141    6382.5191    11634.443    1919.3402 
  498100    298.57646   -1166.3017    6422.1286    11634.455    1872.5282 
  498200    295.70261   -1169.0581     6486.226      11634.4    1864.6082 
  498300    303.48068   -1165.6045    6316.6381    11634.433    1845.9541 
  498400    297.06177    -1166.272    6454.4479    11634.445    1874.3344 
  498500    300.30121   -1168.0898    6386.9996    11634.384    1881.9248 
  498600    300.01359   -1161.6813     6386.668    11634.317    1926.6087 
  498700    302.30035   -1161.9731    6338.0816    11634.292    1944.9525 
  498800    299.11469    -1162.101    6406.2812    11634.307    1876.5215 
  498900    296.97547   -1163.0423    6452.8935    11634.276    1846.4349 
  499000    298.71214   -1161.3355    6414.0502    11634.241    1848.2213 
  499100     301.4279   -1164.6595    6359.4256    11634.311     1866.216 
  499200    299.32004   -1167.9849    6407.7718      11634.3    1878.2878 
  499300    299.06395   -1163.7353    6408.9817    11634.289    1885.0077 
  499400      299.796   -1162.5959    6392.0456    11634.131    1900.0801 
  499500    300.16504   -1159.5212    6381.0396    11634.084    1924.1483 
  499600    298.49581   -1157.8854    6415.1104     11634.13    1960.4513 
  499700    301.88237    -1157.144    6341.9684    11634.078    1949.3529 
  499800    300.92466    -1156.112    6361.3362    11634.018    1953.0624 
  499900    293.23336   -1154.7374    6524.3422    11634.086    1952.0754 
  500000    299.84638   -1157.0016     6385.378    11634.134    1909.8013 
  500100    295.91715   -1157.9722    6470.3054    11634.149    1953.7967 
  500200    302.30695    -1162.528    6338.3073    11634.103    1945.0052 
  500300    297.39879   -1160.8523    6441.5237     11634.14    1995.7989 
  500400    298.79554   -1159.9084    6410.7709    11634.171    1947.5565 
  500500    300.05443   -1161.9448    6385.9978    11634.255     1964.695 
  500600     297.6263   -1158.2482     6434.096    11634.177     1959.977 
  500700    297.42924   -1160.0272    6440.1018    11634.194    1866.4642 
  500800     300.6849   -1158.1562    6368.6861    11634.201    1890.9922 
  500900    301.74514   -1158.2297    6346.1426    11634.235    2005.3682 
  501000     299.1818   -1165.8052    6408.5324    11634.287    1972.5058 
  501100    297.33317   -1161.6382    6443.8643    11634.293    1929.6975 
  501200    299.25013   -1167.7365    6409.0464     11634.33    1933.9435 
  501300    299.48108   -1167.7077    6404.1843     11634.43    1969.5577 
  501400    302.79399   -1172.4234    6338.0106    11634.316    1928.4908 
  501500    299.34871   -1165.1247    6404.4103    11634.412    1994.1023 
  501600    298.09527   -1169.8649    6436.0002    11634.483    1913.5851 
  501700     300.5392   -1171.9226    6385.7943    11634.431    1879.3747 
  501800    297.75202   -1169.0384    6442.4797    11634.456    1915.6705 
  501900    296.31956    -1170.979    6475.0069    11634.441    1909.4183 
  502000     299.9934   -1168.8606    6394.3714     11634.41    1932.3274 
  502100    299.56071   -1161.1268     6395.918    11634.446    1929.8061 
  502200    298.90811   -1162.0853    6410.6667    11634.294    1934.2973 
  502300    299.77484    -1170.399    6400.5489    11634.379    1933.3161 
  502400    295.45458   -1168.1916    6490.6874     11634.43    1967.1533 
  502500    300.25543   -1170.3113    6390.1245     11634.31     1889.124 
  502600    297.85896   -1167.5333    6438.4574    11634.224    1894.5405 
  502700    299.78893   -1163.0736    6392.8066    11634.263    1948.2515 
  502800    300.36184   -1157.5221     6374.973    11634.221    1923.6997 
  502900    300.09076   -1156.9935    6380.0898    11634.075    1891.3976 
  503000    299.45645   -1156.8844    6393.5838    11634.127    1914.4631 
  503100    298.54128   -1157.4054     6413.642    11634.113    1979.0513 
  503200    299.55526    -1161.314    6395.8645    11634.089    1871.2869 
  503300    298.08786    -1153.611    6419.5065    11634.085    1915.3365 
  503400    300.03868   -1158.0854    6382.2744    11634.055     1927.256 
  503500    300.82437   -1150.4143    6357.8682    11634.105     1885.493 
  503600    297.35299   -1160.4784    6442.1105    11634.122    1915.3895 
  503700    299.80778   -1159.2496    6388.4144    11634.098    1858.2657 
  503800    296.70279   -1159.1433    6454.6358    11634.092    1881.8271 
  503900    300.58234   -1157.6793    6370.2824    11634.084    1872.9576 
  504000    296.96197   -1156.6073    6446.6552    11634.185    1978.4789 
  504100     300.4731   -1157.8257    6372.8908    11634.212    1940.6968 
  504200    298.53359   -1151.4543    6407.9524     11634.21    1921.2417 
  504300    299.26363   -1164.2272    6405.2319    11634.313    1886.1668 
  504400    301.27883   -1166.2448    6364.1728    11634.288    1953.0539 
  504500    297.84863   -1167.5876    6438.8206    11634.312    1941.3416 
  504600     297.4481   -1163.2711     6443.179     11634.43    1948.5557 
  504700    301.22712   -1168.8716    6368.0403    11634.424    1929.1854 
  504800     298.4255   -1159.2784    6418.3033    11634.428    1906.2182 
  504900    302.84118   -1165.8997    6330.6143    11634.452    1929.7907 
  505000     297.2935   -1171.1822    6454.4445    11634.482    1929.3475 
  505100    298.99441   -1175.7939    6422.8097    11634.573    1880.1957 
  505200    297.51558   -1169.6073    6448.1712    11634.528    1933.0074 
  505300    298.97373   -1163.4443    6410.7278    11634.399    1946.8808 
  505400    300.38037   -1165.3908    6382.6303    11634.405     1936.444 
  505500    302.82562   -1168.8459    6333.8207    11634.379    1939.7331 
  505600    301.80829   -1172.8969    6359.7105    11634.485    2005.8398 
  505700    298.26441   -1165.1215    6427.6242    11634.464    1943.6111 
  505800    297.59627   -1166.7805    6443.5023     11634.41    1898.8292 
  505900    296.48142   -1169.3495    6469.9602    11634.481    1916.4828 
  506000    300.37378   -1168.6409    6386.0413    11634.425    1852.2262 
  506100    297.80859   -1165.4097    6437.5143    11634.328    1814.6556 
  506200    296.44121   -1162.3047    6463.6323    11634.339    1934.8283 
  506300    298.56163   -1159.3377    6415.2936    11634.267    2008.3781 
  506400    299.79527   -1162.9905     6392.637    11634.312      1980.47 
  506500    295.11091   -1154.7989    6484.4068      11634.2    1930.7942 
  506600    298.91181   -1159.1956    6407.5673    11634.164    1852.5137 
  506700    299.08478   -1157.9981     6402.697    11634.186    1901.6557 
  506800      299.021   -1161.8182    6407.8219    11634.129    1900.6701 
  506900    301.31145   -1158.3479    6355.5264    11634.235    1872.8488 
  507000    294.35461   -1160.4494    6506.2223    11634.208    1858.3047 
  507100    301.13791   -1158.8808    6359.6994    11634.168    1814.6706 
  507200    297.70359   -1156.5604    6430.8224    11634.242    1928.2573 
  507300    299.18809    -1159.534    6402.0212    11634.182    1917.8886 
  507400     298.3675   -1158.8104    6418.8464      11634.2    1885.6213 
  507500    299.40449   -1158.4001    6396.3144    11634.232     1921.044 
  507600    301.84193    -1164.677    6350.5047    11634.218    1892.1744 
  507700    299.80382   -1163.8502    6393.3893    11634.388    1853.5153 
  507800    294.93569   -1153.5443    6487.0365    11634.341    1892.9558 
  507900    302.29327    -1158.467    6334.7363    11634.301    1922.1908 
  508000    298.92088   -1161.5612    6409.9887    11634.413    1950.0419 
  508100    300.05087   -1167.7549     6392.113    11634.485    1886.8241 
  508200    298.33463   -1163.6141    6424.6462    11634.494    1880.2127 
  508300    302.89548   -1162.8885    6326.3885    11634.397    1818.5394 
  508400    297.43588   -1172.6072    6452.8692    11634.523    1888.4002 
  508500    299.89704    -1171.115    6398.7714    11634.497    1937.5828 
  508600    299.90639   -1166.6276    6394.0294    11634.442    1850.0859 
  508700     299.9229   -1166.9063    6393.9531    11634.439    1814.5991 
  508800    297.70951   -1171.9393    6446.3225     11634.49    1892.2508 
  508900    298.82122   -1162.6444      6413.31    11634.523    1948.7683 
  509000    298.30859   -1166.4011    6427.9019    11634.406    1941.1003 
  509100    298.10107   -1171.4286    6437.3009    11634.344    1947.9688 
  509200    299.55926   -1166.6633    6401.4995     11634.46    1948.4957 
  509300    298.97912   -1165.0364    6412.1314    11634.325    1876.6496 
  509400    301.25289   -1164.0274     6362.434    11634.212    1867.3463 
  509500    300.65929   -1157.8331     6368.961    11634.252    1934.2853 
  509600    300.02452   -1162.1436    6386.8699     11634.29    1926.3543 
  509700    298.13744   -1164.1623     6429.145    11634.232    1920.6321 
  509800    300.03549   -1161.9124    6386.3959    11634.281    1908.3748 
  509900    295.99675   -1164.2925    6475.1112    11634.335     1880.328 
  510000    298.63129   -1155.1508    6409.5674    11634.216    1879.8126 
  510100    300.07878   -1160.8972    6384.4252    11634.251    2031.8395 
  510200    302.43985   -1157.9807    6330.9916    11634.174     1925.482 
  510300    295.22261   -1157.4852    6484.7366     11634.23     1862.743 
  510400    304.34329   -1156.9977    6289.3863    11634.216    1885.9901 
  510500    297.67679   -1156.9488    6431.7966    11634.256    1926.7101 
  510600    301.78592   -1160.2644    6347.3461    11634.275    1897.8943 
  510700    299.24513   -1156.8346    6398.2659    11634.344    1915.8332 
  510800    297.66683   -1161.2183    6436.3431     11634.32    1922.3302 
  510900    299.43574   -1164.1622    6401.5263    11634.349    1925.9437 
  511000     299.6964   -1166.9397    6398.6529    11634.267    1890.5729 
  511100    297.66295   -1161.9706    6437.2604    11634.402    1927.1767 
  511200    301.80561   -1165.9457    6352.6673    11634.335    1923.7829 
  511300    299.25318   -1165.1724    6406.4135    11634.326    1961.2425 
  511400    297.55378   -1165.1419     6442.766    11634.404    1887.2126 
  511500    297.36019   -1168.9679    6450.7312    11634.408    1913.7783 
  511600    300.42891   -1170.3406    6386.5003    11634.362    1893.1731 
  511700    299.65469   -1170.0016    6402.6993    11634.361    1948.1531 
  511800    299.98213   -1167.6056    6393.4671    11634.519    1958.2675 
  511900    296.64486     -1167.18    6464.2941    11634.476    1878.8903 
  512000    300.83419   -1169.7655    6377.3793    11634.475    1867.9701 
  512100    296.18445   -1167.2078    6474.2432    11634.562    1939.4743 
  512200    298.87093   -1174.3539    6424.0007    11634.566    1860.2431 
  512300     300.1376   -1162.7898    6385.3451    11634.535    1886.6257 
  512400    298.13015   -1168.0326    6433.4972    11634.558    1904.3837 
  512500    300.22836   -1170.6813    6391.3297    11634.567    1926.3305 
  512600    300.10409   -1162.3326    6385.5437    11634.475    1934.3538 
  512700    304.25281   -1168.5125    6302.9909    11634.373    1854.0662 
  512800    294.41506   -1161.7251    6506.3495     11634.35    1929.8821 
  512900    302.35112   -1164.6434    6339.7647    11634.389    1928.6915 
  513000     297.1485   -1162.3516    6448.5709    11634.341    1939.1795 
  513100    297.76595   -1161.7658    6434.7393    11634.286    1893.6582 
  513200    301.20654   -1163.6291    6363.0543    11634.241    1849.6489 
  513300     296.7105   -1161.0302    6456.4519    11634.186    1867.6255 
  513400     298.6623   -1158.4999    6412.2373    11634.199     1886.581 
  513500     297.9935   -1159.8558    6427.8668    11634.185    1916.1858 
  513600    303.02287   -1155.9092    6316.3445    11634.054    1866.3166 
  513700    298.88564   -1153.9968    6402.8901    11634.126    1821.2006 
  513800     300.9732   -1156.5359    6360.8474    11634.142    1814.0521 
  513900    299.75488   -1156.2003    6386.5862    11634.189     1881.531 
  514000    297.22645   -1156.0608    6440.4669    11634.193    1897.7658 
  514100     296.9235    -1156.231    6447.1017    11634.186    1847.1057 
  514200    298.86831   -1163.8324    6413.1829    11634.213    1866.0566 
  514300    299.79546   -1163.9682     6393.515    11634.217    1883.1987 
  514400    297.63967   -1165.4732     6441.171    11634.313     1878.961 
  514500    301.75793   -1162.5328     6350.281    11634.343    1761.1381 
  514600    295.83278    -1168.991    6483.3391    11634.361    1779.7108 
  514700    298.49079   -1165.1145    6422.6157    11634.299    1886.2918 
  514800    302.63247   -1166.0174    6335.0948    11634.356    1832.3662 
  514900    299.60151   -1163.5306    6397.4028    11634.399    1845.8333 
  515000    299.52832   -1165.6473    6401.0647     11634.38    1837.2724 
  515100    300.60536    -1159.659    6372.1305    11634.444    1890.1801 
  515200     304.1699   -1166.1758    6302.5739    11634.521    1903.3132 
  515300    298.53926    -1170.865     6427.527    11634.495    1848.6083 
  515400    297.07462   -1170.0101    6457.9503    11634.484    1908.4099 
  515500    300.78085   -1176.6523    6385.3396    11634.409    1889.6052 
  515600    297.78152   -1172.6283    6445.4723    11634.489    1950.1229 
  515700    300.64642   -1174.0519    6385.7099    11634.508    1891.2309 
  515800    297.50063   -1165.7165    6444.5797    11634.508    1917.4169 
  515900    298.96278   -1162.0863    6409.5858    11634.381    1912.3895 
  516000    299.57456    -1164.771    6399.2755    11634.455    1929.4316 
  516100    299.33943   -1166.8078    6406.2192    11634.339    1883.9878 
  516200    300.51033   -1159.4324    6373.7744    11634.284    1796.3799 
  516300    298.63472   -1163.0416    6417.5396    11634.371    1855.8503 
  516400    299.71919   -1167.1261    6398.3963    11634.311     1848.064 
  516500     299.7873   -1168.2239    6398.0672    11634.339     1843.977 
  516600    298.18748   -1163.6981    6427.6527    11634.273    1850.8487 
  516700    301.74727   -1158.5247     6346.373    11634.216    1875.5412 
  516800    300.18064   -1157.0228    6378.3122    11634.188    1871.8184 
  516900    298.09786   -1157.9475    6423.7002    11634.156    1869.8244 
  517000    297.19047   -1155.8275    6440.9711    11634.162    1854.9483 
  517100    299.95504   -1158.8639    6384.8968    11634.112    1844.9431 
  517200    295.97249   -1158.7814    6469.9193    11634.136    1859.3424 
  517300    301.52293     -1159.65    6352.1915    11634.116    1842.0335 
  517400    296.62179    -1157.339    6454.6386    11634.169    1876.9886 
  517500    298.64517   -1160.9262    6415.0079    11634.178    1854.7967 
  517600    302.38686   -1161.4608    6335.6059    11634.177    1819.3091 
  517700     296.0049   -1160.5198    6470.9974    11634.168    1898.6129 
  517800    300.37719   -1161.1768      6378.26    11634.181    1854.7936 
  517900    300.76514   -1158.2854    6367.0929    11634.193    1834.6328 
  518000     295.5794    -1166.084     6485.748    11634.264    1892.7782 
  518100    301.62328   -1166.9285    6357.5488    11634.339    1846.8526 
  518200    298.46154   -1162.9784     6421.042    11634.236    1841.5757 
  518300    301.69708   -1156.6569    6345.6966    11634.335    1918.9443 
  518400    299.14458   -1162.5799    6406.1791    11634.364    1917.2559 
  518500    296.37883   -1165.8828    6468.5969    11634.393    1881.1434 
  518600    303.05307   -1170.9398    6331.1613    11634.485    1839.6954 
  518700    300.49585   -1172.0315    6386.9173    11634.519     1909.906 
  518800    298.52845   -1170.7994    6427.6818    11634.485    1917.2783 
  518900     299.5879   -1171.0791    6405.4032     11634.56    1813.7736 
  519000    299.55739   -1171.9271    6406.8145    11634.471    1822.1381 
  519100    301.78524   -1169.8214    6357.1686    11634.526    1881.8346 
  519200    299.01036   -1166.7201    6413.3035    11634.481    1906.3984 
  519300    297.96766   -1160.0758    6428.8528    11634.399    1891.1211 
  519400    298.94832   -1156.9299    6404.7171    11634.359     1891.391 
  519500    298.51848   -1160.3838    6417.3645     11634.37    1879.6939 
  519600    298.70724   -1167.3605    6420.2775    11634.339     1896.185 
  519700    298.93561   -1165.4802    6413.4623    11634.283    1894.7309 
  519800    298.26981   -1166.5007    6428.7716    11634.348    1907.9447 
  519900     300.5946   -1163.1343    6375.6955    11634.304    1862.4928 
  520000    298.65811   -1161.9419    6415.8839    11634.314    1906.2517 
  520100    297.55562   -1156.8001     6434.234    11634.253    1856.8607 
  520200    295.79584   -1159.9774     6475.022    11634.269    1902.0562 
  520300     300.1562   -1161.7522    6383.6463    11634.271    1853.0919 
  520400     296.3545   -1152.9361    6455.9403    11634.163    1943.0437 
  520500    300.42027   -1158.6643    6374.8136    11634.168    1895.3606 
  520600    297.61707   -1152.3865    6428.4522    11634.198    1886.7538 
  520700    299.53076   -1157.4863    6392.7421    11634.271    1939.2488 
  520800    301.70242   -1158.0567    6346.9029    11634.255    1889.6042 
  520900     294.4315   -1159.2246    6503.3892    11634.242     1930.937 
  521000     300.2909   -1166.6521     6385.693    11634.295    1910.2636 
  521100    297.11858   -1160.3611     6447.216    11634.337    1958.9214 
  521200    300.82254   -1156.6815    6364.3227    11634.253    1892.0065 
  521300     296.8193    -1156.522    6449.8022    11634.369    1923.3877 
  521400      298.939   -1159.3732    6407.3845    11634.384    1868.3375 
  521500    298.13068   -1157.1066    6422.3558    11634.354    1888.5029 
  521600    302.01802   -1157.4251    6339.5999    11634.326    1878.2421 
  521700    297.45212   -1159.2103    6438.9665    11634.364    1927.7856 
  521800    299.00936   -1169.6725    6416.1824    11634.386     1901.623 
  521900    296.44622   -1167.6735    6468.9489    11634.394    1883.0241 
  522000    300.12414   -1166.5462    6389.3243     11634.47    1893.0896 
  522100    298.22473   -1167.4026    6430.7626    11634.474    1921.5686 
  522200    300.58369   -1166.9634    6379.8973    11634.443    1922.3803 
  522300    301.67932   -1165.7621    6355.2867     11634.44    1882.4619 
  522400    297.27317   -1166.1443    6449.7987     11634.44    1888.1556 
  522500    298.78105   -1162.4285    6413.7767    11634.347    1966.9365 
  522600    300.48229    -1158.544    6373.5134    11634.313    1940.7028 
  522700    299.18308   -1167.0042    6409.7948    11634.378    1896.5305 
  522800    300.33694   -1163.9927    6382.0882    11634.333    1879.3416 
  522900    302.64924   -1164.3336    6333.0819    11634.385    1902.9177 
  523000    296.68887   -1170.2385    6466.2605    11634.324     1897.661 
  523100    295.56714    -1167.004    6487.0419    11634.376    1893.2315 
  523200    299.60022   -1167.6978      6401.47    11634.271    1837.5453 
  523300     299.9199   -1161.1508    6388.0614    11634.239    1885.9155 
  523400    299.90479   -1159.2434    6386.5206    11634.283    1891.5316 
  523500    300.08286   -1156.2037    6379.5606    11634.167    1955.2998 
  523600    299.85125   -1158.5775    6386.9212    11634.205    1937.4126 
  523700    297.83235   -1161.1017    6432.6348    11634.264    1953.0962 
  523800    300.08601   -1164.3238    6387.7113    11634.265    1900.3074 
  523900    295.19814   -1163.6743    6491.4818    11634.263     1893.776 
  524000    299.59265   -1161.6442     6395.581    11634.274    1854.1912 
  524100     299.0933   -1166.2078    6410.7807    11634.242     1916.906 
  524200    302.28632   -1162.4556    6338.8368    11634.264    1853.6852 
  524300    297.66965   -1155.9832    6431.0621    11634.334    1883.4729 
  524400    298.29092   -1159.9533    6421.6909    11634.265    1930.0102 
  524500    298.41291   -1160.0574    6419.2222    11634.299    1991.6071 
  524600    299.64709   -1163.8797    6396.6145    11634.235    2002.9166 
  524700    299.01695   -1162.3916    6408.6134     11634.26    1950.3494 
  524800    295.39065   -1163.8327    6487.5089    11634.244    1899.5983 
  524900    297.35527   -1159.2983    6441.1009    11634.342    1846.5093 
  525000      303.931   -1165.6836    6307.0073    11634.343    1832.4016 
  525100    296.30852   -1157.8752    6462.1531    11634.455    1919.5673 
  525200    297.62113   -1167.2775    6443.3586      11634.3    1911.6522 
  525300    304.44361   -1167.5751    6297.9067    11634.302    1849.0944 
  525400     296.4847    -1164.949    6465.3511    11634.343    1913.2076 
  525500     296.8374   -1165.5664    6458.3814    11634.291    1892.1542 
  525600    298.81606   -1165.0732    6415.6746    11634.348    1958.4338 
  525700     301.2815   -1162.8639    6360.6917    11634.245    1915.8297 
  525800    300.97641   -1159.2063    6363.5902    11634.283    1831.8951 
  525900    297.97666   -1163.1518    6431.6698    11634.332    1872.6249 
  526000    297.99597   -1165.8971      6433.96    11634.289    1859.8574 
  526100    301.21127   -1170.8973    6370.3451    11634.364     1877.947 
  526200    299.56555   -1163.8082    6398.3277    11634.278    1887.3424 
  526300    301.27382   -1165.0717    6363.1838    11634.365    1888.1848 
  526400    297.44022   -1167.1645    6447.2023    11634.392    1839.9262 
  526500    297.10703   -1164.0166    6451.1543    11634.373    1884.2549 
  526600    299.78672   -1162.8493    6392.6721    11634.306    1983.2352 
  526700    295.98649   -1163.9369    6474.9411    11634.301    1932.1894 
  526800     299.2927   -1157.4902    6397.8761    11634.315    1875.7643 
  526900    302.87886   -1168.7516    6332.5481    11634.339    1875.9113 
  527000    297.99129   -1165.9505    6434.2336     11634.41    1895.2353 
  527100    300.04511   -1156.9612    6381.3375     11634.38    1877.3604 
  527200    298.57642   -1159.7708    6415.5206    11634.377    1874.1805 
  527300    298.07353     -1164.39    6430.9036    11634.397    1934.5081 
  527400    299.34238   -1166.0501    6405.3968    11634.337    1904.4174 
  527500    302.42735   -1163.1635    6336.5155    11634.248    1848.3873 
  527600    296.47026   -1163.6599    6464.3196    11634.292    1890.9594 
  527700    299.76846   -1162.0542    6392.2445    11634.284     1842.975 
  527800    299.87388   -1161.3664    6389.3019    11634.281    1846.6789 
  527900    298.48975   -1161.8649    6419.3953    11634.306    1941.3387 
  528000    300.02434   -1161.9102    6386.6425    11634.292    1868.4898 
  528100    297.52055   -1164.2339    6442.4548    11634.291    1855.1791 
  528200    301.19631    -1164.925    6364.5994    11634.271    1839.0909 
  528300    297.49795    -1165.559    6444.2603    11634.289    1914.3167 
  528400     299.1966   -1160.5214     6402.972    11634.327    1881.7688 
  528500    299.48862    -1163.755    6400.0112    11634.371    1897.4622 
  528600    297.41778    -1153.601    6434.0452    11634.319    1916.9908 
  528700    296.87699   -1164.5137    6456.4796    11634.287    1960.8576 
  528800    300.21733   -1167.6721    6388.2594     11634.27    1931.7827 
  528900    302.06048   -1166.3571     6347.645    11634.347    1948.6022 
  529000    299.50903   -1167.8059    6403.6519    11634.397    1919.0062 
  529100    296.35369   -1167.3482    6470.6137    11634.407    1896.5606 
  529200    300.90026   -1170.9061    6377.0368    11634.403    1881.0982 
  529300     301.8002   -1169.9733    6356.8426    11634.368    1921.8503 
  529400     296.5281   -1166.9883    6466.4967    11634.376    1869.1989 
  529500    299.24072   -1163.1504    6404.7227    11634.391    1888.0181 
  529600    301.51223   -1166.3053    6359.4834    11634.524     2004.715 
  529700     297.9782   -1164.7768     6433.358    11634.428    1972.5847 
  529800    301.98008   -1166.0568    6349.1927    11634.477    1895.5018 
  529900    298.56263   -1168.4484    6424.6108    11634.495     1907.391 
  530000    298.73832   -1169.0138    6421.4575     11634.53    1940.2627 
  530100    298.89942   -1169.5122    6418.5261    11634.541    2035.2848 
  530200    297.98631   -1172.3548    6440.8034    11634.469    1947.8266 
  530300    298.53663   -1171.3805    6428.0408    11634.437    1912.5123 
  530400    298.54631   -1172.3925    6428.8946    11634.486    1968.1806 
  530500    300.74699    -1165.477    6374.7997    11634.321    1867.1265 
  530600    296.79631   -1166.7584    6460.4843    11634.324    1950.0112 
  530700    299.76358   -1163.4327    6393.7949    11634.351     1949.015 
  530800    300.51862     -1159.45    6373.6958    11634.365    1917.5384 
  530900    298.87007   -1166.2976    6415.6716    11634.274    1879.3979 
  531000     298.5892   -1168.3047    6423.6398    11634.235    1939.0638 
  531100    299.82244   -1167.7898    6396.8762    11634.333    1989.1994 
  531200    301.17102   -1169.9524    6370.2124    11634.317     1894.355 
  531300    298.19827   -1164.8247    6428.5214    11634.245    1906.5069 
  531400    299.71259   -1163.8706    6395.2166    11634.246     1942.596 
  531500    296.62924   -1163.5129    6460.7471    11634.263    1937.3776 
  531600    299.32432   -1166.2238    6405.7805    11634.161    1895.0705 
  531700    299.00849   -1157.1592    6403.4464    11634.145    1938.3053 
  531800    299.72276   -1157.7431    6388.8288    11634.203    1948.0884 
  531900    299.21452   -1165.0187    6406.9353    11634.176     1938.175 
  532000    298.19885   -1156.0175    6419.7134    11634.257    1868.4516 
  532100    301.09598   -1160.8278    6362.6116    11634.237    1806.6595 
  532200    298.71148   -1170.2917    6423.0844    11634.305    1841.8934 
  532300    301.28782    -1170.053    6367.7429    11634.242     1884.806 
  532400    296.17062   -1162.2984    6469.3416    11634.274    1898.6248 
  532500    300.56582   -1168.7521    6381.9199    11634.295    1951.4113 
  532600    298.27113   -1165.3153    6427.6027    11634.392    1929.7455 
  532700    301.99435   -1163.6217    6346.2784    11634.303    1865.7993 
  532800    297.24924   -1161.0463    6445.0891    11634.317    1937.1344 
  532900    300.06258   -1163.1139    6387.1025    11634.365    1882.1275 
  533000    297.51229   -1165.6259    6444.1729    11634.441    1885.5711 
  533100    301.24701   -1167.1836    6365.9817    11634.478    1933.9478 
  533200    300.07136   -1173.8995    6397.7616    11634.426    1829.2535 
  533300    300.73284   -1174.6281    6384.3839    11634.452    1797.4144 
  533400    299.79583   -1173.6996    6403.3899    11634.368    1865.7116 
  533500    303.28123   -1169.5904    6324.8205    11634.368    1815.3703 
  533600    299.51507   -1162.7669    6398.4022    11634.315    1862.0861 
  533700    303.33993   -1164.4123    6318.2824    11634.262    1882.9847 
  533800    298.16354   -1161.5412    6426.0993    11634.364     1908.403 
  533900    299.59308    -1166.228    6400.1725    11634.291    1835.4302 
  534000     295.6141   -1169.1292    6488.1801    11634.393    1862.0302 
  534100     299.4241   -1174.4848    6412.0998    11634.351    1887.5485 
  534200     304.3435    -1173.927    6306.4391    11634.344     1785.248 
  534300    298.55584   -1166.9054    6423.0543    11634.336    1850.0024 
  534400    299.40959   -1161.2143    6399.0244    11634.237    1889.8059 
  534500     297.8001   -1164.4152    6436.5642    11634.191    1928.3561 
  534600    298.89319   -1161.0133    6409.8556    11634.237    1916.3821 
  534700    298.88587   -1164.4219    6413.4499    11634.266    1947.4869 
  534800    300.43515   -1161.7088     6377.564    11634.191    1950.4933 
  534900    299.03288   -1158.1834    6403.9722    11634.167    1890.8416 
  535000    297.77309   -1159.9015    6432.5646    11634.128    1901.2008 
  535100    300.41257   -1165.3918    6381.7124    11634.174    1894.4065 
  535200    297.58298    -1165.828    6442.5535    11634.129    1933.3192 
  535300    297.80453   -1157.2483    6429.2752    11634.164    1920.0841 
  535400    300.66764   -1163.4451    6374.2661    11634.124    1863.0347 
  535500    298.39376   -1159.4565    6419.0041    11634.272    1865.6803 
  535600      303.908   -1159.1496    6300.7518     11634.13    1874.1793 
  535700    296.42269   -1158.3229     6459.835    11634.128    1947.4714 
  535800    299.13189   -1160.3194    6403.9824    11634.157    1933.3587 
  535900    299.82976   -1159.3918    6388.2389     11634.25    1934.2046 
  536000    298.85734   -1165.0424    6414.6056    11634.192    1907.3267 
  536100    299.54862    -1164.501    6399.3257    11634.221    1902.2704 
  536200    298.15343   -1163.3845    6428.0407    11634.247    1895.8311 
  536300    298.12192   -1165.3731    6430.6878    11634.232    1903.7017 
  536400    304.19251   -1165.8057    6301.4658    11634.266    1856.9603 
  536500    291.17085   -1160.6909     6574.609    11634.337    1876.6873 
  536600    301.93592     -1161.74    6345.6637    11634.321    1809.4209 
  536700    298.27737    -1161.903    6424.0581    11634.393    1920.8852 
  536800    300.04467   -1170.6799    6394.9735    11634.288    1904.7912 
  536900    299.11792   -1168.3443    6412.4816    11634.333    1876.7353 
  537000    300.09475   -1165.5354     6388.918    11634.447    1892.6701 
  537100    300.80583   -1169.4389    6377.6243     11634.44    1892.1154 
  537200    297.59673   -1165.8044    6442.4296    11634.323    1894.8688 
  537300    299.91665   -1169.6257    6396.8448    11634.478    1910.6588 
  537400    300.45035   -1167.5989    6383.3704    11634.432    1879.0738 
  537500    298.85641   -1169.4729    6419.1976    11634.333    1889.2705 
  537600    300.05822   -1166.5899    6390.6627    11634.356    1890.4474 
  537700    300.08063   -1166.0952    6389.6594    11634.326    1892.7273 
  537800    297.84621   -1168.0841    6439.4021    11634.345    1924.8967 
  537900    299.19117   -1163.9539    6406.4977    11634.304    1927.8635 
  538000    298.89805   -1167.1708    6416.0289    11634.356    1922.7848 
  538100    300.08825   -1163.7521     6387.237     11634.41    1853.7909 
  538200     295.3498   -1168.0249    6492.6786    11634.349    1879.5831 
  538300     300.3478   -1165.0393    6382.7539    11634.184    1849.3674 
  538400    297.22359    -1163.917    6448.5097    11634.319    1888.2486 
  538500    299.97944   -1162.9656    6388.6436    11634.278    1871.3477 
  538600     299.3644   -1164.0862    6402.8511    11634.226    1911.1437 
  538700    300.52576    -1161.481    6375.4709    11634.262    1914.4137 
  538800    297.69649   -1158.6656    6433.1454    11634.309     1964.737 
  538900    298.90356   -1163.8446    6412.4438    11634.215    1923.8221 
  539000    298.84366   -1160.7224    6410.6055    11634.219    1904.6732 
  539100    301.74286   -1164.3351    6352.3507    11634.289    1929.2293 
  539200    297.38099   -1161.3821    6442.5674    11634.274     1878.357 
  539300    298.29623   -1159.9995    6421.5543    11634.196    1904.0922 
  539400    297.97147   -1159.7486    6428.2506    11634.205    1884.5077 
  539500    300.20765    -1159.234    6379.9311    11634.173    1874.8743 
  539600    298.06582    -1161.723    6428.2375    11634.233     1913.817 
  539700    299.31719   -1162.3165    6402.0741     11634.21    1928.2895 
  539800    298.10949   -1160.6667    6426.2769    11634.262    1856.8422 
  539900    301.20144   -1166.3553    6365.8719    11634.223    1808.2072 
  540000    296.24586   -1163.5918    6469.0186    11634.265    1827.1584 
  540100    300.08564   -1164.4757    6387.9316    11634.325    1885.2264 
  540200    298.96683   -1166.9862    6414.4164    11634.398    1916.9269 
  540300    297.77498   -1159.4712    6432.3048    11634.339    1907.5986 
  540400    303.56613   -1164.8776    6313.9876    11634.335    1886.6596 
  540500    299.55692   -1164.6854    6399.4978    11634.386    1906.1144 
  540600    301.70886    -1161.912    6350.6837    11634.319    1922.3697 
  540700    298.67526   -1169.9695    6423.6703     11634.44    2023.8839 
  540800    299.30671   -1167.8557    6408.0737    11634.447     1972.661 
  540900    302.36913   -1166.5107     6341.301    11634.443    1937.6222 
  541000    296.71764   -1169.9878    6465.4624    11634.392    1933.5943 
  541100    300.18793   -1167.4021    6388.7225    11634.375    1888.1429 
  541200    298.15577   -1170.9705     6435.736    11634.406    1930.9127 
  541300    301.27218   -1161.2733    6359.4727    11634.417    1849.1251 
  541400    295.30336   -1161.9404    6487.6264    11634.389    1916.7183 
  541500    300.62841   -1162.0027    6373.9362    11634.398    1889.7037 
  541600    298.81279    -1159.032    6409.7556      11634.4    1864.2852 
  541700    298.49486   -1162.3368     6419.866    11634.414    1913.1051 
  541800    298.12871   -1159.5017    6424.6816    11634.242     1893.796 
  541900    299.33142   -1163.6873    6403.1327    11634.202    1898.3282 
  542000     302.9394   -1172.4736    6335.0041    11634.366     1852.437 
  542100    299.68772   -1164.8094    6396.7238    11634.283    1915.4947 
  542200    297.59011   -1156.5834    6433.2937    11634.266     1940.766 
  542300    299.68641   -1160.1353    6392.0203    11634.225    1915.2332 
  542400    298.84973   -1162.3572    6412.1309     11634.24    1939.4125 
  542500    300.06535   -1159.0922     6382.854    11634.198    1916.6594 
  542600    295.93521    -1153.429    6465.3698    11634.143    1869.7768 
  542700    303.22269   -1160.5142    6316.8277    11634.201    1833.2501 
  542800    297.62398   -1159.3118     6435.314    11634.282    1847.0057 
  542900    298.75498   -1161.1747    6412.9096    11634.177    1848.9442 
  543000    302.14628    -1164.004    6343.3051    11634.193    1822.2318 
  543100    296.89754   -1157.8109    6449.4039    11634.353    1887.7007 
  543200    301.98675   -1166.3116    6349.1777     11634.35    1787.8561 
  543300    296.30851   -1164.5525    6468.6601    11634.284    1815.9349 
  543400      299.475   -1164.6337    6401.0607    11634.251    1935.1304 
  543500    297.88736   -1158.6431    6429.0484    11634.312    1958.0195 
  543600    298.84356   -1162.9169    6412.8347    11634.252    1871.5299 
  543700      299.071   -1156.1597     6401.349    11634.382    1883.9557 
  543800    296.16858   -1168.4866    6475.6719    11634.373    1879.3507 
  543900    300.81367   -1167.3027    6375.2782    11634.398    1858.8852 
  544000    303.59976    -1167.926      6316.43    11634.447    1860.6597 
  544100    296.74439   -1173.1165    6468.0683     11634.44    1867.4988 
  544200    299.47052   -1170.3165    6406.9555    11634.367    1814.3432 
  544300    301.03579   -1172.5945    6375.8593    11634.433    1868.8853 
  544400    301.77345     -1161.46    6348.9075    11634.374    1850.9036 
  544500    300.03966    -1164.538    6388.9626    11634.312     1915.797 
  544600    300.63568   -1172.0876    6383.9094    11634.442    1896.3691 
  544700    301.26651   -1165.9567    6364.2738    11634.414    1929.6159 
  544800    301.69284    -1171.365    6360.4919    11634.332     1911.785 
  544900    300.15858   -1159.7402    6381.7067    11634.394    1936.6264 
  545000    301.12348   -1169.2117    6370.5138    11634.343    2003.0948 
  545100    298.79897   -1163.0026    6413.9687    11634.348    1947.7721 
  545200    295.97995   -1168.4726    6479.5684    11634.253    1861.8066 
  545300    298.43448   -1171.8084    6430.5206    11634.307    1935.7611 
  545400    301.43591    -1173.969    6368.5426    11634.289    1947.7176 
  545500    297.70657   -1160.5936    6434.8062    11634.257    1911.1065 
  545600    296.73996   -1158.5663    6453.4521     11634.28    1975.8616 
  545700    299.78345   -1162.1846    6392.0366    11634.265    1900.5296 
  545800    294.07056   -1161.6274    6513.5293    11634.268    1897.7425 
  545900    300.60026   -1165.3589    6377.7524    11634.257    1867.6344 
  546000     300.5444   -1167.0089    6380.6085     11634.27    1933.6352 
  546100    297.60418    -1162.758    6439.2099    11634.309    1899.6379 
  546200    296.93306   -1165.7281    6456.5064    11634.297    1888.9564 
  546300    299.20457   -1163.5035    6405.6704    11634.214    1883.0308 
  546400    297.04739   -1163.6062    6451.9106    11634.266    1999.2584 
  546500     300.8023   -1163.7925    6371.8699    11634.257    1952.6647 
  546600    299.75437   -1164.1502    6394.5662    11634.208    1907.4195 
  546700    301.15976   -1161.7148    6362.1346    11634.236     1938.485 
  546800     297.9482   -1165.6367    6434.7575    11634.327    1950.5837 
  546900    300.17994   -1155.0688    6376.4608    11634.276    1878.5906 
  547000    296.00529    -1159.007    6469.6862    11634.378    1957.4118 
  547100    304.48736   -1169.2527     6298.701    11634.354    1937.4112 
  547200    299.97994   -1164.6829     6390.361    11634.289    1873.5478 
  547300    294.94849   -1171.0567      6504.24    11634.305    1895.0232 
  547400    301.00258   -1167.6233    6371.5449     11634.38     1876.113 
  547500      298.376   -1170.4841    6430.4953    11634.357    1855.3896 
  547600    299.27817   -1165.0013    6405.6773    11634.295    1895.2226 
  547700    298.10983   -1160.6888    6426.3762    11634.346    1980.6676 
  547800    304.29917   -1166.4191    6299.9028    11634.369    1879.8145 
  547900    294.99017   -1166.8755    6499.2597    11634.397    1887.3228 
  548000    298.02008   -1163.4443    6431.1131    11634.411    1875.5613 
  548100      300.339   -1172.8727    6390.9747    11634.384    1873.7828 
  548200    302.99627   -1171.1207    6332.5004     11634.43    1846.6249 
  548300    300.27996   -1174.2713    6393.6735    11634.423    1869.0076 
  548400    298.11942   -1174.4797    6440.0958     11634.48    1887.1181 
  548500    293.35823   -1168.7683    6535.9499     11634.33    1905.8874 
  548600    301.94337   -1167.3634    6351.1386    11634.332    1872.6172 
  548700    302.70299   -1163.2368    6330.8067    11634.355    1915.9494 
  548800    298.19696   -1163.9013      6427.73    11634.349    1896.9259 
  548900    299.38568   -1164.4252    6402.8587    11634.349    1865.0675 
  549000    300.14805   -1167.6184     6389.719    11634.303    1931.4879 
  549100    300.28292   -1169.8248    6389.0939    11634.353     1885.905 
  549200    299.44145   -1169.6266    6406.8724    11634.353    1894.8386 
  549300    296.05754   -1169.2806    6478.7756     11634.31    1917.8674 
  549400    299.88546   -1171.9535     6399.631     11634.27    1909.3738 
  549500      299.937   -1165.0249    6391.6185    11634.287    1910.1547 
  549600    299.14809   -1163.7658     6407.117    11634.191     1961.182 
  549700    303.06692   -1159.5659    6319.2101    11634.204    1873.3524 
  549800    295.51772    -1160.449     6481.469    11634.303    1911.1151 
  549900    300.91233    -1163.389    6369.1015    11634.243    1933.8772 
  550000    297.40618   -1164.7393    6445.2725     11634.16    1881.0498 
  550100    300.71549   -1163.7531    6373.6465    11634.219    1877.7283 
  550200    298.52715   -1159.6628     6416.325    11634.237     1901.698 
  550300    297.34582   -1169.7985    6451.6747    11634.213    1919.8246 
  550400    297.60326   -1155.7692    6432.1136    11634.181    1908.5095 
  550500    298.68064   -1167.9035    6421.2678    11634.218    1933.2003 
  550600    299.10051   -1165.7916    6410.1282     11634.16    1940.6257 
  550700     296.9778   -1163.4144    6453.2142    11634.275    1923.6078 
  550800    299.76215    -1160.622    6390.8505    11634.187    1940.4915 
  550900    298.15216   -1161.2598    6425.9776    11634.281    1976.5454 
  551000    300.82351   -1160.7658    6368.3537    11634.221    1972.2106 
  551100    297.71931   -1154.3366    6428.2286    11634.208    1993.2829 
  551200     298.3459   -1162.3202     6422.886    11634.268    1945.0072 
  551300    299.02362   -1165.6467    6411.6889    11634.223     1880.334 
  551400    297.11507   -1166.4672    6453.3566    11634.297    1896.5435 
  551500    303.45087   -1169.3833    6320.9244    11634.303    1907.7891 
  551600    298.21797   -1167.9087    6431.2699    11634.331    1969.1829 
  551700    299.98487   -1166.3749    6391.9309    11634.272    1880.9988 
  551800     299.2016   -1163.3539     6405.603    11634.232    1879.1748 
  551900    300.89353   -1161.8768    6368.0479      11634.3    1923.7176 
  552000    298.20779   -1160.4374    6424.0695    11634.384    2009.8113 
  552100    302.04432   -1170.2322    6351.9018    11634.383    1942.3931 
  552200     296.3307   -1167.4063    6471.1762    11634.421    1881.8976 
  552300    297.50266   -1168.5327    6447.2697    11634.425    1886.2444 
  552400    300.80787    -1173.314    6381.4893    11634.474    1888.0358 
  552500    301.93878   -1169.0998    6353.1362    11634.495    1859.7575 
  552600    297.89369    -1168.469    6438.8198    11634.392    1844.1468 
  552700     298.7615   -1161.5743    6413.3499    11634.357     1828.246 
  552800    299.61629   -1162.4202    6395.9896    11634.412    1898.7015 
  552900    298.67629   -1162.2825    6415.8737    11634.352    1929.6757 
  553000     301.3148   -1161.8643    6359.0254     11634.29    1919.0288 
  553100    298.95565   -1166.0543    6413.6833    11634.358    1925.8621 
  553200    298.88013   -1169.2193      6418.49    11634.386    1929.9487 
  553300    300.64506   -1170.3844    6381.9256    11634.362    1928.5921 
  553400    298.65612   -1163.4988    6417.4688      11634.3    1907.3256 
  553500    299.78061   -1164.6039    6394.5684    11634.317    1892.3593 
  553600     296.2313   -1150.9173    6456.6529    11634.263    1838.5844 
  553700    297.82907   -1149.0425    6420.5952    11634.214    1827.8488 
  553800    296.96255   -1157.1313    6447.2528    11634.271    1837.6309 
  553900    302.02183   -1164.7708    6346.7714    11634.234    1848.5317 
  554000    299.08486   -1160.5855    6405.3731    11634.277    1887.8177 
  554100      299.825   -1162.9334    6391.8775    11634.245    1844.6474 
  554200    295.60022   -1158.8739    6478.0625    11634.234    1893.5798 
  554300    298.77529   -1163.6757    6415.0648    11634.265    1861.6866 
  554400    296.88399   -1158.7673    6450.5596    11634.263    1907.4948 
  554500    298.72662   -1158.2852    6410.5525    11634.103    1898.1821 
  554600      300.418   -1161.4147    6377.5732    11634.128    1861.2896 
  554700    302.55329   -1153.7486    6324.3085    11634.147    1854.9423 
  554800    297.88007   -1160.5467    6430.8924    11634.096    1826.2309 
  554900    298.28261   -1161.4635    6423.2794    11634.166    1837.6705 
  555000    298.50608   -1165.5974    6422.6949    11634.222    1857.7694 
  555100    303.48903   -1160.4623    6311.1442    11634.259    1858.0335 
  555200    297.34244   -1170.9387    6452.9507    11634.277    1846.6696 
  555300    300.38209   -1166.9057    6383.9884    11634.285    1832.9635 
  555400      297.522   -1164.9035    6443.1514    11634.349    1837.8281 
  555500    299.37629   -1162.7372    6401.3768    11634.355    1866.3281 
  555600    297.74439   -1166.6632    6440.1474    11634.336    1938.7754 
  555700    305.69904   -1164.1162    6267.6704    11634.345    1840.4043 
  555800    297.58481   -1166.5576    6443.4873    11634.373    1889.1484 
  555900    301.04297   -1163.8164    6366.8963    11634.401    1916.6634 
  556000    296.77771   -1165.8846    6460.0189    11634.335    1903.1308 
  556100    299.76807   -1171.2299    6401.5093    11634.364    1890.4086 
  556200    303.96224   -1170.9908    6311.7872    11634.483    1934.7516 
  556300    294.90534   -1167.2846    6501.4865    11634.402    1909.8375 
  556400    300.21635   -1169.0354    6389.7116    11634.338    1786.5361 
  556500    299.12737   -1167.4866    6411.4385    11634.349    1880.6912 
  556600     301.1206   -1167.3137    6368.7245     11634.39    1906.3478 
  556700    299.63435   -1165.0581    6398.1972    11634.367    1908.7418 
  556800    299.33318   -1165.1871    6404.6917    11634.299    1883.5685 
  556900    300.38462   -1167.9036    6384.9606    11634.313    1917.6566 
  557000    296.00997   -1158.0485    6468.5456    11634.296    1902.5486 
  557100    301.29878   -1160.5318      6358.01    11634.264    1879.7508 
  557200    301.71446   -1166.9629     6355.588    11634.292    1917.1831 
  557300    296.72277   -1164.8874    6460.1562    11634.296    1907.9548 
  557400    301.20135   -1164.7549    6364.2955    11634.245    1817.5826 
  557500    298.75856   -1164.4047    6416.1171    11634.231    1919.0955 
  557600    301.97541   -1162.7127    6345.7727    11634.301    1917.1455 
  557700    299.83259   -1163.8707    6392.6464    11634.239    1874.6842 
  557800    299.08747   -1164.9632    6409.7222    11634.304    1849.8911 
  557900    297.75475   -1164.0361     6437.311    11634.348    1859.3427 
  558000    303.52645   -1166.2314     6316.162    11634.307    1903.3479 
  558100    298.50865   -1162.4705    6419.5679    11634.277    1912.8753 
  558200    299.29106   -1159.9409    6400.3523    11634.306    1903.6554 
  558300    298.80722   -1165.5083    6416.2991    11634.349    1927.4945 
  558400    298.33082   -1156.4138    6417.4074    11634.374    1889.3969 
  558500    298.81987   -1169.8857    6420.4289    11634.371    1912.7794 
  558600    298.48928   -1167.3963    6425.1077    11634.477     1944.065 
  558700    298.41497   -1166.6958    6425.8611    11634.343    1873.8672 
  558800    300.25541   -1167.1176    6387.0624    11634.441    1898.5183 
  558900    300.11641   -1164.9256    6387.7792     11634.38    1867.7089 
  559000    299.71085   -1162.5846     6394.048    11634.326     1894.514 
  559100      299.422   -1160.2114    6397.8735    11634.354    1892.1172 
  559200    295.72716   -1156.7092    6473.2989    11634.347    1950.3993 
  559300    304.53912   -1164.6541    6292.9009    11634.258    1826.4453 
  559400    296.91035   -1157.2044    6448.5376    11634.367    1885.3373 
  559500    296.56647   -1161.2834    6459.9538    11634.358    1928.0941 
  559600    301.83108   -1171.3825    6357.5845     11634.36    1854.1682 
  559700    297.91732   -1166.5882    6436.3799    11634.338    1799.9164 
  559800    297.82515   -1161.1281    6432.9765    11634.426    1858.7223 
  559900    298.78354    -1159.504    6410.7814    11634.329    1871.3808 
  560000    298.36339   -1156.3814     6416.605      11634.3    1839.8328 
  560100    302.30865   -1162.9265    6338.8436    11634.278      1848.99 
  560200    299.02805   -1154.9788    6400.9609    11634.257    1895.8234 
  560300    298.42678   -1152.5661    6411.3344    11634.199    1851.1605 
  560400    296.85317   -1160.6802    6453.0868    11634.219    1845.5892 
  560500     299.7675   -1164.3904    6394.6272     11634.31    1901.0414 
  560600    300.08488   -1165.2676    6388.7181    11634.303    1822.4835 
  560700    298.40702   -1164.2234    6423.4893    11634.274    1860.2089 
  560800    298.54673   -1164.4491    6420.7276    11634.271    1837.5108 
  560900     301.2645   -1164.7185    6363.0163    11634.352    1859.0611 
  561000    298.11421   -1160.7054    6426.2685    11634.316     1848.517 
  561100    299.05366   -1162.6731    6408.0907     11634.24    1800.9091 
  561200    300.31009   -1163.6755    6382.3232    11634.312    1867.6933 
  561300    298.54987   -1168.8229    6425.1012    11634.338     1822.884 
  561400    298.51178   -1170.4589    6427.6559    11634.443    1814.2231 
  561500     299.2132   -1171.0602    6413.3304    11634.501    1871.3031 
  561600    299.74341   -1164.1318    6395.0017    11634.428    1813.9565 
  561700    299.06791   -1166.6361     6411.985    11634.476    1808.5928 
  561800    298.30766   -1172.6075    6434.2436    11634.521    1889.4607 
  561900    297.47172   -1167.2456     6446.692    11634.473     1893.763 
  562000    299.23753   -1165.1078    6406.8667     11634.51    1874.5968 
  562100    296.68365   -1165.2441    6461.5062    11634.453    1938.8877 
  562200    299.96493   -1153.6594    6379.7923    11634.423    1925.2225 
  562300    300.63153   -1165.3377    6377.2641    11634.458    1803.1913 
  562400     298.0747   -1164.9251    6431.5032    11634.487    1822.4221 
  562500    299.04892    -1168.006    6413.7251    11634.441    1798.5049 
  562600    301.21221   -1172.4307     6371.935    11634.441    1818.8722 
  562700    299.78859   -1169.5506    6399.4168    11634.389    1826.4045 
  562800    300.72191   -1161.6123    6371.5307    11634.381    1807.3184 
  562900    298.44317   -1165.9312    6424.4741    11634.323     1907.593 
  563000    299.88145   -1161.3797    6389.1284    11634.256    1895.6821 
  563100     297.7437   -1152.8068    6426.1903    11634.221    1896.2506 
  563200    297.06703   -1155.7939     6443.605    11634.192    1874.5363 
  563300    300.20693   -1157.4285    6378.2439    11634.276    1804.4136 
  563400    298.09887   -1164.1661    6430.0149    11634.274    1831.8981 
  563500    300.53126   -1163.7921     6377.665    11634.262    1783.5673 
  563600    295.79731   -1163.0189    6477.9628      11634.2      1817.72 
  563700    297.48977   -1157.7518    6436.5703    11634.231    1865.9701 
  563800    301.02867   -1157.3508    6360.4446     11634.11    1892.5952 
  563900    298.80856   -1156.7726    6407.2525    11634.066    1880.9163 
  564000      298.914   -1156.4913    6404.8943    11634.242    1890.3412 
  564100    299.87334   -1159.5342     6387.401      11634.2    1831.7182 
  564200    300.42934   -1156.7827    6372.7762    11634.205    1815.3197 
  564300    298.43372   -1161.6416    6420.2872    11634.224    1868.7748 
  564400    298.63504   -1170.9679    6425.3886      11634.3    1871.7821 
  564500    300.04024   -1170.3063    6394.6837    11634.277    1802.1397 
  564600    301.42446   -1170.7292    6365.6113    11634.353    1874.5036 
  564700    297.88042   -1159.9367    6430.5867    11634.408    1922.2897 
  564800    298.44003   -1167.7912    6426.4619    11634.384    1876.3679 
  564900    299.49457   -1160.2205    6396.3733    11634.395    1848.9303 
  565000    298.69318   -1164.0117    6417.3259    11634.436    1919.8666 
  565100    299.87486   -1164.1362    6392.2492    11634.479    1884.3804 
  565200    302.49388   -1167.4874     6339.679    11634.509    1815.2934 
  565300    297.20927    -1170.075    6455.2927    11634.638    1797.3552 
  565400    299.03861   -1165.7627    6411.7586    11634.497     1833.739 
  565500    298.69619   -1172.0076    6425.3059    11634.484    1939.4992 
  565600    301.07158   -1172.1617    6374.6585    11634.429    1906.0621 
  565700    301.30826   -1167.6073    6365.0523    11634.434    1897.9097 
  565800    299.21497   -1161.7119    6403.8467    11634.404    1894.4907 
  565900    299.45238   -1162.3659     6399.388    11634.363    1919.1129 
  566000    299.06823   -1165.9286    6411.1837    11634.389    1965.5764 
  566100    300.04083   -1161.1639    6385.6739    11634.422    1880.5446 
  566200    295.90444   -1161.8592    6474.6469    11634.332    1861.7185 
  566300    299.82638   -1160.1708     6389.078    11634.238    1841.9016 
  566400    299.83407   -1167.7328    6396.5702    11634.332    1930.1147 
  566500    297.26105    -1163.244    6446.9878     11634.27    1924.1366 
  566600    297.75905   -1159.5985    6432.5692    11634.136    1858.8821 
  566700    299.12189   -1162.0998    6405.9707    11634.151    1882.1961 
  566800    297.49086   -1162.0616    6440.8071    11634.181    1897.5047 
  566900    299.02272   -1155.4439     6401.374    11634.092    1886.2867 
  567000      299.923   -1157.9796    6384.6391    11634.054    1901.9015 
  567100    300.02192   -1162.1245    6386.8046    11634.188    1881.7024 
  567200     298.1084   -1161.6468    6427.2305    11634.212    1819.7807 
  567300    300.11992   -1161.3072    6383.7819    11634.076     1859.262 
  567400    297.70122   -1158.5951     6432.767    11634.102    1848.1078 
  567500    297.52351   -1157.8835    6435.9876    11634.237    1863.0159 
  567600    301.05896   -1155.7194    6358.3105    11634.254    1930.6672 
  567700    299.08153   -1158.8383    6403.6138    11634.194    1859.8208 
  567800    293.94374   -1165.0379    6519.6956    11634.315    1837.9926 
  567900    299.59376   -1166.1344    6400.1836     11634.41    1862.0223 
  568000    301.65087   -1166.3557    6356.3279     11634.28    1860.2505 
  568100     293.5638    -1167.591    6530.4193    11634.368    1909.0977 
  568200    301.74407   -1167.6589    6355.7448    11634.385    1861.8957 
  568300    296.82979   -1163.2429    6456.3112    11634.381    1908.3016 
  568400    300.32785   -1164.1276    6382.4331    11634.349    1859.8226 
  568500    300.07373   -1165.0899    6388.7887    11634.314    1855.3899 
  568600    298.20053   -1162.4117    6426.2322    11634.417    1848.7732 
  568700    299.03068   -1160.9588    6407.0406    11634.413     1887.658 
  568800    300.74557   -1167.1027    6376.5092    11634.374    1906.8864 
  568900    298.83243   -1166.5175    6416.7499    11634.329    1898.9678 
  569000    300.14842   -1166.0706    6388.2691    11634.409    1877.4299 
  569100    296.90856   -1168.1844    6459.6486     11634.46    1914.4352 
  569200    299.39755   -1169.3861    6407.5577    11634.341    1887.7545 
  569300    298.50256   -1162.8848    6420.1843    11634.349    1918.7052 
  569400     297.7373   -1164.5265    6438.0453    11634.219    1951.6756 
  569500    298.48541    -1163.967    6421.5016    11634.217    1975.3162 
  569600    300.08066   -1160.9447    6384.3935    11634.212     1896.746 
  569700    301.27929   -1163.5331    6361.3581    11634.195    1876.0129 
  569800    297.30646   -1158.2289    6440.9757    11634.243    1945.2516 
  569900    300.10746   -1162.5109    6385.4624    11634.287    1969.8965 
  570000    299.49606   -1168.0997    6404.1078    11634.282    1921.4654 
  570100    299.12438   -1167.2116    6411.1563    11634.278    1911.3864 
  570200    299.28442   -1165.7509    6406.2922    11634.294    1959.8869 
  570300    297.31659   -1164.8831    6447.3951    11634.225    1884.7852 
  570400    302.11873   -1164.2645    6344.2826    11634.321    1895.9216 
  570500    300.81621   -1160.4287    6368.3045    11634.353    1897.5689 
  570600    300.26973   -1159.6962     6379.162    11634.268    1860.0529 
  570700    299.56419   -1163.3403    6397.8691    11634.258    1861.9739 
  570800    296.80691   -1164.9874    6458.6007    11634.438    1844.9358 
  570900    299.31146   -1167.6571     6407.712    11634.385    1879.6088 
  571000    298.65816   -1167.3848    6421.3537    11634.342    1891.5213 
  571100    299.59722   -1163.2831    6397.2368    11634.389     1869.981 
  571200    295.59951   -1160.6627    6479.9587    11634.326    1906.9053 
  571300    303.64966   -1162.5341    6309.8434    11634.318     1876.717 
  571400    296.93252   -1165.0022    6455.8471    11634.353    1948.4464 
  571500    300.92579   -1167.3068    6372.8397    11634.351    1893.5876 
  571600    298.50464   -1167.1939    6424.4395    11634.339    1935.2015 
  571700    298.21918   -1167.5235     6430.858     11634.33    1859.1052 
  571800    298.91748   -1169.1057    6417.4654    11634.273    1824.8856 
  571900    299.51989    -1163.337    6398.9514    11634.397     1827.416 
  572000     293.0531   -1160.2831    6534.0247    11634.371    1927.2536 
  572100    303.92291   -1164.6467    6306.1062    11634.306    1881.4645 
  572200    298.98074   -1165.4577     6412.468    11634.275    1936.7752 
  572300    301.06433   -1162.7432    6365.3014    11634.336     1867.738 
  572400    297.79566     -1155.77     6428.163     11634.34     1917.195 
  572500    297.75455    -1162.225    6435.4816    11634.326    1987.2317 
  572600    301.48149   -1165.4117    6359.0598    11634.338    1911.2563 
  572700    301.82869   -1166.1209    6352.3775    11634.364    1811.4181 
  572800    300.03277   -1164.9815    6389.5191    11634.277     1854.184 
  572900    293.19313   -1164.8611     6535.529    11634.289    1851.4166 
  573000    301.10722   -1163.3028    6364.9347    11634.326    1816.2677 
  573100    304.14674   -1163.4305     6300.054    11634.252    1864.2552 
  573200    298.05968   -1162.9671    6429.5759    11634.197    1883.7192 
  573300    297.45439   -1157.9707    6437.5755    11634.262    1904.7349 
  573400    302.55973   -1164.8097    6335.4222    11634.337    1908.4878 
  573500    298.75784   -1166.8741    6418.7022    11634.331    1947.8521 
  573600    295.24597   -1162.1726    6488.9997    11634.304    1908.9784 
  573700    305.96927   -1165.2262    6262.9515    11634.289    1824.4362 
  573800    295.15929   -1162.8664    6491.6355    11634.394    1914.6415 
  573900    298.69028    -1161.503    6414.7578    11634.314    1894.9524 
  574000    299.92801   -1163.5259    6390.4249    11634.401    1931.2106 
  574100     303.4647   -1161.5596    6312.8472    11634.345    1900.3354 
  574200    298.31954    -1162.694    6423.8888    11634.334    1896.6519 
  574300    299.88807   -1161.8958     6389.595    11634.348    1850.8299 
  574400    298.26044    -1165.656    6428.3007    11634.521    1984.8659 
  574500    300.43195   -1163.8194    6379.9203    11634.369    1921.0572 
  574600    300.66242   -1173.3971     6384.644    11634.438    1870.1477 
  574700    294.32079   -1167.2027    6513.8604     11634.37    1884.3589 
  574800    298.18121    -1163.172     6427.336    11634.348    1934.0405 
  574900    302.81051   -1158.5393    6323.7572      11634.3    1921.7534 
  575000    298.85555   -1159.5564    6409.2546    11634.288     1925.117 
  575100    296.17378   -1161.0558    6468.0905    11634.333    1927.5597 
  575200    303.60355   -1161.2066     6309.491    11634.309    1831.2141 
  575300     295.4903   -1165.7972    6487.4495    11634.349     1891.826 
  575400    299.24068    -1167.258    6408.7458    11634.306    1866.0277 
  575500    297.79659   -1166.2589     6438.537    11634.245    1916.8576 
  575600    300.18502   -1167.9421     6389.273    11634.323    1896.7685 
  575700    300.40733   -1161.3305    6377.7762    11634.187     1908.571 
  575800    298.96045     -1162.32    6409.6565    11634.168    1923.2801 
  575900    298.05828   -1159.3433    6426.0334    11634.248    1900.3865 
  576000    302.92324   -1157.1154    6319.8325    11634.207    1845.0992 
  576100    299.60057   -1162.3467    6396.1071    11634.267    1869.7393 
  576200    298.06884   -1162.3021    6428.7405    11634.222    1899.1821 
  576300    297.04272   -1158.1436    6446.4985    11634.217    1893.2992 
  576400    301.51649   -1166.6168    6359.4633    11634.284    1897.3053 
  576500    297.99295   -1165.9793    6434.1382    11634.321    1916.9852 
  576600    297.86905   -1163.5945    6434.3502    11634.271    1867.1461 
  576700    297.44781   -1163.2425    6442.9282    11634.202    1799.0693 
  576800    299.44278   -1163.0234    6400.2698    11634.382    1886.2235 
  576900    299.07801   -1154.7852     6399.752    11634.309    1911.6996 
  577000    299.47597   -1156.3081    6392.7326    11634.269    1883.2736 
  577100    298.81332   -1160.4688    6411.0287    11634.248    1873.0154 
  577200    296.55038   -1163.3741    6462.3387    11634.308    1908.6896 
  577300    302.58359   -1166.5437    6336.6198     11634.31    1906.6324 
  577400    297.40336   -1163.5485    6444.3438    11634.362    1880.0903 
  577500    298.51853   -1166.4497    6423.3996     11634.34    1892.3932 
  577600    298.81578   -1167.0129    6417.6782    11634.406    1870.9631 
  577700    298.08777   -1162.8922    6429.0608    11634.356    1854.0555 
  577800    301.44601   -1162.8604    6357.1968    11634.268    1838.7015 
  577900    298.83126   -1162.0263    6412.2908    11634.336    1946.4536 
  578000    295.48015   -1163.6809      6485.51    11634.309    1855.7706 
  578100    298.48621   -1161.5159    6419.1838    11634.368    1882.1039 
  578200     300.1279   -1166.8893    6389.4199    11634.303    1879.0922 
  578300    301.93187   -1171.1598    6355.1828    11634.334    1866.6755 
  578400     296.3646    -1169.398    6472.3044    11634.281    1885.2777 
  578500    297.57211   -1160.5822    6437.7128    11634.302    1899.2643 
  578600    299.02371    -1167.175    6413.4108    11634.419     1908.475 
  578700    299.49912   -1169.5513    6405.4894    11634.277    1865.9483 
  578800    300.69015   -1161.1175     6371.635    11634.301    1835.5966 
  578900    300.53119   -1159.2881    6373.1962    11634.296    1836.0421 
  579000    298.95812    -1164.357    6411.8402    11634.265    1873.7321 
  579100    299.18327   -1157.9832    6400.6653    11634.274    1866.8158 
  579200    298.28937   -1165.4273    6427.2425     11634.31    1898.9147 
  579300    299.01947   -1170.4153     6416.668    11634.345    1865.7864 
  579400    298.03339   -1168.9345    6436.2651    11634.357    1847.4896 
  579500     298.3822   -1169.6323    6429.4526    11634.298    1852.3992 
  579600     297.6661   -1166.9262    6441.9618    11634.215     1932.986 
  579700    301.06405   -1165.5183     6367.955    11634.208    1941.0277 
  579800    299.11133   -1159.9225    6404.2153    11634.347    1961.8173 
  579900    298.63323   -1159.0599    6413.4931    11634.274    1907.8657 
  580000    294.43231   -1162.8851    6507.0975    11634.307     1907.336 
  580100     299.3503   -1160.7383    6399.8391    11634.261    1898.8858 
  580200    298.24599   -1162.7754      6425.48    11634.272    1957.3206 
  580300    303.61056    -1162.244     6310.377    11634.307    1907.3625 
  580400    293.55305   -1164.2219    6527.2047    11634.293    1980.1892 
  580500    303.30735   -1165.0531    6319.6293    11634.272    1871.4023 
  580600    296.98888   -1162.5857    6452.2062    11634.332    1856.9943 
  580700    297.67657   -1161.6507    6436.5257    11634.278    1936.2871 
  580800    297.44364   -1164.3294    6444.1311    11634.229    1904.6687 
  580900    299.75143   -1155.7368    6386.2118    11634.204     1859.376 
  581000    298.66344    -1157.939    6411.6986    11634.246     1925.525 
  581100    300.83287   -1158.5235    6365.9804     11634.29    1896.1432 
  581200    296.09208    -1163.268     6472.007    11634.292    1915.4923 
  581300    300.97137   -1161.1059    6365.6389    11634.324    1861.5204 
  581400    298.88286   -1157.2856    6406.4227    11634.311    1908.2103 
  581500    300.27897   -1163.5008    6382.7729    11634.272    1840.8841 
  581600    300.45481   -1163.4223    6378.9495    11634.283    1904.0432 
  581700    298.08046   -1166.4496    6432.6686    11634.251    1978.3556 
  581800    298.51169   -1159.8298    6416.8017    11634.216    1944.6568 
  581900    302.28182    -1161.848    6338.2544    11634.194    1872.1753 
  582000    297.15872   -1158.8662    6444.7362     11634.21    1907.5325 
  582100    300.19593    -1161.174    6382.2465    11634.298    1911.2453 
  582200    300.32903    -1164.088    6382.2718    11634.253    1898.1676 
  582300     299.8106   -1161.6586    6390.8687    11634.204    1876.8296 
  582400    299.14033   -1165.9923     6409.602    11634.284    1865.7079 
  582500    297.29991    -1165.388    6448.3166    11634.285    1860.2699 
  582600    298.51851   -1171.7692     6428.737    11634.358     1886.826 
  582700    297.05863    -1163.967    6452.0412    11634.276    1910.4864 
  582800    299.67528   -1171.4124    6403.6646    11634.355    1925.2748 
  582900    297.85473   -1161.6136    6432.8607    11634.456    1950.4768 
  583000    298.24915   -1162.7044    6425.3862    11634.317     1917.524 
  583100    297.35891   -1161.2732    6442.9996    11634.343    1937.6465 
  583200    295.41028   -1164.4496    6487.8386    11634.376    1961.4198 
  583300    303.35675   -1168.7187     6322.393    11634.426    1869.6386 
  583400    297.77181   -1167.1451    6440.0598    11634.353    1869.6269 
  583500    299.20363    -1168.908    6411.3018     11634.42    1849.2935 
  583600    302.49118    -1171.606    6343.8109    11634.465    1879.2704 
  583700    298.21987   -1165.4119    6428.8096    11634.408    1863.4164 
  583800    296.18411   -1161.6807    6468.5575    11634.396    1887.9567 
  583900    300.07439   -1164.2968    6388.0251    11634.357    1927.5388 
  584000    302.80734   -1167.4775    6332.7983    11634.335    1912.6451 
  584100    294.59815   -1163.7161    6504.3875    11634.309    1953.5199 
  584200    300.62991   -1160.7301    6372.4994    11634.266    1925.1498 
  584300    297.98258   -1164.9602    6433.2029    11634.183    1907.5772 
  584400    296.84686   -1166.2486    6458.8344    11634.263    1945.8054 
  584500    301.24802   -1166.7978    6365.3592    11634.263    1918.6201 
  584600     300.2378    -1164.485    6384.5645    11634.199     1823.973 
  584700    295.89456   -1162.3758    6475.3155    11634.273    1852.7777 
  584800    301.23761   -1160.2402    6358.9214     11634.16    1855.2078 
  584900    294.97722   -1156.0729    6488.5415    11634.204    1886.7341 
  585000    301.64971   -1155.3405    6345.2128    11634.155    1859.9975 
  585100    301.27413   -1153.2612     6351.136    11634.134    1902.3094 
  585200    299.29425   -1161.2425    6401.3569    11634.077    1958.7187 
  585300    297.43844   -1163.2063    6443.0245    11634.134    1931.2958 
  585400    301.14226   -1164.3635    6365.1347    11634.214    1845.0276 
  585500    295.25009   -1169.2248    6495.8787    11634.219    1904.8727 
  585600    300.37763   -1164.0392    6381.1516     11634.22    1846.9945 
  585700    297.85242   -1160.0053    6431.0722    11634.227     1909.841 
  585800    298.71008    -1162.424     6415.153    11634.211    1962.6916 
  585900     298.8373   -1157.6091    6407.6462    11634.237    1947.0514 
  586000    300.03119   -1157.6125    6382.1276    11634.221    1898.3566 
  586100    301.59876   -1163.9556    6354.9781    11634.217    1928.5399 
  586200    300.05597   -1170.4863    6394.4988    11634.248    1981.4372 
  586300    298.93822    -1166.405    6414.4265    11634.378    1880.1222 
  586400    296.09433   -1170.4547    6479.2621    11634.408    1849.2956 
  586500    301.94549   -1174.8272    6358.6353     11634.41    1852.6732 
  586600    298.18206   -1170.8745    6435.1081    11634.436    1837.0482 
  586700    301.14776   -1162.0368    6362.8869     11634.41    1869.3739 
  586800    298.97313   -1163.5412    6410.8474    11634.408    1974.3527 
  586900    295.32703   -1163.8834    6489.0764    11634.402    1927.6086 
  587000    303.18884   -1160.0075    6317.2044    11634.361    1888.3513 
  587100    298.68863   -1165.3374    6418.6675    11634.354    1975.9514 
  587200    301.75703   -1169.4702      6357.31    11634.416    1926.6096 
  587300    296.57514   -1171.7683    6470.3274    11634.432    1864.4302 
  587400    301.30329   -1168.5858    6366.1133     11634.41    1836.7844 
  587500    299.69042   -1174.3715    6406.4117    11634.466    1905.3513 
  587600    300.29411   -1171.6609    6390.6976    11634.359    1879.6487 
  587700    296.72185   -1166.5076    6461.9169    11634.416    1935.2208 
  587800    300.61742   -1162.4043    6374.5294    11634.355    1904.8884 
  587900    297.38996   -1161.2395    6442.3077    11634.348    1891.1373 
  588000    298.87659   -1160.0921    6409.3588    11634.306    1928.7426 
  588100    299.56828   -1158.5696    6393.0251    11634.272    1971.6323 
  588200    301.92729   -1158.7886    6342.7521    11634.177    1859.5145 
  588300    297.59327   -1165.3014    6442.0104    11634.333    1896.0593 
  588400    298.93512   -1159.5197    6407.5561    11634.326    1909.5921 
  588500    299.33121   -1160.0724    6399.6019    11634.281    1880.4129 
  588600    300.64043   -1167.3541    6378.8663    11634.234    1874.9225 
  588700    299.08414    -1165.538    6410.3325    11634.268    1853.8087 
  588800     296.0564   -1163.2399    6472.6822    11634.233    1876.4198 
  588900    300.40351   -1155.4779    6372.0142    11634.196     1946.631 
  589000     301.0059   -1158.9059    6362.5451    11634.168    2007.6931 
  589100    295.14017     -1159.22    6488.2306    11634.227    1947.9856 
  589200    297.82046   -1156.2683    6428.0313     11634.24     1932.641 
  589300    300.05588   -1162.2994     6386.345    11634.279    1927.0514 
  589400    297.84995   -1165.8705    6437.0943    11634.331    1928.0899 
  589500    299.45563   -1168.9941    6405.9348    11634.351     1928.866 
  589600     298.8409   -1172.2625     6422.376    11634.391    1889.3085 
  589700    301.26809   -1172.4952    6370.8242     11634.46     1861.344 
  589800    295.06364   -1166.6764    6497.4657    11634.371    1935.7886 
  589900    298.82735    -1163.264    6413.6797    11634.404    1910.1368 
  590000    297.77355   -1162.9603    6435.8194    11634.334    1891.1911 
  590100    299.59565   -1158.2334    6392.1437    11634.312    1922.1822 
  590200    301.48566   -1159.0574     6352.574    11634.295    1845.5422 
  590300    299.04918   -1167.3511    6413.0259    11634.402    1864.9259 
  590400    301.58349   -1171.8836    6363.4402    11634.425    1885.2084 
  590500    292.42553   -1172.1393    6559.3089    11634.392    1897.8615 
  590600    301.04778   -1172.2296    6375.1816    11634.376    1842.6379 
  590700    298.54657   -1168.7756    6425.1763     11634.39    1910.7376 
  590800    298.98306   -1166.9784    6414.0001    11634.336    1882.0775 
  590900    298.60474   -1164.2287     6419.322    11634.325    1868.7012 
  591000    296.37444   -1159.3757    6462.0079    11634.217    1944.6613 
  591100    303.23727   -1163.8138    6319.8497    11634.235    1950.6064 
  591200      299.188   -1160.6797    6403.1813    11634.194    1953.2722 
  591300    298.41595   -1162.2405    6421.3707    11634.329    1924.4644 
  591400    297.38195   -1171.6842    6452.8115    11634.236    1918.1728 
  591500    299.80539   -1167.3767    6396.7043     11634.21    1855.7682 
  591600    298.94352   -1166.9081    6414.6639    11634.225    1876.9996 
  591700    297.77912   -1163.6747     6436.358    11634.277    1912.1077 
  591800    297.72727   -1164.5084    6438.2823     11634.26    1910.1996 
  591900    297.20686   -1164.7017    6449.4977    11634.165     1901.735 
  592000    299.17755   -1158.4404    6401.2281    11634.257    1922.2499 
  592100    297.72616   -1157.7338    6431.5188    11634.247    1944.6245 
  592200    301.82998   -1163.6841    6349.7584    11634.209    1871.2014 
  592300    296.54047   -1159.7926    6459.0024    11634.342    1929.5005 
  592400    295.79618    -1168.835    6483.9268    11634.323    1874.8653 
  592500    299.40421   -1165.5907    6403.6149    11634.336    1852.4988 
  592600    299.92514   -1164.1084    6391.0953    11634.427    1840.0566 
  592700    299.75825   -1169.2775    6399.8099    11634.408    1878.5538 
  592800    298.94288    -1164.608    6412.4609    11634.309    1855.2981 
  592900    298.89917   -1166.6272     6415.429    11634.324    1901.1781 
  593000    301.79963   -1168.2636    6355.1264    11634.349    1861.6786 
  593100     299.4458   -1165.5839    6402.7539     11634.37    1927.7099 
  593200    298.61543   -1167.5583    6422.5213    11634.423    1894.8984 
  593300    299.45245   -1169.6933    6406.6543    11634.303    1881.4749 
  593400    298.60886   -1171.3417     6426.387    11634.365    1901.5717 
  593500    298.62867   -1162.4225    6417.0209    11634.342    1757.3503 
  593600    299.90917   -1165.4275    6392.6614    11634.333     1789.762 
  593700    299.85911   -1169.5309    6397.9137    11634.413    1838.9822 
  593800    300.77569   -1165.0392    6373.7594    11634.331    1855.7818 
  593900    301.31219   -1161.1336    6358.4204    11634.359    1867.2968 
  594000    295.46227   -1161.2642    6483.5153    11634.349    1887.1539 
  594100    301.13113   -1162.3093    6363.3754    11634.271    1832.7565 
  594200     304.2707   -1163.4094    6297.4089    11634.276    1786.8587 
  594300    297.38793   -1161.8422    6442.9646    11634.359     1849.183 
  594400    301.06315   -1162.2225    6364.7315    11634.261    1892.7625 
  594500    296.31531   -1161.0342    6464.9135    11634.201    1862.7114 
  594600     300.7666   -1162.1118    6370.9618    11634.267    1825.8923 
  594700     298.2002   -1159.8632    6423.4973    11634.224    1941.1934 
  594800    298.60081   -1159.9704    6415.0333    11634.211    1840.8398 
  594900    299.13001   -1165.2173    6409.0022    11634.239    1883.6284 
  595000    299.58592   -1161.1528    6395.0972    11634.138     1911.082 
  595100    295.32487   -1157.6149    6482.6825     11634.23    1892.6336 
  595200    300.84465   -1160.7818    6367.8987    11634.201    1830.6713 
  595300     296.0509   -1157.3127    6466.7532    11634.114    1935.9842 
  595400    301.61989   -1160.5195     6351.048    11634.175    1893.0761 
  595500    296.81202   -1165.1104    6458.4526    11634.276    1858.3017 
  595600     297.6147    -1169.039    6445.2857    11634.328    1910.9196 
  595700    298.77068   -1168.1335    6419.6869     11634.33    1862.0942 
  595800    296.38209   -1158.8273    6461.4277    11634.349    1801.6185 
  595900     297.6452   -1162.8408    6438.4315    11634.324    1864.9224 
  596000    300.61379   -1167.0697    6379.2398    11634.323    1902.0268 
  596100    297.55908   -1164.0243     6441.485    11634.354     1786.898 
  596200    301.18097   -1164.4165    6364.5259    11634.379    1833.3597 
  596300    302.73561   -1165.9499    6332.9009    11634.433    1930.3829 
  596400    298.01564   -1170.9082    6438.5941    11634.333    1818.6939 
  596500     299.2787   -1169.7941    6410.5299    11634.366    1838.2291 
  596600    300.45355   -1169.3317    6385.0789    11634.476    1868.6193 
  596700    299.98662   -1175.9002     6401.611    11634.465    1878.8024 
  596800    299.18073   -1165.7105    6408.5872    11634.414    1887.8056 
  596900    302.93535   -1167.9899    6330.7172    11634.476    1941.0335 
  597000    299.96697   -1169.6617    6395.7555    11634.428    1919.8596 
  597100    298.61936    -1165.326    6420.1184    11634.337    1872.2885 
  597200    299.04949   -1161.7912    6407.4815    11634.424    1934.7841 
  597300     298.0531   -1168.0279    6434.9914    11634.411    1936.6758 
  597400     300.7097   -1165.8317    6375.9863    11634.356    1908.5841 
  597500    299.52383   -1163.9619    6399.4632    11634.368    1890.3212 
  597600    294.60535   -1169.1006    6509.6918    11634.383    1923.9531 
  597700    299.84609   -1166.1847    6394.7384    11634.305    1849.7679 
  597800    298.32569   -1158.3545     6419.286    11634.202    1855.7377 
  597900    298.06071     -1165.67    6432.3049    11634.245    1917.2648 
  598000    298.11429   -1158.2128    6423.7385     11634.28    1896.4334 
  598100    300.69546   -1158.2485      6368.57    11634.219    1838.1215 
  598200    297.94373   -1159.5939    6428.7125    11634.229    1810.1796 
  598300    299.26263   -1164.9772    6405.9169    11634.227    1850.8748 
  598400    301.81793   -1163.7633     6350.104    11634.218    1807.1385 
  598500    294.27488   -1159.1882    6506.6283    11634.171    1876.0563 
  598600    300.59022   -1162.6867    6375.2363    11634.198    1884.6917 
  598700     299.0221   -1161.2048    6407.3091    11634.253    1847.1309 
  598800    299.76303   -1161.1596    6391.3117    11634.129    1759.3896 
  598900    298.65245   -1161.8924    6415.8344    11634.193    1871.5342 
  599000    299.86025   -1164.3424    6392.4886      11634.2    1898.7294 
  599100    298.39654   -1163.7176    6423.1751    11634.242    1873.4479 
  599200    299.03609   -1172.3844    6418.2757    11634.339    1917.0214 
  599300    301.42708   -1165.8742    6360.7184    11634.371    1857.8906 
  599400    299.65979   -1163.1449     6395.606    11634.233    1840.3264 
  599500    298.35114   -1166.6913    6427.1899    11634.313    1900.1834 
  599600    297.29208   -1164.6509    6447.8701    11634.408    1980.9699 
  599700    299.70936   -1169.5352    6401.0172    11634.313    1866.5754 
  599800    301.22938   -1166.5473    6365.6402    11634.396     1848.643 
  599900    296.65906   -1169.6307    6466.4614    11634.496    1908.8422 
  600000    301.60557   -1163.9428    6355.0691    11634.466    1904.4102 
Loop time of 278.395 on 8 procs for 300000 steps with 7168 atoms

Pair  time (%) = 137.293 (49.3159)
Bond  time (%) = 81.0074 (29.098)
Neigh time (%) = 19.5136 (7.00931)
Comm  time (%) = 30.3249 (10.8928)
Outpt time (%) = 0.512011 (0.183916)
Other time (%) = 9.74406 (3.50009)

Nlocal:    896 ave 898 max 895 min
Histogram: 4 0 0 1 0 0 2 0 0 1
Nghost:    2843.12 ave 2849 max 2837 min
Histogram: 1 0 1 0 2 1 0 2 0 1
Neighs:    23671.4 ave 23939 max 23457 min
Histogram: 2 2 0 0 0 0 2 0 0 2

Total # of neighbors = 189371
Ave neighs/atom = 26.4189
Ave special neighs/atom = 157.056
Neighbor list builds = 3040
Dangerous builds = 0
# −−−−−−−−−−−−−− Flux calculation in nve −−−−−−−−−−−−−−−
reset_timestep  0
compute         PE all pe/atom
compute         KE all ke/atom

variable        CX atom (vx*(c_KE+c_PE))
compute         Jcx all reduce sum v_CX

variable        CZ atom (vz*(c_KE+c_PE))
compute         Jcz all reduce sum v_CZ

variable        CY atom (vy*(c_KE+c_PE))
compute         Jcy all reduce sum v_CY

compute         SA all stress/atom virial

variable        VX atom -(c_SA[1]*vx+c_SA[4]*vy+c_SA[5]*vz)*1.4593e-5
compute         Jvx all reduce sum v_VX

variable        VZ atom -(c_SA[3]*vz+c_SA[6]*vy+c_SA[5]*vx)*1.4593e-5
compute         Jvz all reduce sum v_VZ

variable        VY atom -(c_SA[2]*vy+c_SA[6]*vz+c_SA[4]*vx)*1.4593e-5
compute         Jvy all reduce sum v_VY

variable        Jx equal (c_Jcx+c_Jvx)/vol
variable        Jz equal (c_Jcz+c_Jvz)/vol
variable        Jy equal (c_Jcy+c_Jvy)/vol

fix             JJTx all ave/correlate $s $p $d                 v_Jx type auto file J0Jt_tx.dat ave running
fix             JJTx all ave/correlate 5 $p $d                 v_Jx type auto file J0Jt_tx.dat ave running
fix             JJTx all ave/correlate 5 20000 $d                 v_Jx type auto file J0Jt_tx.dat ave running
fix             JJTx all ave/correlate 5 20000 100000                 v_Jx type auto file J0Jt_tx.dat ave running

fix             JJTz all ave/correlate $s $p $d                 v_Jz type auto file J0Jt_tz.dat ave running
fix             JJTz all ave/correlate 5 $p $d                 v_Jz type auto file J0Jt_tz.dat ave running
fix             JJTz all ave/correlate 5 20000 $d                 v_Jz type auto file J0Jt_tz.dat ave running
fix             JJTz all ave/correlate 5 20000 100000                 v_Jz type auto file J0Jt_tz.dat ave running

fix             JJTy all ave/correlate $s $p $d                 v_Jy type auto file J0Jt_ty.dat ave running
fix             JJTy all ave/correlate 5 $p $d                 v_Jy type auto file J0Jt_ty.dat ave running
fix             JJTy all ave/correlate 5 20000 $d                 v_Jy type auto file J0Jt_ty.dat ave running
fix             JJTy all ave/correlate 5 20000 100000                 v_Jy type auto file J0Jt_ty.dat ave running

run             1000000
Memory usage per processor = 13.8919 Mbytes
Step Temp E_pair E_mol TotEng Press 
       0    301.60557   -1163.9428    6355.0691    11634.466    1904.4102 
     100    297.95381   -1170.2265     6439.304    11634.403    1903.5635 
     200    299.27766   -1174.0763    6414.8895    11634.421     1934.032 
     300    297.82328   -1163.5984    6435.4822    11634.421    1866.5587 
     400    301.50778   -1169.6421    6362.7225    11634.331    1880.0443 
     500    299.39782    -1160.652    6398.7857    11634.309    1876.0114 
     600    300.38971    -1169.086    6386.0811     11634.36    1918.5688 
     700    300.59875   -1168.3281    6380.8807    11634.384    1902.0108 
     800     295.4099   -1164.4834    6487.7946     11634.29    1820.3051 
     900    299.05779   -1165.2057    6410.5399    11634.245    1845.3001 
    1000     297.8968    -1165.634    6435.8133    11634.287    1830.2056 
    1100    301.48221   -1169.8359    6363.4494    11634.318    1902.2769 
    1200    298.32284   -1161.3495    6422.4341    11634.294    1913.6636 
    1300    298.20344   -1165.0386    6428.6752    11634.296    1909.5531 
    1400    299.62964   -1164.3339    6397.4471    11634.241    1854.6722 
    1500    301.33932   -1164.0227    6360.6098    11634.239     1876.512 
    1600      299.528   -1161.2554     6396.521    11634.222    1934.0398 
    1700    296.96218   -1161.1709    6451.1824    11634.153     1885.694 
    1800    297.44097   -1166.5894    6446.5064    11634.287    1886.1302 
    1900    301.17538   -1163.9466    6364.0795    11634.283    1929.7031 
    2000      294.878   -1166.1914    6500.8822    11634.307    1891.9063 
    2100    297.80134     -1163.89    6436.1548    11634.333    1892.0826 
    2200    303.90773   -1160.5276    6302.3038    11634.299    1922.7355 
    2300    295.66455   -1165.9765    6483.8195    11634.262    1951.8524 
    2400    298.32239   -1164.6981    6425.8392    11634.341    1893.6419 
    2500    302.70705    -1167.756     6335.254     11634.37    1965.2957 
    2600    299.38239   -1170.3956    6408.9531    11634.403    1917.7891 
    2700    301.12365   -1168.0621    6369.4776     11634.46     1867.463 
    2800    300.42497    -1162.153    6378.4554    11634.421    1935.2911 
    2900    297.69171   -1168.1683    6442.8976    11634.456    1961.0457 
    3000     300.6317   -1173.7402    6385.5835    11634.378    1976.4558 
    3100     298.3157   -1165.9125    6427.2545    11634.399    1998.8487 
    3200    300.90251   -1169.2515    6375.3969    11634.466    1940.2141 
    3300    300.50102   -1164.0171    6378.7498    11634.476    1911.6197 
    3400    296.99036   -1168.8683    6458.6659    11634.541    1952.7062 
    3500    301.59418   -1166.6996     6358.071    11634.468    1939.0537 
    3600    295.69514   -1166.4075    6483.6747     11634.34    1940.6381 
    3700    300.30726   -1159.2163    6378.0817    11634.469    1905.4113 
    3800    298.89008    -1168.684    6417.7544    11634.398    1936.3075 
    3900    296.70632   -1163.9964    6459.7065    11634.385    1912.0063 
    4000    299.95998   -1165.5175    6391.7462    11634.413    1896.4863 
    4100    299.52499   -1166.4936     6401.954    11634.352    1932.9857 
    4200    297.40616   -1167.5533    6448.2347    11634.308    1904.1909 
    4300    300.77949   -1167.6466    6376.2716    11634.317    1926.0238 
    4400    295.14989   -1163.7837    6492.6393     11634.28    1946.1898 
    4500    303.04288   -1166.0515    6326.2067    11634.201    1847.6331 
    4600    298.59265   -1155.4002    6410.6901    11634.264    1918.6321 
    4700    298.25207   -1159.9442    6422.3733    11634.127    1908.3556 
    4800    299.35866   -1156.2441    6395.0241    11634.118    1940.4796 
    4900    298.64789   -1161.9695    6416.0597    11634.244    1933.1454 
    5000    299.45201   -1161.2403    6398.2236    11634.316    1842.7195 
    5100    300.14987   -1162.0297    6384.1537    11634.365    1934.6142 
    5200    295.77936   -1167.3386    6482.7696    11634.303    1972.1765 
    5300    299.06453   -1169.1808    6414.4371    11634.311    1955.2776 
    5400    301.28519   -1163.7302    6361.5947     11634.36    1966.8664 
    5500    296.40869   -1160.7678    6462.8555    11634.405    1986.2373 
    5600    297.86374   -1161.2397    6432.1396    11634.302    1906.0731 
    5700    296.57241   -1163.0094    6461.5289    11634.334    1970.2385 
    5800    302.09859   -1162.0214    6342.5626    11634.414    1943.1304 
    5900     299.7182   -1159.0113    6390.3864    11634.395    1924.6106 
    6000     301.9395   -1164.3399    6348.1994    11634.334    1874.5662 
    6100    297.45483   -1168.6038      6448.41    11634.472    1923.9961 
    6200    299.43514   -1172.0302    6409.5196    11634.462    1924.5412 
    6300    298.02862   -1177.0767    6444.6528      11634.5    1920.7971 
    6400    300.93093   -1167.1513    6372.6818    11634.458    1903.2453 
    6500    295.81824   -1162.0777    6476.8783    11634.503    1938.3655 
    6600    303.26071   -1165.3867    6321.1338    11634.447    1860.4711 
    6700     303.2704   -1167.9624    6323.4078    11634.352    1866.4104 
    6800     296.2231   -1165.0346    6471.1293    11634.447     1867.954 
    6900    297.50318   -1169.1349    6447.8325    11634.396    1864.0568 
    7000    300.13501   -1171.1407    6393.5923    11634.376    1895.1279 
    7100    297.37403    -1171.198    6452.6745    11634.416    1883.3575 
    7200    298.79381   -1167.0156     6418.129    11634.385    1862.1282 
    7300    297.01083   -1163.5778    6452.7404    11634.343    1897.3977 
    7400    298.80233    -1162.262    6413.0741    11634.265    1877.5108 
    7500    300.44304   -1164.3968    6380.1533    11634.261     1907.538 
    7600    300.93781   -1163.5287    6368.6699    11634.216    1920.9193 
    7700    298.35018   -1154.2812    6414.7276     11634.24    1925.0864 
    7800    302.22784   -1160.3704    6337.9308    11634.194    1884.9971 
    7900    300.20599    -1161.495    6382.2596    11634.205     1897.535 
    8000    302.30451   -1164.7747    6340.6978    11634.195    1824.2572 
    8100    296.04792   -1165.0548    6474.6455      11634.2    1858.2412 
    8200    295.58565   -1161.0165    6480.5468    11634.264    1887.0648 
    8300    300.80404   -1161.5927     6369.629    11634.253     1868.165 
    8400    299.76068   -1161.7481    6392.0276    11634.207    1875.4408 
    8500    299.79159   -1163.2092    6392.8614     11634.24    1955.3508 
    8600    298.26652   -1159.2079    6421.4605    11634.259    1893.1599 
    8700    298.17342   -1160.7272    6424.9632    11634.254    1834.6178 
    8800    299.94362   -1164.3225    6390.7887    11634.302    1861.7872 
    8900    299.50595   -1168.8482    6404.6768    11634.314    1901.1013 
    9000    302.27341   -1166.3727    6343.1312    11634.366    1857.9679 
    9100    299.06302   -1164.3608    6409.7149    11634.377    1908.9676 
    9200    300.72267    -1162.089    6372.0163    11634.406    1906.9195 
    9300    297.60191   -1162.5795    6439.1453    11634.374    1911.9852 
    9400    300.07377    -1167.563    6391.3597    11634.412     1887.808 
    9500     300.5148   -1164.2333    6378.5227    11634.327    1839.8706 
    9600    298.79989   -1167.0338     6417.982    11634.349    1849.3485 
    9700    299.68525   -1173.0138    6405.1199    11634.422    1878.9265 
    9800    298.54386   -1167.7922    6424.2832    11634.423    1889.0919 
    9900    298.62833   -1166.2534    6420.8161    11634.299    1854.5798 
   10000    297.78962   -1160.9554    6433.5002    11634.363    1859.3378 
Loop time of 1408.22 on 8 procs for 1000000 steps with 7168 atoms

Pair  time (%) = 564.731 (40.1024)
Bond  time (%) = 297.352 (21.1154)
Neigh time (%) = 65.2033 (4.63018)
Comm  time (%) = 108.071 (7.6743)
Outpt time (%) = 0.00359637 (0.000255383)
Other time (%) = 372.861 (26.4774)

Nlocal:    896 ave 902 max 892 min
Histogram: 1 1 1 1 1 1 0 1 0 1
Nghost:    2845.12 ave 2855 max 2838 min
Histogram: 2 1 0 0 1 2 0 1 0 1
Neighs:    23627.4 ave 23799 max 23386 min
Histogram: 2 0 0 1 0 0 1 1 0 3

Total # of neighbors = 189019
Ave neighs/atom = 26.3698
Ave special neighs/atom = 157.056
Neighbor list builds = 10133
Dangerous builds = 0
