LAMMPS (11 Jun 2012)
# Initialization
atom_style      full
units           real
variable        T equal 300
variable        dt equal 1.0
variable        seed equal 123456
variable        radius equal 0.5
variable        sizet equal 4
variable        sizeb equal -4
variable        p equal 20000    # correlation length
variable        s equal 5        # sample interval
variable        d equal $p*$s    # dump interval
variable        d equal 20000*$s    variable        d equal 20000*5    
# convert from LAMMPS real units to SI
variable        kB equal 1.3806504e-23    # [J/K] Boltzmann
variable        kCal2J equal 4186.0/6.02214e23
variable        A2m equal 1.0e-10
variable        fs2s equal 1.0e-15
variable        convert equal ${kCal2J}*${kCal2J}/${fs2s}/${A2m}
variable        convert equal 6.9510174124148567155e-21*${kCal2J}/${fs2s}/${A2m}
variable        convert equal 6.9510174124148567155e-21*6.9510174124148567155e-21/${fs2s}/${A2m}
variable        convert equal 6.9510174124148567155e-21*6.9510174124148567155e-21/1.0000000000000000777e-15/${A2m}
variable        convert equal 6.9510174124148567155e-21*6.9510174124148567155e-21/1.0000000000000000777e-15/1.0000000000000000364e-10
variable        b_eq equal 10.0/3.0

# setup problem
dimension       3
boundary        p p p
neighbor        2    bin
pair_style      lj/cut 10.0
bond_style      morse
read_data       lammps.data
  9 = max bonds/atom
  orthogonal box = (0 0 0) to (80 80 80)
  2 by 2 by 2 MPI processor grid
  7168 atoms
  33696 bonds
  10 = max # of 1-2 neighbors
  86 = max # of 1-3 neighbors
  824 = max # of 1-4 neighbors
  164 = max # of special neighbors
pair_coeff      1 1 0.000 3.500
pair_coeff      2 2 0.000 3.500
pair_coeff      1 2 0.105 3.500
bond_coeff      1 10 1.8 ${b_eq}
bond_coeff      1 10 1.8 3.3333333333333334814
bond_coeff      2 5 0.805 7.4536
bond_coeff      3 10 1.8 ${b_eq}
bond_coeff      3 10 1.8 3.3333333333333334814
bond_coeff      4 5 0.805 7.4536
velocity        all create $T ${seed} mom yes rot yes dist gaussian
velocity        all create 300 ${seed} mom yes rot yes dist gaussian
velocity        all create 300 123456 mom yes rot yes dist gaussian
timestep        ${dt}
timestep        1
thermo          100
dump            T1 all cfg 600000 *.cfg id type xs ys zs
dump            T2 all xyz 10000 traj.xyz
#dump_modify    1 element Cu
# −−−−−−−−−−−−− Equilibration and thermalisation −−−−−−−−−−−−−−−−
fix             NVT all nvt temp $T $T 10
fix             NVT all nvt temp 300 $T 10
fix             NVT all nvt temp 300 300 10
run             300000
Memory usage per processor = 11.5453 Mbytes
Step Temp E_pair E_mol TotEng Press 
       0          300   -906.89526 0.00012694983    5502.1446    343.62551 
     100    242.16577   -934.50814    7064.6572    11303.649    2200.3285 
     200    295.08034   -992.06732    10009.101    15320.972     1234.722 
     300    302.07634    -990.3221    8522.5408    13985.616    591.40062 
     400    299.30699   -966.99701    6388.0764    11815.314    858.70324 
     500    298.69727   -949.62848     5601.813    11033.393    1260.6881 
     600    299.53042   -947.27917    5670.9767    11122.705    1315.5049 
     700    299.54574   -959.11471    6532.5122    11972.733    1266.1881 
     800    297.31698   -970.48115    7152.5522    12533.792    1121.0704 
     900    303.64111   -970.63732    6994.9579    12511.147    1057.9889 
    1000    299.69013   -967.57565    6618.9519    12053.796    1118.0515 
    1100    302.10205   -964.29868    6421.5502    11911.198    1337.4435 
    1200    297.47011    -962.2226    6200.6628    11593.433    1243.7679 
    1300    301.47337   -965.27925    6380.8645    11856.101    1193.2437 
    1400    299.96109   -974.02607    6584.6507    12018.833    1245.8832 
    1500    303.54309   -978.76721    6939.8035    12445.769    1389.0286 
    1600    298.00075   -979.11304    6694.2556    12081.471     1363.181 
    1700    302.07576   -980.70376    6336.3906    11809.072    1356.4801 
    1800     299.2936   -985.63977     6466.947    11875.256    1470.3259 
    1900    302.66671   -990.99105    6507.8915     11982.91    1411.4063 
    2000    300.70367    -998.1542     6469.745    11895.663    1505.1557 
    2100    297.57279   -1005.8609    6455.8458    11807.171    1612.8665 
    2200    303.65275   -1017.1303    6252.1296    11722.075    1511.2115 
    2300    300.12438   -1032.3542    6446.6062    11825.949    1573.8621 
    2400    300.82732   -1048.6896    6436.8495    11814.874    1448.7043 
    2500     299.7356    -1063.699    6404.8694    11744.561    1332.8242 
    2600    302.23655   -1083.8769    6482.5462    11855.489    1457.2005 
    2700    300.95435   -1094.6492    6327.4825    11662.261    1424.0941 
    2800    296.36859   -1105.5087    6460.9451    11686.896    1565.2645 
    2900    301.89734   -1109.4391    6186.9915    11527.126    1605.3179 
    3000    296.65312   -1106.6297    6124.1375    11355.046    1710.3021 
    3100    304.79272   -1081.1079    6305.2132    11735.534    1785.3922 
    3200    299.95712    -1072.113    6388.4316    11724.442    1765.6538 
    3300    305.07342   -1069.7077    6260.5678    11708.286    1772.9834 
    3400    303.80392   -1071.9366    6280.9886    11699.357    1779.3757 
    3500    300.66603   -1090.4401    6401.9651    11734.794    1657.4939 
    3600    298.46671   -1130.9186    6521.8619    11767.227     1640.502 
    3700    298.94939   -1124.9684    6332.8366    11594.463    1712.5531 
    3800    302.82157   -1127.5421    6216.3911    11558.167    1740.1377 
    3900    304.34875   -1125.4561    6255.9642    11632.452    1710.7287 
    4000    300.25249   -1119.4243    6263.7126    11558.722    1634.2984 
    4100    308.76051   -1114.6531    6408.8662    11890.408    1715.2776 
    4200    298.89328   -1101.5937    6434.5789    11718.381    1674.7672 
    4300    297.14025   -1098.0608    6318.5769    11568.462    1627.0026 
    4400    302.71484   -1089.1384    6473.8079    11851.708    1746.1118 
    4500    296.67288   -1082.2451    6344.4635    11600.179    1609.1382 
    4600    303.93353   -1082.7979    6371.9188    11782.195    1533.4555 
    4700    299.96579    -1086.075    6646.8159     11969.05    1662.3829 
    4800    298.22856   -1087.3092    6585.1889    11869.075    1627.4631 
    4900    301.38199   -1093.4524    6429.6251    11774.736    1602.8327 
    5000      294.369   -1104.9163    6307.0291    11490.855    1637.5558 
    5100    300.58026   -1109.9033    6258.0289    11569.562    1650.1564 
    5200    299.89426   -1117.7679    6334.2165    11623.229     1635.461 
    5300     296.0018   -1128.5939    6489.0357    11684.066    1751.1377 
    5400    297.75476   -1138.5623    6443.0921    11665.603      1801.42 
    5500    299.89931   -1147.7602    6190.0816     11449.21     1790.711 
    5600    295.80298   -1148.9252    6080.1021    11250.554     1767.118 
    5700    300.38538   -1140.4053    6266.7639    11543.631    1804.9948 
    5800    299.07757   -1133.8245    6447.2641    11702.773    1872.7526 
    5900    302.27151   -1129.9177    6281.5342    11609.184    1859.3801 
    6000    296.07113   -1138.5306    6210.4059    11396.981    1847.9929 
    6100     300.7341   -1150.4097     6225.496    11499.809    1913.8548 
    6200     304.1109   -1156.2968    6374.1544     11714.72    1842.8662 
    6300     298.5212   -1164.7996    6315.3276    11527.975    1688.4028 
    6400    295.46491   -1162.9171     6337.693     11486.93    1814.3622 
    6500    302.72452   -1144.8764    6273.6638    11596.032    1706.2977 
    6600    295.66921   -1151.1515     6379.854    11545.222    1771.6747 
    6700    303.83217   -1144.1547    6285.2061     11631.96    1851.9187 
    6800    295.26778   -1152.4212    6307.8825    11463.404    1808.1293 
    6900     301.3952   -1140.6459    6291.1095    11589.309    1826.7483 
    7000    304.76766   -1143.6774    6386.3183    11753.534     1893.655 
    7100    298.31904   -1135.4894     6332.181     11569.82    1818.4638 
    7200    297.09172   -1130.9331     6322.058    11538.034    1694.0287 
    7300    299.68944   -1122.9213    6402.7415    11682.225    1785.8012 
    7400    295.66839   -1110.9696    6378.7063    11584.238    1693.4962 
    7500    304.53767    -1106.196    6461.3023    11861.086    1714.8368 
    7600    296.21204    -1101.963    6340.9695    11567.122    1729.2171 
    7700    300.67628   -1098.7595    6462.0907    11786.819    1763.4207 
    7800    297.97878   -1097.6385     6428.749     11696.97    1694.6759 
    7900    298.88277   -1099.0974    6460.4854     11746.56    1739.0945 
    8000    299.76532   -1102.0744    6384.9081     11686.86    1700.0408 
    8100    300.70774   -1104.8691     6356.447    11675.737    1720.4366 
    8200    301.36905   -1110.3043    6410.5483    11738.531    1772.7709 
    8300    301.18529   -1118.3658    6421.4432    11737.439      1760.34 
    8400    301.68329   -1115.5685    6493.5429    11822.975    1693.2239 
    8500    297.68383   -1121.5732    6420.9525    11658.938    1725.9352 
    8600    299.80094   -1125.6705    6319.3293    11598.446    1751.7669 
    8700    303.39941    -1130.344    6359.0399    11710.359    1719.7361 
    8800    299.83795   -1131.6275    6453.9068    11727.857     1740.395 
    8900    296.25849    -1133.236    6252.4985    11448.371    1745.0582 
    9000    301.07048   -1125.4155     6343.078    11649.571    1769.5142 
    9100    300.46851   -1119.5928    6309.6125    11609.068    1790.2496 
    9200    295.96489   -1125.6559    6298.5414    11495.721     1873.417 
    9300    303.78509   -1129.7492    6380.5646    11740.718    1842.0733 
    9400    298.62438   -1132.4432    6325.1604    11572.369    1754.5396 
    9500    303.95211   -1140.3607    6390.6098    11743.719    1845.2447 
    9600     298.4718   -1145.1216    6392.3849    11623.655    1836.0092 
    9700    300.74398   -1148.7554    6303.5452    11579.723    1776.6985 
    9800    300.04466   -1148.9797    6367.8413    11628.855     1837.584 
    9900    294.28184   -1143.1818     6329.725    11473.423    1810.4578 
   10000    303.51097   -1139.8134     6381.356    11725.589    1806.6702 
   10100    295.43753   -1139.5571    6381.1895    11553.202    1777.9663 
   10200    299.55467    -1137.052    6394.7287    11657.202    1795.9684 
   10300    302.33757   -1138.2796    6378.1707    11698.869    1747.5977 
   10400    300.01343   -1135.7507    6331.2622    11604.838    1737.0928 
   10500    302.69678   -1134.3013    6434.8664    11767.217    1815.0476 
   10600    301.75669   -1134.4847     6400.363    11712.447    1721.4139 
   10700    301.14576   -1141.5047    6471.9672     11763.98    1730.9804 
   10800    300.59652   -1138.7005       6420.1    11703.183    1763.7483 
   10900    299.63652    -1142.584    6394.8885    11653.579    1844.2735 
   11000    304.85182   -1140.7628    6320.7871    11692.716    1768.1533 
   11100    296.95405   -1144.4817    6414.5489    11614.035    1823.9686 
   11200     296.9653   -1139.9282    6376.6659    11580.946    1792.7417 
   11300    300.81596   -1145.8244    6339.1764    11619.824    1713.6121 
   11400    293.84254   -1140.9383    6343.3274    11479.884    1753.9095 
   11500    301.93522   -1141.8434    6409.5602      11718.1    1829.3981 
   11600    298.29272   -1145.9176    6358.3343    11584.983     1760.796 
   11700    302.38108   -1148.0317    6389.0239      11700.9    1826.5853 
   11800    295.61536   -1151.6379    6237.1113    11400.842    1710.4405 
   11900    300.79326   -1149.7672    6350.0218    11626.241    1751.9795 
   12000    295.71906   -1152.9578    6364.6875    11529.314    1821.1715 
   12100      303.237   -1152.8401    6342.0879    11667.441    1859.0458 
   12200    301.51637   -1152.6428    6380.3864    11669.178     1878.069 
   12300    296.70066   -1152.0827    6312.2222    11498.694     1792.049 
   12400    298.32192   -1149.6545    6338.0104    11561.546    1774.3029 
   12500    300.72433   -1138.9346     6367.923    11653.502     1794.209 
   12600    296.79434   -1132.7825    6266.0619    11473.835    1806.0921 
   12700    301.71635   -1134.3247    6342.6849    11654.067    1809.9015 
   12800    298.16337   -1122.9294    6441.6191    11688.493    1786.6599 
   12900    303.90288   -1135.4647    6346.2449    11703.199    1805.1072 
   13000     297.3446     -1133.23    6452.8074    11671.889    1827.8285 
   13100    298.70035   -1135.9929    6418.4578    11663.739    1795.5406 
   13200     300.5214   -1137.0335    6390.0218    11673.167    1808.5482 
   13300    300.53605   -1133.5185    6349.5164    11636.489    1785.5692 
   13400    300.64407   -1133.5582    6430.9255    11720.167    1801.6029 
   13500    297.44903   -1128.7169    6497.3284    11723.154    1799.4232 
   13600    303.49457   -1124.4111    6381.5894    11740.874    1828.7487 
   13700    300.92589   -1127.4784    6453.8336    11755.175    1824.1485 
   13800    300.73086   -1130.1374    6311.3924    11605.908     1832.613 
   13900    299.05075    -1123.187    6408.0958    11673.669    1751.0761 
   14000    300.01835    -1123.264    6539.1077    11825.275     1731.568 
   14100    295.88654   -1127.1143    6502.8426     11696.89    1766.9519 
   14200    296.47045   -1126.5917    6448.5413    11655.586    1816.4372 
   14300    304.74024   -1128.1083    6469.4517    11851.651    1840.6225 
   14400    297.62735   -1121.5068    6434.7714    11671.616    1766.0066 
   14500    296.82429    -1130.599    6410.9465    11621.543    1778.1363 
   14600     299.9444   -1139.3797    6385.3622    11653.834    1810.2607 
   14700    299.75109   -1138.1043    6334.7802    11600.398    1765.1663 
   14800    300.31367   -1146.5287    6407.3417    11676.554    1835.7327 
   14900    301.55629   -1155.0274    6341.3288    11628.589    1762.5601 
   15000    293.65445   -1149.1086    6375.1417     11499.51    1723.8734 
   15100    302.12573   -1149.8883    6438.4192    11742.984    1858.9234 
   15200     296.9336   -1155.6065    6400.5426    11588.467    1848.4824 
   15300    297.76191   -1155.9392    6410.5647    11615.852    1847.8408 
   15400     301.0609   -1152.0391    6310.9391    11590.604    1813.8837 
   15500    296.73256   -1153.8486    6359.2844    11544.672    1811.2672 
   15600    296.39634   -1153.9157    6392.7077    11570.845    1818.6725 
   15700    295.05556   -1154.0272    6490.9775     11640.36     1775.717 
   15800    301.57699   -1153.2314    6349.6079    11639.106    1792.2546 
   15900    299.83029   -1160.1531    6352.3395      11597.6    1819.5813 
   16000    300.88923   -1159.6184    6461.6981    11730.116    1847.0851 
   16100    302.20088   -1156.8212    6474.7991    11774.036    1847.1109 
   16200    297.86735   -1158.4521    6253.1334     11458.16    1778.6207 
   16300    302.52859    -1155.153    6286.6161    11594.522    1830.4218 
   16400    301.53844   -1153.1819    6435.9532    11724.677    1810.1585 
   16500    299.58459   -1147.5345    6542.4462    11795.077     1848.652 
   16600    296.95925   -1140.4365    6536.2312    11739.873    1846.0085 
   16700    300.86481    -1135.221    6378.5276    11670.822    1780.3941 
   16800    300.57166   -1134.3304    6331.2309    11618.153    1805.4792 
   16900     301.2822   -1132.5524    6474.1352    11778.015    1873.0199 
   17000    302.75043   -1132.4631    6493.7518    11829.087    1787.5031 
   17100    294.01072   -1127.4887    6513.2424    11666.842    1764.2511 
   17200    305.01164   -1131.3241     6546.528     11931.31    1876.0796 
   17300    302.54176   -1125.4252    6425.6794    11763.595     1858.041 
   17400    300.13108   -1124.9623    6251.9968    11538.875     1750.179 
   17500     295.4763   -1118.0308    6410.0881    11604.455    1862.6653 
   17600    295.27231   -1129.4984    6467.9857    11646.527    1871.7577 
   17700    302.85504   -1129.0804    6398.2956    11739.248    1814.0342 
   17800    299.46098   -1126.7737    6481.5593     11752.31    1862.0527 
   17900    299.99577   -1132.6625    6379.2752    11655.562    1829.9831 
   18000     301.1041   -1132.3381    6396.9472    11697.236    1823.9469 
   18100     303.0199   -1129.0597    6422.3625    11766.858    1865.9015 
   18200    299.89714   -1126.5436    6407.0127    11687.311    1880.0529 
   18300    299.99405   -1126.8296    6356.7066     11638.79    1890.8971 
   18400    293.12225   -1130.7453    6388.6319    11519.994    1880.4724 
   18500    303.88222   -1124.4798    6401.3195    11768.817    1892.9627 
   18600    299.38982   -1132.0488    6442.5846     11706.54    1830.8512 
   18700     303.4797   -1131.2382    6491.3128    11843.453    1862.8396 
   18800    300.36719   -1125.6334    6435.1468    11726.398     1885.268 
   18900    303.63914   -1131.1357    6305.2676    11660.916    1809.8958 
   19000    299.24184   -1129.4042    6480.5204    11743.959    1858.2437 
   19100    301.58188   -1124.3778    6461.7752    11780.232    1870.1886 
   19200    302.25426   -1127.3123    6369.4263    11699.312    1841.1216 
   19300    304.38563   -1129.6566    6406.8247      11779.9    1844.7644 
   19400    298.91895   -1127.5503    6329.5967    11587.991     1797.713 
   19500    300.99088   -1130.3653    6495.6828    11795.526     1861.397 
   19600    302.33674   -1127.7983    6496.1656    11827.328      1893.04 
   19700    304.46998   -1134.1735     6345.316    11715.676     1830.882 
   19800    298.92112   -1132.9879    6474.3147    11727.318    1846.5861 
   19900    305.27827   -1135.2905    6536.3133    11922.825    1849.4778 
   20000    298.27829   -1135.4763    6416.0469    11652.829    1818.0748 
   20100    301.00226   -1145.1693    6366.2041    11651.486    1871.1963 
   20200    299.20472   -1145.9496    6469.6276    11715.728    1878.1404 
   20300    297.98267   -1150.9836     6410.159    11625.118    1798.8891 
   20400    302.87567   -1154.1855    6413.7835    11730.072    1909.7962 
   20500    301.97776    -1148.078    6382.5009    11685.714    1888.6516 
   20600    297.42528   -1141.3277    6359.1617    11571.869    1834.0658 
   20700    300.78886   -1137.3194    6351.2691    11639.842    1918.5173 
   20800    296.51255   -1140.2741    6328.7234    11522.985    1891.1856 
   20900    297.04068   -1139.8691     6396.442    11602.391    1849.5445 
   21000    304.72024   -1138.5405    6436.6273    11807.967    1937.7537 
   21100     295.6385   -1147.4572    6314.7739     11483.18    1895.2766 
   21200    300.82081   -1150.9241     6376.476    11652.127    1945.7719 
   21300    298.78483   -1151.2092    6477.4841    11709.354    1963.7244 
   21400    297.64306   -1151.3494    6483.7961    11691.134    1899.7259 
   21500    301.23834   -1153.2886    6314.2978    11596.504    1884.5242 
   21600    296.21918   -1151.7027    6308.6047     11485.17    1901.5233 
   21700    294.94817   -1145.3135    6489.9483     11645.75    1895.9053 
   21800    299.02647   -1140.8816    6448.9475    11696.308    1892.2899 
   21900     299.5632   -1141.4857    6391.0287    11649.251    1970.7651 
   22000    298.37243   -1138.0638     6412.276    11648.481    1915.0855 
   22100    307.15372   -1136.6498     6434.757    11859.975    1816.8016 
   22200    301.14415   -1133.4188     6556.604    11856.668    1856.8331 
   22300    298.99382   -1133.7808    6424.9721    11678.736    1767.7214 
   22400    300.82802   -1135.2382    6421.1328    11712.624    1752.1933 
   22500    297.85608   -1133.5294    6561.8084    11791.517    1886.5603 
   22600    297.45417   -1131.3325    6347.7989    11571.118    1838.7385 
   22700    299.90415   -1133.5452    6390.9733     11664.42    1822.4247 
   22800    303.30986   -1134.6271    6484.2087    11829.331     1883.691 
   22900    295.30488    -1130.282    6461.9611    11640.415    1867.1781 
   23000    302.88008   -1134.1432    6417.0547     11753.48     1834.399 
   23100    298.93495   -1133.2686    6487.5142    11740.532    1850.3229 
   23200    300.41907   -1137.1867    6347.7315    11628.537    1804.9883 
   23300      300.083   -1133.9766     6325.064      11601.9     1803.142 
   23400    299.77826   -1135.9364    6496.2604    11764.627    1860.9434 
   23500    300.19056   -1139.1663      6494.88    11768.824    1849.0635 
   23600     303.3709   -1133.0768    6307.3955    11655.373     1768.107 
   23700    296.89299   -1140.3946    6396.6345    11598.903    1808.5284 
   23800    300.82855   -1138.0945    6471.2565    11759.902    1844.9079 
   23900    299.72832   -1134.4493    6363.6563    11632.443    1846.6893 
   24000     300.4537    -1142.475    6390.9778    11667.235    1889.4648 
   24100    298.84648   -1141.6387    6461.7003    11704.458    1943.6912 
   24200    299.45586   -1139.7556    6512.5112    11770.171    1876.8014 
   24300    299.84915   -1147.7194    6395.7742    11653.872    1782.6347 
   24400    300.05378    -1141.766    6411.0885    11679.511     1768.145 
   24500    300.84944   -1143.7685    6481.2067    11764.625    1883.9755 
   24600    299.79818   -1150.3913    6382.4274    11636.764    1814.3633 
   24700    300.21047   -1143.0738    6482.5336    11752.996    1804.2656 
   24800     296.9745   -1146.5767    6380.6732    11578.501    1784.5195 
   24900    303.80061   -1145.3888     6383.219    11728.064    1837.9269 
   25000     298.8162   -1147.5072    6431.3086    11667.551    1826.7608 
   25100    305.28347   -1147.5177    6434.0616    11808.457    1944.9775 
   25200     297.7422   -1156.0291    6296.6829    11501.459    1905.3991 
   25300    294.93219   -1154.3258    6364.7163    11511.164    1863.6611 
   25400    298.07558   -1158.5384    6441.9509     11651.34    1917.8967 
   25500    304.01247   -1152.9555    6345.6603    11687.465    1888.1532 
   25600    297.40774   -1154.7369    6482.9935    11681.917    1979.8401 
   25700     311.4807   -1149.4772    6408.9409    11913.771     2000.365 
   25800    299.67656   -1142.5342    6359.2538     11618.85    1933.3076 
   25900    298.18832   -1149.6139     6383.445    11604.167    1824.2611 
   26000    300.60747   -1148.4982    6473.4099    11746.929     1869.411 
   26100    297.86511   -1155.3327    6391.1058    11599.204     1908.975 
   26200    294.62865   -1153.3198    6292.8963    11433.866    1845.8496 
   26300     299.3159   -1157.1002    6476.4811    11713.806    1928.1506 
   26400    300.04548   -1147.5457    6308.9889    11571.455     1852.815 
   26500    297.30811    -1151.294    6464.2251    11664.463    1915.9722 
   26600    304.75573   -1150.1193    6427.8319    11788.351     1860.696 
   26700    301.23234   -1147.6658     6435.356    11723.057    1876.5731 
   26800    296.73111   -1148.5726    6385.2991    11575.931    1810.5492 
   26900    303.34239   -1140.5948    6441.6068    11781.457    1874.1224 
   27000    300.10727   -1150.7151    6462.0795    11722.696    1896.2679 
   27100    299.28808   -1151.8201    6321.0088    11563.019    1786.1179 
   27200    302.64793   -1153.0149    6436.6516    11749.245    1821.8367 
   27300    299.98132    -1155.199    6613.5567    11866.998    1893.6715 
   27400    301.89356    -1155.731    6459.5279     11753.29    1921.4537 
   27500    297.07951   -1158.1669    6286.6222    11475.103    1865.4584 
   27600    299.19078    -1162.195    6471.2247    11700.782     1941.306 
   27700    303.01976   -1159.1283    6477.4479    11791.872    1915.7687 
   27800    304.68337   -1165.6233    6325.2924    11668.762    1867.2104 
   27900    298.57057   -1160.6783    6462.5945    11680.418    1896.5568 
   28000    300.53198   -1160.8927    6459.1604    11718.672    1908.3197 
   28100    300.13598   -1169.3042    6407.4834    11650.124    1874.4315 
   28200     298.8363   -1172.7536    6333.5072    11544.933     1851.171 
   28300    300.26986   -1170.9944    6420.0486    11663.859    1931.7203 
   28400    296.81244   -1162.0492    6457.2054    11636.099    1948.6252 
   28500    304.40323   -1157.5535    6375.5195    11721.074    1881.1947 
   28600    297.78582   -1167.1431    6387.7903    11582.384    1907.2043 
   28700    300.37147   -1165.6602    6408.9649     11660.28    1949.2882 
   28800    300.58416   -1159.2198    6350.7703     11613.07    1865.0286 
   28900    301.50344   -1163.5598    6383.4641    11661.063    1866.9194 
   29000     297.1721   -1158.4962    6375.8583    11565.988    1921.3842 
   29100    298.88907   -1161.9453    6432.0741    11655.435    1884.0009 
   29200    298.48401    -1160.115    6367.8298    11584.368     1846.323 
   29300    301.07866   -1157.0602    6294.7334    11569.757    1897.3178 
   29400    301.62607   -1148.1475    6401.2181    11696.849    1819.0996 
   29500    299.37763   -1146.9132    6588.2983    11837.129    1902.5267 
   29600    299.28907   -1145.5836    6483.8316      11732.1    1877.5467 
   29700    302.00717   -1147.8901     6336.146    11640.176    1904.1175 
   29800    298.88328   -1142.1329    6336.1126    11579.162    1942.5529 
   29900    300.24466   -1144.2185    6415.9073    11685.955    1932.3427 
   30000      301.081    -1138.059    6637.6539    11931.728    1957.2183 
   30100    302.96038   -1139.1992      6435.98    11769.065    1811.1879 
   30200    300.10463   -1138.7924    6403.3694    11675.852    1835.3974 
   30300    297.20664   -1140.2905    6466.2965     11675.37    1932.2228 
   30400    302.98275   -1135.8409    6404.8664    11741.787    1894.8528 
   30500    300.41922   -1142.2101    6441.7099    11717.496    1847.5175 
   30600     303.5794   -1144.1593    6482.2211     11823.57    1917.6536 
   30700     298.2671   -1147.7532    6495.3267    11719.592    1964.0529 
   30800     298.7291   -1140.6121     6345.714    11586.991    1872.0304 
   30900    301.71184   -1149.2956     6387.999    11684.314    1928.1482 
   31000    301.77797   -1143.0188      6463.08    11767.084    1914.4288 
   31100    296.80922   -1150.1481    6407.0136    11597.739    1894.6751 
   31200    296.37735   -1150.0303    6390.8275    11572.445     1996.339 
   31300    304.78542   -1152.3153      6402.96    11761.917    2004.5945 
   31400    304.31393    -1158.969    6487.3137    11829.545    1937.7564 
   31500    297.28024   -1156.4262     6380.675    11575.185    1910.5802 
   31600    305.90491   -1152.1735    6405.1607    11788.176    1953.9379 
   31700     298.2427   -1157.9404    6345.9399    11559.497    1842.4882 
   31800    300.13612   -1153.8432    6415.5311    11673.636     1896.125 
   31900    305.77076   -1163.6893    6367.7474    11736.381    1940.5393 
   32000    299.56526   -1154.3576    6359.6555     11605.05    1901.5119 
   32100    302.83247   -1154.8621    6448.2004    11762.889    2004.9906 
   32200    298.30024   -1154.9595    6369.2159    11586.983     1982.866 
   32300    298.83693   -1157.6356    6367.4544    11594.011    1882.9216 
   32400     303.8193   -1154.6707     6421.265    11757.228    1897.7571 
   32500     300.9864   -1152.1888    6492.5961     11770.52     1976.614 
   32600    299.36976   -1153.1396    6400.7505    11643.186    1954.3569 
   32700    296.29705   -1148.5858    6414.1843     11595.53    1914.7187 
   32800    300.80658   -1150.4442    6326.9932     11602.82    1908.7385 
   32900    296.28293   -1148.6276    6465.4146    11646.417    1955.6632 
   33000    299.59244    -1149.421    6488.2161    11739.128    1884.5512 
   33100    303.87543   -1141.5571    6445.0764    11795.352    1903.0496 
   33200    299.67544   -1142.2833    6387.5096    11647.332    1885.4457 
   33300    300.95655   -1140.2875    6378.5937    11667.781    1881.5739 
   33400    297.52566    -1136.805    6529.3761     11748.75    1882.6076 
   33500    302.04093   -1134.4176     6495.282    11813.505    1900.6582 
   33600    302.17905   -1143.9369    6354.1305    11665.785    1929.3586 
   33700    298.49704    -1138.342    6401.0562    11639.646     1904.348 
   33800     295.7639   -1138.8939    6527.4969    11707.145      1917.84 
   33900    302.03174    -1140.305    6500.2356    11812.375    1897.3556 
   34000    302.48546   -1138.9235    6439.6609    11762.875     1867.085 
   34100    307.57718   -1144.7123    6367.7974        11794    1908.3469 
   34200    297.46218   -1145.6602    6445.3024    11654.465     1933.344 
   34300    301.92917   -1150.1775    6350.1517    11650.228    1850.2831 
   34400    297.67938   -1151.6311    6444.5455    11652.378      1922.87 
   34500    299.95651    -1153.348    6365.8642    11620.627    1901.3011 
   34600    299.16694    -1148.831    6409.0592    11651.471    1875.8446 
   34700    295.16282   -1157.7164    6471.7704    11619.755    1893.8152 
   34800    303.02495   -1163.7569     6388.079    11697.985    1868.4004 
   34900    297.92892   -1159.1863    6316.1518     11521.76     1782.356 
   35000    300.83885   -1158.6895    6496.1274    11764.398    1925.4304 
   35100    303.58001   -1169.4039     6390.221    11706.338    1876.2949 
   35200    300.29236    -1163.362    6426.1581    11678.082    1914.6967 
   35300    296.45794   -1167.5891    6397.1119    11562.892    1879.5001 
   35400    298.17866   -1170.1254    6406.9186    11606.923    1887.4978 
   35500    299.45423    -1170.494    6383.5009    11610.387    1906.4925 
   35600    302.17509   -1167.2654    6356.2694    11644.511      1954.16 
   35700    292.61983   -1165.7949    6376.6126    11462.191     1919.032 
   35800    297.26908   -1171.5641    6367.8445    11546.978    1905.6428 
   35900    304.37374   -1168.8856    6366.4509    11700.043    1905.0928 
   36000    299.82294   -1167.6825    6434.2236    11671.798     1939.544 
   36100    295.95552   -1165.0578    6442.9786    11600.556    1931.9321 
   36200    303.32129   -1162.4114    6334.9542    11652.537    1894.0592 
   36300    294.91093   -1155.7533    6399.9334      11544.5    1882.8259 
   36400     302.6336   -1155.5358     6450.551    11760.318    1898.9737 
   36500    294.59227   -1155.8608    6351.3964    11489.048    1891.6584 
   36600    302.06973   -1152.4899    6336.0239     11636.79    1876.6734 
   36700     301.7944   -1145.2925    6538.9813    11841.063    1902.9847 
   36800    295.85524   -1148.7871    6457.9543     11629.66    1839.6658 
   36900    298.59535   -1146.2717    6472.6896    11705.449    2004.9842 
   37000    302.24684   -1138.6579    6346.7182      11665.1    1856.9051 
   37100    300.38519   -1133.5696     6461.958    11745.657    1896.5934 
   37200    302.93474   -1137.9955    6505.6048    11839.345    1916.7555 
   37300     297.5301   -1138.1783    6467.1256    11685.221    1884.6551 
   37400    304.96107   -1136.7884    6484.1059    11862.343    1887.2608 
   37500    295.51951    -1137.766    6526.7902    11702.345    1817.1582 
   37600    301.01546   -1138.2509    6517.5081    11809.991    1786.7658 
   37700    295.23635   -1133.4696    6289.8944    11463.697    1715.5736 
   37800    300.11502   -1135.0466    6473.6127    11750.063    1874.8966 
   37900    300.31451   -1138.3925    6435.1171    11712.483    1826.2215 
   38000    300.38526   -1140.3299    6458.8743    11735.815    1852.1606 
   38100    299.00578   -1144.0293    6503.6337    11747.404    1885.2152 
   38200    303.28769   -1145.2779    6462.1303    11796.128    1808.5332 
   38300    296.75854   -1150.3105    6461.2354    11650.716    1882.6496 
   38400    303.79506   -1149.6306    6348.9532    11689.438    1856.2871 
   38500    294.38641   -1147.9926    6416.4579    11557.579    1840.8853 
   38600     298.7001   -1148.3264    6449.5275     11682.47    1875.7319 
   38700     302.7601   -1149.5315     6381.565    11700.039    1896.0192 
   38800    299.71671   -1151.2902    6329.0785    11580.776    1873.2962 
   38900    299.82353   -1157.2289    6412.9232    11660.964    1854.7927 
   39000    298.32611   -1160.8119    6369.9057    11582.373     1825.307 
   39100    303.24646   -1165.6765    6328.3313     11641.05    1922.5304 
   39200    303.45898   -1166.0359    6543.7369    11860.636     1933.105 
   39300    295.21278   -1160.9023    6474.9096    11620.775     1861.776 
   39400    302.58807   -1164.2045    6307.8818    11608.007    1920.2599 
   39500    296.92444   -1153.5072    6291.7939    11481.622    1870.2352 
   39600    300.66737   -1153.6616     6454.999    11724.635    1935.7907 
   39700    299.60267   -1161.5329    6409.5882    11648.607    2019.4486 
   39800    298.06249   -1168.2329    6331.0629    11530.478    1901.5671 
   39900    302.57062   -1163.6793    6417.3244    11717.602    1899.9811 
   40000    297.73596   -1166.1219    6415.0985    11609.648    1907.6779 
   40100    298.23193   -1161.5558    6423.4162    11633.128    1908.1833 
   40200    296.41041   -1164.6583    6574.8366    11742.532    1940.2787 
   40300    300.65435   -1162.7386    6313.3438    11573.624    1856.7799 
   40400    297.69667    -1154.892    6349.7898     11554.73    1901.8148 
   40500    297.58702   -1159.5648    6388.4116    11586.337    1822.2386 
   40600    299.39389   -1154.4662    6414.9962    11656.621    1887.8913 
   40700    302.91858   -1154.0996    6431.7808    11749.072    1907.5843 
   40800    300.79347   -1157.5633    6325.9988    11594.426    1786.0304 
   40900      297.641   -1154.8869    6502.8468    11706.603    1911.8108 
   41000    300.64765   -1150.3609    6370.2405    11642.755    1865.9818 
   41100    297.42256   -1154.2057    6458.2704    11658.042    1898.2579 
   41200    304.17046   -1151.1618     6316.993    11663.966    1855.7742 
   41300     300.2162   -1148.0578    6422.3277    11687.928    1915.7719 
   41400    298.25958   -1143.5529    6440.1353    11668.441    1825.0185 
   41500    298.36112    -1138.515    6387.1375     11622.65    1888.3532 
   41600    304.36015   -1144.7224    6386.6692    11744.134    1872.8791 
   41700    297.48213   -1139.6266    6487.6587    11703.281    1848.8097 
   41800    301.52704   -1148.2973    6362.5311    11655.896    1828.3305 
   41900    300.47839    -1153.907    6426.2778    11691.631    1865.6839 
   42000    302.00588   -1151.0004    6411.5412    11712.433    1779.5561 
   42100    293.59958   -1147.0393    6447.5462    11572.812    1778.9999 
   42200    302.01959   -1146.7144    6460.0674    11765.538    1850.5315 
   42300    293.85195   -1145.6891    6388.5235     11520.53    1813.4982 
   42400    299.11696   -1143.8447    6424.9376    11671.268    1844.6577 
   42500    300.33798   -1142.4021    6351.1904    11625.049    1902.9141 
   42600    289.11643   -1143.5169    6395.2221    11428.234    1919.2732 
   42700    298.56475    -1145.454    6440.2432    11673.167    1855.5592 
   42800    296.99307    -1147.096    6422.0561    11619.761    1866.5173 
   42900    300.34242   -1148.3049    6305.7823    11573.832    1871.7244 
   43000    302.32903   -1147.9107     6397.768    11708.653    1885.6783 
   43100    296.23666    -1150.746    6417.2558    11595.151    1836.1907 
   43200    304.46551   -1154.2309    6469.3595    11819.567    1916.3821 
   43300    297.05665   -1153.7067     6419.159    11611.612    1807.6072 
   43400    302.01071   -1148.4542    6430.7809    11734.322    1865.0999 
   43500    297.00777   -1146.7527    6384.4298    11582.793     1908.947 
   43600    301.64177   -1148.5015    6322.7259    11618.338    1883.8545 
   43700    301.03609    -1147.328    6402.9837     11686.83    1855.7025 
   43800    296.92604   -1148.2391    6467.6147    11662.745    1887.0278 
   43900    305.27846   -1153.9269    6340.3635    11708.243    1900.7711 
   44000    295.76753   -1153.6967    6368.1546    11533.077    1924.7865 
   44100    301.14499   -1156.2279    6304.1469     11581.42    1848.0774 
   44200    296.54279   -1146.5111     6465.291    11653.962    1892.4678 
   44300    301.89297   -1149.2146    6376.6929    11676.958    1843.9533 
   44400    296.69154    -1158.823    6311.1506    11490.687    1917.3327 
   44500     299.5806   -1142.7776    6468.6599    11725.962     1924.846 
   44600    299.15647   -1146.1222    6343.6166    11588.513    1846.3686 
   44700    302.91094   -1150.6455    6440.8041    11761.386    1971.6664 
   44800    295.09032   -1146.6398    6408.1006    11565.613    1880.6447 
   44900    302.49264   -1147.9078    6400.1848    11714.568    1931.6504 
   45000    294.02532   -1150.3115    6487.9006    11618.989    1913.9878 
   45100    301.48311   -1152.5855    6340.9121    11629.051     1869.162 
   45200    301.19643   -1151.7259    6440.1287    11723.002    1892.9902 
   45300    300.55553   -1150.4546    6484.2909    11754.744     1872.512 
   45400    292.73569   -1147.2925    6372.9032     11479.46    1835.7753 
   45500     302.0332   -1148.6508    6431.8808    11735.706    1865.9494 
   45600    299.51716   -1150.3016     6416.987     11665.41    1907.7855 
   45700    302.37309    -1148.195    6460.1217    11771.664    1867.5321 
   45800     301.0878   -1150.6141    6499.5504    11781.215    1920.4382 
   45900    302.73904   -1153.4084    6404.5894    11718.736    1894.0414 
   46000    305.30898   -1147.3696    6397.2763    11772.365    1863.1501 
   46100    298.24496   -1152.4574    6433.3724    11652.461    1846.5554 
   46200    300.64632   -1154.6937    6425.7112    11693.865    1872.1027 
   46300    302.68262   -1151.5608    6376.1449    11690.934    1874.9873 
   46400     296.6391   -1151.6025    6381.3892    11567.026    1801.8688 
   46500    298.99142   -1156.8911    6394.1944    11624.796    1903.5409 
   46600     303.0137    -1156.899    6487.0996    11803.623    1861.8493 
   46700    298.27404   -1161.2795    6408.8663    11619.754    1842.5143 
   46800    299.42453   -1163.6624    6332.1627    11565.246    1906.6651 
   46900    300.46344   -1155.9696    6392.7376    11655.708    1894.0753 
   47000    297.33599   -1160.3461    6436.0506    11627.832     1848.445 
   47100    300.91422   -1162.3162    6374.5933    11640.848    1869.5574 
   47200    296.31151   -1159.1329    6310.6359    11481.744     1884.319 
   47300    300.89706   -1162.8327    6354.4922    11619.863     1874.902 
   47400    305.70483   -1166.6541     6462.159     11826.42    1990.4258 
   47500    301.16358   -1168.6031    6416.7686    11682.063    1819.3946 
   47600    303.47931    -1166.079    6476.4408    11793.732    1793.0552 
   47700    299.46805   -1170.8819     6361.134    11587.928    1839.6048 
   47800    300.40179   -1165.1516    6356.4757    11608.948    1908.8925 
   47900    297.67862   -1158.7375    6288.4413    11489.151    1785.3932 
   48000    297.78186   -1161.5773     6525.715     11725.79    1850.0999 
   48100    300.31813   -1163.2998    6479.0445    11731.581     1902.542 
   48200    299.29403   -1163.4561     6254.582    11485.084    1866.8855 
   48300    297.65578    -1162.462    6390.4194    11586.916    1945.2336 
   48400    305.05227   -1162.3435    6420.4091    11775.039    2000.4364 
   48500    297.90746    -1161.594    6326.0278     11528.77    1898.8547 
   48600    300.83098   -1165.3633    6474.8339    11736.263    1931.4492 
   48700    299.86081   -1157.0599    6519.0527    11768.059    1966.2404 
   48800    297.96716   -1163.8463    6355.4281    11557.193    1889.7674 
   48900    301.54347   -1156.4272    6423.7916    11709.378     1914.958 
   49000    305.18979   -1155.7028    6349.7859    11713.995      1893.33 
   49100    297.59455   -1154.7888    6471.5501    11674.412    1946.5621 
   49200    303.79431   -1146.5767    6382.8467    11726.369    1862.0611 
   49300    297.28774   -1151.2122    6408.5144    11608.399    1816.1402 
   49400    302.43521   -1152.7918    6494.4203    11802.693    1900.1707 
   49500    300.84027   -1148.5117    6459.7368    11738.216    1894.6736 
   49600    292.94613   -1145.2574    6470.1839    11583.271    1852.1318 
   49700    300.54187   -1150.3304    6414.7799    11685.065    1847.2515 
   49800    302.63086   -1149.5894    6391.7612    11707.416    1820.5333 
   49900    298.23903   -1144.4375    6433.6247    11660.607    1840.5779 
   50000    302.66395   -1147.5248     6394.171    11712.597    1788.8096 
   50100    302.23637   -1151.3212    6374.1226    11679.618    1825.6668 
   50200    297.22985   -1146.0085    6356.3848    11560.236    1862.2939 
   50300    297.49642   -1145.0891    6496.3122    11706.778    1876.4126 
   50400    303.32792   -1150.1331    6443.1639    11773.166    1909.0574 
   50500    297.75315    -1146.882    6351.6495    11565.807    1811.2509 
   50600    296.77797   -1150.6908    6452.3413    11641.856     1860.394 
   50700    304.09803    -1154.704    6521.2008    11863.085    1869.5495 
   50800    296.46032   -1153.4009    6388.2009     11568.22    1822.0033 
   50900      303.257   -1159.8604    6420.5855    11739.346    1863.2711 
   51000    297.35648   -1155.7516    6289.0196    11485.833     1864.418 
   51100    304.51998   -1155.6249    6443.3434    11793.321    1879.5356 
   51200    297.45236   -1155.1559    6506.9634    11706.421    1870.8452 
   51300    298.77261   -1152.3737    6446.4087    11676.853    1842.0014 
   51400    301.07169    -1159.778    6264.7737     11536.93    1824.7934 
   51500    297.89013   -1159.5971    6371.5473    11575.916    1851.7437 
   51600    299.14493   -1158.7217    6367.9649    11600.016    1820.0489 
   51700    298.46824   -1157.2822    6563.5376    11782.571    1913.9169 
   51800    297.60488   -1162.5112    6443.4163    11638.777     1858.426 
   51900    301.46896    -1159.739    6343.1377    11623.821    1836.5258 
   52000    297.69343   -1154.0983    6308.2583    11513.923    1766.1416 
   52100    300.07151   -1152.0749    6568.8949    11827.387    1857.5809 
   52200    297.92082   -1153.1549    6445.9469    11657.413    1823.5472 
   52300    297.84657   -1154.4991    6334.7694    11543.305    1845.6516 
   52400    300.67437   -1154.0725    6388.1568    11657.531    1769.0666 
   52500    294.32982    -1148.689     6425.103    11564.319    1798.5421 
   52600    302.14251   -1152.5993    6373.2235    11675.435    1824.9331 
   52700     296.9012   -1152.2229    6483.9333    11674.549    1818.1023 
   52800    304.44636   -1144.8709    6418.6523    11777.811    1870.7569 
   52900    295.30031    -1147.239    6277.7501    11439.149    1820.5675 
   53000    297.61949    -1148.855     6471.616    11680.945    1877.9678 
   53100    302.89865   -1153.6998    6488.0385    11805.304    1861.1499 
   53200    300.37809   -1153.9444    6438.1824    11701.355    1894.3847 
   53300    300.52351   -1154.0054    6350.3035    11616.522    1850.4667 
   53400    299.79151   -1150.7584    6325.0438    11578.871    1856.0125 
   53500    297.50518   -1154.7292    6401.4996    11602.512    1866.2434 
   53600    305.39602   -1160.7334    6479.8382    11843.422    1892.9073 
   53700    299.08912   -1157.2156    6404.4168    11636.781    1839.1003 
   53800    299.98844   -1163.9463    6398.4094    11643.256    1822.9524 
   53900    305.33447   -1163.6791    6400.4434    11759.767    1841.3557 
   54000    297.76648   -1162.1366    6435.5924     11634.78    1855.2366 
   54100     304.4489   -1162.8869    6384.9146    11726.111    1880.7302 
   54200    302.58279   -1157.0766    6406.1351    11713.276    1851.6553 
   54300    299.23891   -1159.3731    6402.0975    11635.505    1862.4601 
   54400    297.70935   -1162.0518    6382.7195    11580.771    1855.9462 
   54500    305.43104   -1159.4543    6514.3126    11879.924     1917.374 
   54600    294.52397   -1162.1497    6352.5133    11482.416    1848.1279 
   54700    302.60055   -1160.0052    6366.2388     11670.83    1884.0052 
   54800    301.61997   -1163.9387    6351.6776    11631.387    1842.1902 
   54900    301.79503   -1162.2961    6479.9874    11765.079    1898.8218 
   55000    302.87825   -1158.0243    6441.4977    11754.003     1842.856 
   55100    300.15748   -1154.7351     6468.617    11726.286    1896.9031 
   55200    301.36597   -1154.4121    6254.7678    11538.577    1848.3169 
   55300    298.39177   -1151.7291    6375.1977    11598.151    1892.2462 
   55400    301.97703    -1148.564    6570.8974    11873.609    1894.5676 
   55500    303.09374   -1146.8604      6380.63    11708.902    1810.8419 
   55600    295.84137   -1142.3031    6409.5498    11587.444    1921.2428 
   55700    296.43917   -1146.0489    6367.2001    11554.119    1867.2046 
   55800    301.95108   -1142.2304    6543.2743    11851.765    1915.9521 
   55900    304.64596   -1144.0987    6451.1747    11815.369    1849.9614 
   56000    300.10423   -1142.7718      6444.51    11713.004    1839.6611 
   56100    301.97766   -1144.2559    6380.3802    11687.414    1788.4871 
   56200    303.29122   -1144.2856    6384.4337      11719.5    1812.9751 
   56300    300.25252   -1140.8533    6522.5083    11796.089    1893.0727 
   56400    297.17621   -1137.4156    6467.1858    11678.484    1875.9919 
   56500    302.02475   -1150.4072    6379.4716     11681.36    1829.8011 
   56600    302.80513   -1148.3315    6406.8354    11727.471    1930.9784 
   56700    296.88083   -1145.0131    6487.3192     11684.71    1957.4874 
   56800    298.69538    -1151.494    6395.1744    11624.849    1906.1335 
   56900    300.35402   -1153.4617    6343.2453    11606.386    1916.1853 
   57000    299.95531    -1151.758    6443.2968    11699.624    1975.7384 
   57100    302.35919   -1151.9456    6460.6323    11768.127    1933.1115 
   57200    292.07322   -1153.4473    6460.6811     11546.93    1866.7894 
   57300    302.57597   -1159.6644    6364.7538    11669.161    1838.1732 
   57400    299.75684   -1159.4217    6301.3759    11545.799    1851.4749 
   57500    308.68738   -1154.0747    6536.6964    11977.254    1889.5281 
   57600    298.36601   -1161.7865    6594.1038    11806.449    1957.2748 
   57700    298.06583   -1159.7341    6389.3029    11597.288    1884.4716 
   57800    305.91004   -1154.9437    6363.4434    11743.798    1916.4664 
   57900    300.32697   -1146.7204    6298.1849    11567.489    1980.2843 
   58000    300.39309   -1152.9056    6373.3738    11637.906    1951.9566 
   58100     298.2134   -1155.9702    6405.9543    11620.856    1922.9675 
   58200    299.21002   -1159.3275    6474.5098    11707.345    1896.7618 
   58300    300.79952   -1156.0966    6476.9368     11746.96    1900.9019 
   58400    301.05492   -1156.6457     6388.486    11663.417    1877.9282 
   58500    294.83341   -1158.4221    6363.2096    11503.451    1882.6529 
   58600     302.6264    -1146.227    6431.1052    11750.027    1914.5906 
   58700    298.38469   -1149.1059    6529.0687    11754.494    1925.4149 
   58800    296.45228   -1143.7849    6448.6297    11638.093    1824.2347 
   58900    303.55185   -1145.9291    6372.5916    11711.582    1888.5114 
   59000    299.20175   -1147.1675    6279.8257    11524.644    1880.3068 
   59100    301.65004   -1142.2889    6449.7944    11751.796    1929.9954 
   59200     300.6091   -1146.6377    6396.1263    11671.541    1830.7178 
   59300    301.20482   -1141.2456    6484.2115    11777.745    1944.7509 
   59400    300.14525   -1144.6938    6404.1691    11671.618    1877.5225 
   59500    297.02808   -1140.9626    6427.0417    11631.628    1842.4654 
   59600    300.70023   -1143.6265    6434.7039    11715.076     1901.611 
   59700     295.8626   -1145.8589     6483.388     11658.18    1936.3104 
   59800    301.22667   -1144.8135    6532.1614    11822.593    1904.5808 
   59900    299.33345   -1145.1353    6382.0452     11631.71    1887.2516 
   60000    298.36641   -1147.1219    6456.3367    11683.355      1981.55 
   60100    304.95346   -1148.2433    6436.1525    11802.772    1925.9468 
   60200    300.63916   -1149.0888    6383.9158    11657.521    1914.0333 
   60300    300.97739   -1153.3535    6338.2458    11614.812    1900.0511 
   60400    297.09751   -1156.5973    6458.3114    11648.747    1863.4402 
   60500    302.40523   -1156.2681    6438.1748     11742.33    1862.1268 
   60600    296.13404   -1152.3339    6367.8012    11541.917    1835.3676 
   60700    305.57143   -1161.3596    6366.6529    11733.358    1860.4521 
   60800    298.69319   -1162.0228    6380.4296    11599.529     1856.788 
   60900    303.71054   -1157.2478    6373.1525    11704.214    1882.4599 
   61000     296.9746   -1164.2095    6356.4205    11536.618    1827.1018 
   61100    300.14071   -1157.2533    6433.6701    11688.462    1910.4642 
   61200    301.53745   -1160.2763    6460.7102    11742.319    1914.6701 
   61300    303.01074   -1158.1647    6423.0699    11738.265    1889.6259 
   61400    297.06822   -1160.5165    6383.7989    11569.689    1935.6019 
   61500    296.01654   -1158.8133    6303.7767    11468.903    1891.6695 
   61600    300.57063   -1158.3642    6401.0825    11663.949     1888.802 
   61700    296.36011   -1158.7935    6397.6991    11570.185    1840.3374 
   61800     299.9266   -1150.7101    6637.8643    11894.626    1940.8443 
   61900    305.19692   -1150.6843    6421.7016    11791.081    1911.2802 
   62000    296.86299   -1149.8454    6307.2928     11499.47    1890.3245 
   62100    300.74493   -1150.8526    6366.8815    11640.983    1926.2717 
   62200     302.1235   -1150.8966    6499.4164    11802.925    1966.3425 
   62300    296.02731   -1148.4541    6474.6976    11650.413    1905.8604 
   62400    301.96113   -1145.9992    6457.7174    11762.654    1921.0302 
   62500    298.89557   -1143.4462    6429.3068    11671.306    1897.9383 
   62600    303.08372   -1143.0065    6407.3153    11739.227    1867.3944 
   62700    297.32492   -1144.1537    6450.7983    11658.535    1829.0069 
   62800    298.78819   -1142.7594    6505.2558    11745.648    1872.0712 
   62900    299.49016   -1142.9221    6442.4817    11697.707    1817.8251 
   63000    304.19708   -1144.0285    6386.6807    11741.356    1829.4037 
   63100    305.57683    -1148.736    6395.1786    11774.623    1793.3722 
   63200    300.34189   -1148.2057     6499.375    11767.513    1832.5727 
   63300    300.72977   -1145.6146    6457.6766    11736.692    1837.3347 
   63400    302.46951   -1142.2965    6382.1582    11701.659    1790.5013 
   63500    298.35577   -1147.3644    6386.3058    11612.855    1850.6746 
   63600    301.71517   -1151.5122    6386.3535    11680.523    1868.9629 
   63700    294.09698   -1149.1346    6406.3237     11540.12    1840.0662 
   63800    303.01515    -1154.268    6476.2617    11795.447    1937.3588 
   63900    301.81105   -1153.5246     6499.456    11793.661    1934.9975 
   64000    296.42946   -1158.0394    6353.0705    11527.792    1958.1163 
   64100    300.01614   -1159.8624    6374.2504    11623.772    1908.1214 
   64200    303.86206   -1151.0516    6392.9713    11733.466    1853.2509 
   64300    297.54976   -1155.8735    6491.1448    11691.965     1869.517 
   64400    300.65776    -1153.395    6336.0306    11605.727    1876.6097 
   64500    299.64969   -1160.5103    6329.4638    11570.509    1902.3213 
   64600    303.28479   -1152.9547    6367.8637    11694.123    1867.0631 
   64700    300.18778   -1158.5295    6359.2334    11613.755    1878.2674 
   64800    297.98926   -1155.4667    6591.2818    11801.899    1915.1732 
   64900    300.82915   -1154.6895    6480.5909    11752.655    1821.6994 
   65000    298.60788   -1152.7847    6363.5662    11590.081    1912.9478 
   65100    299.86516   -1152.6949    6347.0548    11600.519    1886.1668 
   65200    302.03777   -1145.6666    6493.7102    11800.617    1909.4606 
   65300    298.70699   -1147.8261    6526.1725    11759.763     1967.837 
   65400    302.77587   -1149.9715     6328.078    11646.448    1883.2904 
   65500     296.0458     -1148.16    6388.3881    11564.792    1854.9376 
   65600    301.59778   -1144.6198    6450.4178    11748.972    1838.8894 
   65700    300.05485   -1148.5397    6462.9934    11724.665    1909.0852 
   65800     304.1017   -1143.2253    6454.4895     11807.93    1928.3679 
   65900    298.22782   -1146.5639     6348.813    11573.429    1849.8772 
   66000    294.58818   -1141.5299    6410.2614    11562.156    1892.9453 
   66100    299.38852   -1138.8718    6476.4537    11733.558    1897.6014 
   66200     302.3943   -1142.3447    6437.3274    11755.173    1842.3523 
   66300    303.49597   -1146.0141    6500.6025    11838.314     1971.979 
   66400    298.71927   -1146.4319    6411.6686    11646.916    1928.6635 
   66500    303.44072   -1150.9643    6353.5956    11685.177    1863.0022 
   66600    298.06763   -1149.3004    6472.6821    11691.139     1885.203 
   66700    296.81296   -1149.7725    6495.7946    11686.976    1975.5577 
   66800    295.94239   -1149.1045    6311.8393     11485.09    1888.6612 
   66900    301.62934   -1149.1464    6360.6849    11655.387    1908.0062 
   67000    296.78324   -1151.8937    6494.6921    11683.117    1896.8916 
   67100    296.85351   -1146.9425    6488.5203    11683.398    1842.9386 
   67200     302.6719   -1158.1573    6339.8464     11647.81    1846.8411 
   67300    298.91556   -1157.6165    6291.7144     11519.97    1881.6729 
   67400    308.35214    -1156.776    6468.5779    11899.272    2001.2441 
   67500    300.17521   -1159.5107    6595.2935    11848.566    1953.3096 
   67600    298.76939   -1164.9194    6448.3754    11666.205    1879.4774 
   67700    300.37992   -1160.2545    6314.6766    11571.578    1927.2862 
   67800     298.3996   -1160.3991    6377.6144    11592.065    1914.6506 
   67900    303.43797   -1153.6733    6413.7408    11742.554     1962.854 
   68000    301.02581   -1151.5675    6421.1976    11700.585     1935.794 
   68100    298.19424   -1155.0552    6434.9752    11650.382    1883.3503 
   68200    299.81748   -1162.6397    6382.6226    11625.123    1908.1257 
   68300    297.49312   -1157.2147    6439.9355    11638.205    1950.6755 
   68400    300.68666   -1161.3693    6376.3977    11638.738    1867.0157 
   68500     299.0427   -1155.8048    6470.6586    11703.442    1860.0792 
   68600    300.15658   -1152.9456    6451.4792    11710.918    1871.0682 
   68700    295.92435   -1150.9064    6377.9724    11549.036    1845.8205 
   68800    303.00867   -1143.3694     6491.427    11821.373    1897.2103 
   68900     299.3466   -1148.8248    6248.6469    11494.903    1845.7601 
   69000    299.16087   -1141.9489    6371.4461     11620.61    1850.7952 
   69100    302.76672   -1142.1216    6419.2298    11745.255    1811.2102 
   69200    297.07381   -1146.6845    6481.4113    11681.253    1801.8753 
   69300    303.43318   -1147.3644    6579.2531    11914.273    1912.6868 
   69400    299.73672   -1144.7187    6349.1255    11607.822    1881.3432 
   69500    302.45916   -1148.2068     6376.648    11690.017    1911.8836 
   69600    299.60841   -1146.7171    6523.2149    11777.172    1922.1577 
   69700    299.83474   -1143.3788    6488.9817    11751.112    1882.6914 
   69800    300.42424   -1150.2684    6380.8759     11648.71    1902.7222 
   69900    297.64251    -1145.333    6517.0221    11730.364     1912.929 
   70000     307.0968   -1148.9144    6390.8636    11802.601    1914.2262 
   70100    299.27133   -1150.9028     6398.382    11640.952    1906.9402 
   70200    298.03408   -1146.4126     6427.202     11647.83    1933.3162 
   70300    299.62784   -1147.6368    6394.6975     11648.15    1830.3652 
   70400    296.26441   -1154.5981    6347.9905    11522.627    1873.7452 
   70500    303.05754    -1156.125    6412.3336    11730.568    1929.3882 
   70600    300.02048   -1157.6893    6473.9457    11725.734    1880.7984 
   70700    297.09076   -1158.9461    6422.2468    11610.189    1845.7002 
   70800    302.76412   -1162.5331    6472.3294    11777.887    1916.2072 
   70900    300.16067   -1157.5388      6401.37    11656.303    1900.8381 
   71000    296.29968   -1157.8896    6383.1453    11555.244    1898.4945 
   71100    304.76398   -1156.8905    6393.5775    11747.502    1935.8388 
   71200    297.29158   -1149.7434    6304.9806    11506.416    1838.9365 
   71300    300.62977   -1154.6843     6385.557    11653.366    1861.5826 
   71400    300.07575   -1144.9688    6434.6972    11700.386    1917.5963 
   71500    301.17622   -1153.0323    6397.1813    11678.317     1936.016 
   71600    302.19009   -1156.2734    6363.1796    11662.734    1874.5816 
   71700    300.79191   -1154.0944    6446.7405    11718.604    1891.6259 
   71800    299.09789   -1150.5285    6456.4148    11695.654    1892.8539 
   71900    300.85925   -1153.6376     6383.459    11657.217    1881.9176 
   72000    298.90428   -1150.9854    6444.1958    11678.842    1908.7064 
   72100     296.3783   -1149.0459    6406.5342    11589.156     1894.862 
   72200    300.08349    -1149.856    6383.1487    11644.116    1889.2879 
   72300    300.65722   -1150.1706    6486.7014    11759.611    1938.8087 
   72400    301.45261   -1143.0538     6387.353    11684.372    1896.5624 
   72500    304.29568   -1147.3971    6471.0051    11824.418    1905.5538 
   72600    298.14742   -1148.9229    6519.4842    11740.023    1934.2836 
   72700    297.62647   -1140.9006    6441.6485    11659.081    1868.2209 
   72800    300.75275   -1140.7308    6375.1375    11659.528     1895.958 
   72900    296.61475   -1146.4152    6437.8935    11628.197    1918.0513 
   73000    299.15992   -1145.8978    6465.6264    11710.821     1848.861 
   73100      300.701   -1147.3973     6462.311    11738.929    1873.0262 
   73200    299.05809   -1149.7567     6449.419     11688.58    1911.4703 
   73300    299.04093   -1153.1249    6383.7714    11619.197    1889.8696 
   73400     306.1118   -1155.1659    6347.7983    11732.241    1898.8587 
   73500    303.33371   -1157.3977    6414.1224    11736.984      1930.59 
   73600    300.78926   -1154.5583    6462.2249    11733.568    1919.6644 
   73700    298.12251   -1152.7391      6409.66    11625.851    1951.5393 
   73800    297.18132   -1155.1228     6423.572    11617.272    1963.1842 
   73900    299.44666    -1160.768    6182.0684    11418.519    1895.7141 
   74000    297.81992   -1154.4926    6411.2924    11619.265    1945.1154 
   74100    298.56255   -1157.2291    6441.6911    11662.793    1876.5529 
   74200    302.44669   -1159.8458    6338.4754    11639.939    1938.8165 
   74300    299.45724     -1163.37    6285.4243    11519.499    1825.7603 
   74400    298.60432   -1165.7402    6320.9455    11534.428    1794.5378 
   74500    301.80197   -1152.6082    6512.0109    11806.939    1909.3097 
   74600    297.29341   -1147.7398    6458.3906    11661.868    1904.0626 
   74700    300.66589    -1158.601    6332.4118    11597.076    1862.8911 
   74800    296.05366   -1159.1244    6346.8942    11512.502    1880.6282 
   74900     303.2381   -1157.3712    6458.3856    11779.231    1949.3797 
   75000    301.70859   -1153.2815    6395.8761    11688.136     1909.085 
   75100    295.44529   -1151.8609    6445.5701    11605.444    1929.9805 
   75200     295.6767   -1153.2096    6403.1139    11566.583    1901.8158 
   75300    302.29635   -1153.5717    6387.7412    11692.267    1855.5284 
   75400    297.61791   -1149.3788     6384.854    11593.625    1815.0645 
   75500    301.83074   -1147.3568    6568.5199    11869.314    1956.3532 
   75600    297.66869   -1151.1843    6370.5567    11578.607    1858.3281 
   75700    303.02105   -1145.1003    6428.4367    11756.916    1891.5326 
   75800    298.44151   -1143.9233    6533.5933    11765.415    1977.3017 
   75900    306.42428   -1144.3304    6395.7569    11797.711    1912.9734 
   76000    297.27729   -1146.7234     6403.773    11607.923    1848.1685 
   76100     302.7301   -1146.6658    6606.2631    11926.961    1948.7102 
   76200    299.93956   -1146.0609    6430.3103    11691.998    1874.3671 
   76300    298.62998   -1149.3401    6392.6053    11623.037    1900.3766 
   76400    295.54286   -1151.5194    6454.2474    11616.548    1876.0502 
   76500    298.73191   -1151.1144    6472.1211    11702.956    1917.7806 
   76600    302.19942   -1151.7839    6345.8997    11650.143    1848.2491 
   76700    295.97021   -1159.1931    6479.3788    11643.135    1925.9559 
   76800    304.28785   -1157.7687    6498.8831    11841.757    1982.1579 
   76900    301.57146   -1162.0447    6408.3431     11688.91    1944.9937 
   77000    306.50535   -1156.4501     6271.893    11663.459    1878.1363 
   77100      297.278   -1158.8595    6435.0345    11627.063    1925.4609 
   77200    303.93648   -1154.1069     6478.651    11817.681    1903.0736 
   77300    297.10473   -1150.8258    6453.5741    11649.935    1953.2301 
   77400    297.64624   -1163.7174     6396.752     11591.79    1877.8794 
   77500    296.10481    -1163.451     6399.937    11562.311    1885.6215 
   77600    298.77202   -1166.1643    6430.9719    11647.613    1899.7741 
   77700     301.0334    -1155.625    6336.6777    11612.169    1885.6649 
   77800    301.23057   -1155.1757     6426.513    11706.666    1944.2113 
   77900    303.07939   -1158.7223    6286.3297    11602.434    1895.2436 
   78000    301.51784   -1159.9339      6368.95    11650.482    1901.9575 
   78100    301.55182   -1157.4892    6500.0675     11784.77    1956.4781 
   78200    296.83573   -1152.4667    6523.0912    11712.065    1982.3738 
   78300    303.96981   -1158.0996    6339.7021    11675.451    1887.9628 
   78400    296.20586   -1154.4015    6460.6519    11634.234    1925.1288 
   78500    304.59238   -1147.3602    6451.7773    11811.566    1945.6859 
   78600    299.16662   -1151.3869    6310.8141    11550.663     1839.076 
   78700    298.22594      -1149.9    6492.3251    11713.565    1916.6488 
   78800    302.99733   -1150.7731    6452.6642    11774.964    1865.4145 
   78900    303.71857   -1147.8262    6436.8349     11777.49    1824.3165 
   79000    297.90752   -1143.7998    6489.7916    11710.329    1862.9231 
   79100    304.44486   -1146.4917    6388.3864    11745.892    1852.4233 
   79200    295.68206   -1144.1846    6337.0499    11509.659    1829.5109 
   79300    300.34463   -1147.1015    6505.8399    11775.141    1887.4674 
   79400    301.19769   -1144.0434    6436.7527    11727.336    1834.4901 
   79500    291.49155   -1144.5973    6306.5034    11389.176    1737.0151 
   79600    297.14924   -1153.3975    6442.0501     11636.79     1817.046 
   79700     302.9865   -1147.1989    6488.6506    11814.293    1899.5383 
   79800    298.38228   -1150.5014    6368.5689    11592.547    1891.9599 
   79900    302.84231   -1141.9449    6381.5893    11709.406    1917.3701 
   80000     300.4807   -1148.1746    6370.0819    11641.216    1823.8043 
   80100    301.51462     -1148.75    6477.7782    11770.425    1906.6388 
   80200     298.1015   -1160.7359    6408.7325    11616.478    1844.0498 
   80300    305.28476   -1162.3563    6333.1707    11692.755    1822.3828 
   80400    295.63042   -1159.1605     6424.816    11581.346    1839.8993 
   80500    301.96413    -1154.837    6420.4311    11716.594     1929.862 
   80600    301.44689   -1157.6999    6337.0237    11619.274    1843.0133 
   80700    300.77636   -1157.8901    6370.1524    11637.888    1827.0973 
   80800    292.28139   -1156.7013    6424.2115    11511.654    1822.1711 
   80900    296.82035    -1159.705    6400.0652    11581.472    1875.9443 
   81000    297.25895   -1158.1286     6495.531    11687.884    1867.4821 
   81100    301.68595   -1159.3983    6402.1579    11687.817    1928.9804 
   81200    300.79541   -1159.5474    6375.8226    11642.308    1961.6717 
   81300    300.31633   -1159.7811     6409.959    11665.975    1964.5836 
   81400    304.20343   -1153.6152    6457.1477    11802.372    1986.6499 
   81500    303.17362   -1157.1988    6350.8072    11670.448    1925.3669 
   81600    300.48444   -1158.3787    6452.9437    11713.954    1983.2348 
   81700     297.6062   -1155.1112    6399.4598    11602.249    1949.2887 
   81800    299.96845   -1154.1899    6415.8541     11670.03    1907.5442 
   81900    304.49459    -1157.312     6449.287    11797.035    1993.7821 
   82000    297.58966   -1151.3346    6360.5131    11566.725    1881.2392 
   82100    299.84715   -1152.5847    6397.5626    11650.752    1912.2646 
   82200    303.16565   -1152.6996    6400.4605     11724.43    1873.3425 
   82300       298.72   -1148.4998    6425.1479    11658.343     1868.883 
   82400     299.8075   -1148.9636    6457.4102    11713.374    1884.0538 
   82500    296.09047   -1152.4218    6453.9187    11627.016    1888.1744 
   82600    297.92604   -1149.0953    6466.0441    11681.682    1890.0803 
   82700    298.80568   -1145.6963    6520.3784    11758.207    1881.8516 
   82800    304.72211   -1153.6044    6421.7836      11778.1      1875.12 
   82900    299.26973   -1157.2585    6471.9626    11708.143    1906.5866 
   83000    298.32926   -1155.1403    6403.2742    11621.481    1828.8238 
   83100    303.39296   -1154.4256     6374.907    11702.006    1807.6839 
   83200    296.44157   -1153.1872    6577.3798    11757.212      1910.19 
   83300    298.15413    -1154.372    6527.0269     11742.26    1870.0528 
   83400     300.9895   -1157.5433    6337.8666    11610.502    1817.8123 
   83500    299.13822   -1151.8411    6372.4088    11611.197    1887.0636 
   83600    303.91494    -1148.809    6430.0593    11773.927    1849.9366 
   83700    298.66085   -1147.1232    6461.2562    11694.564    1872.7467 
   83800     297.4441   -1151.3449    6431.8246    11634.916    2028.2341 
   83900    301.92293   -1151.9234     6231.933     11530.13     1960.975 
   84000    300.17895   -1153.6734    6307.1779    11566.367    1838.7775 
   84100    297.02189   -1157.4542    6449.9784    11637.941       1952.3 
   84200    300.33413    -1158.566    6370.1157    11627.728    1928.0795 
   84300    300.45879   -1157.1136    6533.1936    11794.921    1933.5542 
   84400    303.46458    -1156.181    6377.3115    11704.185    1938.0597 
   84500    297.41716   -1158.9198    6182.7878    11377.729    1914.5365 
   84600    303.02385   -1161.4827    6377.0408    11689.198    1901.0776 
   84700    298.14779   -1158.0939     6568.618    11779.994    1946.0825 
   84800    298.31315   -1153.3504    6377.3621    11597.015    1909.3297 
   84900    300.36883   -1154.9877    6350.3521    11612.284    1851.8872 
   85000    300.02031   -1157.7153    6354.2888    11606.047    1857.3445 
   85100    303.11913   -1158.6547    6401.0531    11718.074    1944.9498 
   85200    299.02855   -1155.4336    6440.5363    11673.389    1939.2475 
   85300     300.1808   -1154.4384    6383.8351    11642.299    1873.2419 
   85400     296.0405    -1153.082    6467.6237    11638.993    1940.4746 
   85500    303.63014    -1154.135    6433.1054    11765.562    1931.5285 
   85600    297.97889   -1155.3816    6486.8737    11697.354    1902.1785 
   85700    302.17599   -1148.9561    6410.4372    11717.007    1845.3263 
   85800    297.13958   -1149.7547    6478.8297    11677.006    1884.4192 
   85900    299.63657   -1157.2336    6371.5308    11615.573    1843.4431 
   86000    300.21382   -1150.2005    6332.3343    11595.741    1891.9746 
   86100    293.11034    -1147.534      6476.19    11590.509    1930.9708 
   86200    302.80625   -1151.7559     6422.091    11739.326     1861.227 
   86300    299.32831   -1147.6575    6404.8083    11651.841    1883.8687 
   86400    302.97304   -1156.7269    6342.6239    11658.451     1912.381 
   86500    298.66652   -1154.3732    6499.9929    11726.172    1928.4551 
   86600    299.72056   -1149.8269    6415.0465    11668.289    1883.5468 
   86700    302.06633   -1154.9953    6390.0788    11688.267    1940.6156 
   86800    297.51316   -1153.3361     6434.651    11637.227    1912.6173 
   86900    304.96576   -1149.0372    6474.1699    11840.258     1911.775 
   87000    298.15862   -1148.4859    6399.3371    11620.553    1917.1741 
   87100    297.70245   -1155.6534     6358.519    11562.822    1940.4665 
   87200    303.43917   -1155.3745    6403.0655    11730.203    1879.7044 
   87300    298.12715    -1153.129    6457.0536    11672.954    1958.0502 
   87400    295.74104   -1152.4427    6465.1473    11630.758    1974.1677 
   87500    302.23809   -1158.4701    6358.3017    11656.685    1896.4584 
   87600    303.42416   -1158.8851    6354.0396    11677.346    1920.0708 
   87700    296.78343   -1151.1199    6510.1415    11699.344    1932.9549 
   87800    301.50187   -1152.7348     6530.743    11819.133    1869.3147 
   87900    300.22059   -1151.2968    6317.5704    11580.026    1877.7041 
   88000    295.09603   -1155.9176    6333.5044    11481.861    1943.9247 
   88100    301.50132     -1155.74    6402.6883    11688.061    1956.9449 
   88200    303.68055    -1152.185    6506.4046    11841.888    1988.0132 
   88300    298.29364   -1154.6481    6421.3711    11639.309    1938.3888 
   88400    299.30657   -1155.8154    6364.2973    11602.707    1866.6236 
   88500    308.50528   -1154.8601    6421.5882     11857.47    1905.8609 
   88600    295.51902   -1161.4863    6448.3133    11600.138     1965.063 
   88700    302.01913   -1156.7225    6512.1048    11807.558    1935.1092 
   88800    298.57749   -1154.5642     6436.348    11660.434    1904.9994 
   88900    302.19145   -1150.3889    6425.9116    11731.379    1872.2322 
   89000    299.11725   -1151.1286    6411.9701    11651.023    1878.9344 
   89100    294.07999   -1149.7065    6490.8717    11623.733    1948.1838 
   89200     303.1278   -1152.0696    6357.1726    11680.963    1899.5984 
   89300    299.99914   -1155.3758    6442.7276    11696.373    1897.8935 
   89400    300.73989   -1151.3987    6520.3698    11793.817    1800.4758 
   89500     299.6237   -1156.9562    6571.0826    11815.127    1886.4866 
   89600    298.57154    -1158.096    6357.4742    11577.901    1853.3301 
   89700    305.84882    -1154.886    6347.7702    11726.875    1889.2256 
   89800    296.53334    -1155.272    6410.2535    11589.961    1902.6275 
   89900    298.02564   -1156.7544    6502.6923    11712.798    1952.4117 
   90000    302.39387    -1162.298    6510.8971     11808.78    1907.6222 
   90100    299.25955   -1164.2197    6389.7268    11618.728    1873.4396 
   90200    301.13177   -1159.5538    6375.9565    11649.621    1878.3118 
   90300    295.42142   -1163.5018    6497.7196    11645.443    1931.0849 
   90400    298.67214    -1164.918    6394.0811    11609.835    1951.1701 
   90500    302.10548   -1161.4666    6416.7747    11709.328    1962.2754 
   90600     301.9897   -1165.7111    6390.8605    11676.696    1917.8336 
   90700    298.16056   -1171.4852    6359.7699    11558.028    1922.1774 
   90800    300.74067   -1168.7865    6404.8191    11660.896    1919.2095 
   90900    297.92607   -1169.2741    6392.3168    11587.776    1951.8885 
   91000    295.46929   -1170.6283    6398.5042    11540.124     1935.892 
   91100    303.63727   -1169.4093    6335.5285    11652.863    1845.1156 
   91200    304.72539   -1168.5256    6481.3038    11822.769     1921.494 
   91300    296.88472   -1163.7677    6479.0247    11657.743    1965.0428 
   91400    301.38733    -1167.136    6294.5636    11566.106    1944.2106 
   91500    299.68009   -1158.0644    6325.6865    11569.828    1962.0275 
   91600     297.6302   -1163.6167    6412.9861    11607.782    1878.9284 
   91700    304.73528   -1168.0506    6455.7123    11797.863    1921.3064 
   91800    297.70444   -1164.8779    6364.1243    11559.245    1845.2843 
   91900    299.81856    -1164.355    6479.1212     11719.93     1902.649 
   92000    301.32462   -1164.3087    6385.9159    11658.945    1799.8723 
   92100    294.83049   -1157.9077    6491.5903    11632.284    1934.2329 
   92200     302.3106   -1154.3722     6331.359    11635.389    1895.2013 
   92300    300.78063   -1149.7748    6493.3093    11769.251    1924.3428 
   92400    299.91278   -1149.9429    6390.2197    11647.453    1882.6126 
   92500    299.98766   -1150.2324    6377.4156    11635.959    1917.2624 
   92600    299.53615   -1148.5905    6556.1192    11806.659    1956.0522 
   92700    302.72777   -1146.0268    6388.1549    11709.442    1859.6973 
   92800    298.56199   -1140.5421    6359.7926    11597.569     1954.124 
   92900    297.84147   -1145.4795    6404.0809    11621.527    1857.1346 
   93000     298.7403   -1152.1957    6440.8274     11670.76    1813.2073 
   93100    299.34448   -1144.6756    6446.8667    11697.227    1882.8893 
   93200    304.35773   -1146.2314      6414.16    11770.064    1900.0877 
   93300    295.18705   -1148.7287    6467.4246    11624.914    1822.9683 
   93400    299.44152   -1152.6627    6473.7199    11718.166    1851.5975 
   93500     300.9491   -1150.2929    6395.3758    11674.399    1869.4816 
   93600     296.0864   -1152.5835    6377.3097    11550.158    1847.5674 
   93700    306.79234   -1152.9062    6394.6235    11795.865    1933.2066 
   93800    301.40846   -1165.3912    6304.1314    11577.869    1950.2891 
   93900    297.46399   -1160.9961    6498.2183    11692.084    1963.6053 
   94000    301.37918   -1161.5686    6425.6214    11702.557    1887.4616 
   94100     297.3596   -1166.1745    6430.1732     11616.63    1893.3867 
   94200    300.35547    -1171.628    6369.1907    11614.196    1949.8519 
   94300    299.11233   -1167.1236    6396.9206    11619.873    1942.2122 
   94400    300.80817   -1174.1624    6296.6198    11548.763    1859.9404 
   94500    299.87201   -1176.6143    6405.7001    11635.391    1892.0553 
   94600    299.67657   -1170.0313    6462.5759    11694.675    1878.5493 
   94700    296.14284    -1164.131    6405.3084    11567.815    1874.0207 
   94800    302.71049   -1165.5632    6383.5817    11684.964     1938.717 
   94900    298.44896   -1169.9147    6418.6305     11624.62    1944.2741 
   95000    299.85496   -1166.4494    6330.5143    11570.006    1899.6116 
   95100     299.9128    -1173.375    6369.8086     11603.61    1947.8926 
   95200    301.54585   -1160.8572    6503.2379    11784.445    1943.6167 
   95300     301.4437   -1166.8772    6427.8716    11700.876    1877.5796 
   95400    299.33208   -1159.8507    6437.1824    11672.102     1892.649 
   95500    300.17747   -1163.4919    6385.2807     11634.62    1852.3754 
   95600     297.2765   -1163.4308    6464.8763    11652.302    1865.5987 
   95700    298.76394   -1157.0201    6519.4332    11745.046    1925.5012 
   95800     297.9223   -1153.8053    6359.2545    11570.102    1856.3944 
   95900    296.96293   -1154.5106    6451.0118    11640.659    1875.5604 
   96000    300.54018   -1151.4607    6384.4044    11653.523    1842.1982 
   96100    300.50551   -1147.8972    6406.4405    11678.382    1893.1995 
   96200    296.66974   -1151.4575    6454.5648    11641.001    1919.9352 
   96300    301.96453    -1148.253    6538.2458    11841.002    1948.9956 
   96400    304.06819    -1147.065    6487.7592    11836.645    1942.0636 
   96500     295.5579   -1145.2594    6387.7659    11556.648    1925.3718 
   96600    301.20874   -1148.2881     6421.869    11708.443    2007.1044 
   96700    300.22401   -1144.7257    6449.3133    11718.413    1937.7769 
   96800    297.81522   -1148.9167    6443.4691    11656.918    1899.6034 
   96900    305.41278   -1151.7848    6420.3172    11793.208     1908.761 
   97000    297.76313   -1149.6724     6364.544    11576.124    1809.1156 
   97100     300.4602   -1145.2688    6525.8413    11799.444    1894.5584 
   97200    300.23878   -1155.7451    6396.0376    11654.433    1887.5928 
   97300    298.14503   -1156.3701    6362.0197    11575.061    1857.4313 
   97400    301.12536    -1156.679    6383.4577     11659.86    1892.4081 
   97500    295.66161   -1155.9154     6358.696    11519.137    1877.6589 
   97600    303.73306   -1155.3993    6383.2723    11716.664    1911.9503 
   97700    296.73013   -1154.4277    6458.0304    11642.786     1826.126 
   97800    301.97749   -1158.2807     6396.727    11689.732    1884.3193 
   97900    302.00543   -1156.1689    6419.6598    11715.374    1900.4314 
   98000     300.3862   -1157.1842    6393.7793    11653.885    1819.6284 
   98100    298.70687   -1150.8133    6370.9854    11601.586    1853.1097 
   98200    299.74398   -1154.2547     6434.381    11683.697    1948.2621 
   98300    303.52614   -1156.2337    6506.8008    11834.937    1920.5765 
   98400    298.55141   -1164.1986    6332.4526    11546.347    1846.9737 
   98500    298.56146   -1159.5676    6374.6581    11593.398    1904.7134 
   98600    306.43234   -1154.7375    6420.4772    11812.196    1914.9812 
   98700    302.39566   -1153.0091    6506.3571    11813.567    1952.6125 
   98800    300.37693   -1155.1408    6390.2117    11652.163    1945.6312 
   98900    295.17125    -1152.445    6392.5074    11545.943    1906.1077 
   99000    300.78292   -1158.3003    6457.0871    11724.552    1854.0428 
   99100    301.07471   -1153.1317     6504.092     11782.96    1854.7085 
   99200    296.04973   -1155.2626    6419.6438    11589.029    1870.0736 
   99300     299.8664   -1152.7758    6470.7351    11724.145    1886.1685 
   99400    298.60902   -1150.2523    6483.4787     11712.55    1868.0038 
   99500    296.68229   -1148.2034    6381.4539    11571.412    1848.6915 
   99600    300.98925   -1145.9313    6386.1998    11670.442    1915.3567 
   99700    298.54284   -1151.8974    6413.2343    11639.247    1939.8017 
   99800    300.86463   -1157.4691    6458.1238    11728.166    1981.7847 
   99900    304.05433    -1159.006     6447.734    11784.382    1925.2761 
  100000    302.70258   -1159.0934    6470.7205    11778.403    1858.8631 
  100100    299.60547   -1161.4304    6441.5483    11680.729    1909.5636 
  100200     300.7256   -1161.9683    6398.4283    11661.001    1898.0435 
  100300    300.58268   -1151.9375    6392.0683    11661.618    1889.0236 
  100400     291.5267   -1155.7342    6477.3077    11549.594    1980.0357 
  100500    302.74674   -1158.0383    6376.7025    11686.384    1906.2458 
  100600    300.26756   -1153.2492    6470.9463    11732.453    1922.7108 
  100700    299.75124   -1160.3082    6445.5042    11688.921    1972.0044 
  100800     301.4215   -1161.4299    6355.2127    11633.191    1932.6173 
  100900    298.05851   -1164.9546    6380.2495    11582.858    1899.2895 
  101000    297.87827    -1165.024    6492.6206    11691.309    1934.7635 
  101100    297.53834   -1163.6386    6486.4852    11679.297    1862.8797 
  101200    304.10413   -1162.6517    6437.7397    11771.806    1893.7104 
  101300    299.33342   -1163.6881    6417.6804    11648.792     1937.596 
  101400    297.52634   -1160.5219    6437.4248    11633.097    1899.2298 
  101500    302.06566   -1157.2525    6334.5749    11630.492     1865.659 
  101600    293.33873   -1154.8006     6460.397    11572.328    1895.9992 
  101700    301.57028    -1160.299    6446.0158    11728.303    1906.7186 
  101800    298.34168   -1162.9928    6433.2433    11643.863    1940.7262 
  101900    297.90978   -1161.2589    6429.8633     11632.99     1901.274 
  102000    300.57941   -1156.7282    6448.7479    11713.438    1933.5301 
  102100    293.02115   -1160.2043    6409.6344    11509.377    1868.3763 
  102200    299.19821   -1153.8621    6410.2818     11648.33    1887.0255 
  102300    298.01214    -1151.206    6496.5056    11711.872    1969.1355 
  102400    298.21955   -1157.0146    6389.5794    11603.568    1963.1201 
  102500    299.92789   -1154.0752    6325.2726    11578.697    1909.1003 
  102600    296.63971   -1148.4994    6536.7715    11725.524    1929.4323 
  102700    303.36963   -1153.7526    6371.7891    11699.063    1871.4591 
  102800    301.68472   -1152.4384    6417.0718    11709.665    1875.2588 
  102900    299.61491   -1153.2371    6361.0392    11608.615    1898.5392 
  103000    294.33958   -1155.4976    6433.2758    11565.892    1978.4355 
  103100    304.35172   -1157.7411    6502.8788    11847.145    1936.0507 
  103200    296.58051   -1152.8431    6401.7301    11584.874    1877.8519 
  103300    303.67007   -1154.6637    6380.1009    11712.882     1940.443 
  103400    301.08494   -1155.7998     6473.028    11749.446     1965.414 
  103500    301.80883   -1157.2951    6353.8966    11644.284    1856.4694 
  103600    303.94201   -1163.0922    6418.5224    11748.685    1877.4934 
  103700    302.96959   -1168.3182    6547.5736    11851.736    1899.2681 
  103800    298.12186   -1167.4185    6392.8798    11594.377    1860.4753 
  103900    298.45562   -1164.9782    6411.9014     11622.97    1951.4383 
  104000    304.31178    -1168.574    6308.1332    11640.713    1860.0902 
  104100    291.70398   -1163.2614    6488.0283    11556.575    1918.5137 
  104200    300.24649   -1166.1603    6416.4405    11664.586     1982.748 
  104300     301.2217   -1159.6592    6338.8494     11614.33    1990.6077 
  104400    293.04425   -1165.3348    6429.2278    11524.334    1908.3949 
  104500    299.34412   -1160.9852    6431.6737    11665.716    1893.6857 
  104600    300.87572   -1163.1187    6399.0093    11663.639    1881.9738 
  104700    300.14757   -1160.2495    6370.5203    11622.463    1864.7309 
  104800    296.55988   -1164.3183    6462.1632    11633.392    1889.8024 
  104900    297.23948   -1164.2337    6399.2339    11585.066    1828.7204 
  105000     302.3514    -1155.965    6452.8406    11756.149    1891.2529 
  105100    298.64015   -1156.8236    6398.8074    11621.972    1887.7732 
  105200    299.64269    -1154.044    6377.3368    11624.699    1888.1407 
  105300    300.76196   -1153.8032    6351.1515    11622.666    1946.3173 
  105400    297.98501   -1150.6123    6483.4153    11698.796    1990.6782 
  105500    303.36597   -1149.9448      6414.85    11745.854    1915.0666 
  105600     301.4531   -1149.3947    6428.8421     11719.53    1897.5558 
  105700    301.55666    -1152.278    6487.2821    11777.299    1931.7163 
  105800    297.56477   -1149.8165    6366.1052    11573.303    1847.2769 
  105900    300.60774   -1149.5975    6461.0878    11733.514    1862.1845 
  106000    301.17361   -1146.7294    6552.9556    11840.338    2002.3553 
  106100    294.14535   -1143.6402    6429.4589    11569.783    1875.4909 
  106200    299.28602   -1150.0689    6444.0388    11687.757    1896.7748 
  106300    300.03478   -1146.3325    6375.0527    11638.503    1936.2353 
  106400    298.59728    -1151.115    6376.0979    11604.056    1881.1353 
  106500    301.00802   -1148.2172    6462.9368    11745.294    1864.9572 
  106600    295.31864   -1152.3158    6448.1797    11604.894    1879.6589 
  106700      299.338   -1154.5376    6393.0202     11633.38    1913.9285 
  106800    299.51025   -1155.4925     6340.847    11583.931    1817.8186 
  106900    300.11031   -1162.0249    6452.4093    11701.781    1802.8362 
  107000    299.98348   -1155.2081    6588.2021    11841.681    1929.5439 
  107100    301.45851   -1156.3158    6364.5205    11648.403    1849.5793 
  107200    307.29539   -1160.0832    6325.9391     11730.75    1909.4565 
  107300    297.53253   -1159.2936    6384.0241    11581.056    1963.5135 
  107400    297.97309   -1158.5004    6396.1133    11603.351    1913.3626 
  107500     301.7261   -1160.8103    6451.2319    11736.337    1925.9448 
  107600    294.63072   -1161.1307    6424.1924    11557.395    1894.1264 
  107700    298.99849   -1165.1678    6382.9687    11605.445    1850.0835 
  107800    299.86618   -1165.4387    6445.5562    11686.298    1839.3539 
  107900    300.93271   -1168.2243    6448.7005    11709.442    1858.9064 
  108000    297.06335   -1164.6962    6361.5414    11543.148    1886.3874 
  108100    300.01036    -1168.219    6416.4607    11657.503    1881.8411 
  108200    301.78132   -1154.7683    6428.3173    11720.644     1948.841 
  108300    300.30502   -1158.2637    6314.4167    11571.709    1954.4226 
  108400    298.73497   -1156.5622    6482.7068    11708.159    1962.9068 
  108500    301.85385   -1158.0525    6359.9996    11650.591    1894.1623 
  108600    300.75885   -1159.9214    6374.8793    11640.209    1867.9715 
  108700    299.82751   -1159.0412    6498.7879    11745.101    1874.8199 
  108800     301.0918   -1157.6805    6424.9436    11699.627    1888.3174 
  108900    302.96247   -1157.6364    6367.7704    11682.462    1863.4601 
  109000      300.693   -1156.0925    6480.9364    11748.689      1886.49 
  109100    296.39862   -1153.9528    6501.7561    11679.905    1953.5155 
  109200    300.74286   -1149.2106    6434.6491    11710.348    1911.7201 
  109300    300.93878   -1151.6393    6425.8796    11703.336    1888.1682 
  109400    296.23407   -1155.5166    6409.6548    11582.725    1904.0661 
  109500    304.84212   -1148.5562    6400.5222     11764.45    1919.9839 
  109600    297.64767   -1150.5961    6355.5817    11563.771    1863.0164 
  109700    300.45022   -1151.2581    6437.0293    11704.429    1826.4433 
  109800    294.57575   -1155.7781    6535.4627    11672.843    1892.7651 
  109900    300.36675   -1154.8533    6443.5004    11705.522    1941.9739 
  110000    301.39758   -1158.3529    6391.6712    11672.215    1883.1394 
  110100    297.13635   -1164.2878    6376.9729    11560.547    1862.4764 
  110200    295.60666   -1161.0101    6505.1923    11659.365    1915.5725 
  110300    303.65534   -1161.9751    6455.8564    11781.012    1857.2133 
  110400    300.85792   -1159.5769    6514.8412    11782.632    1903.7005 
  110500    299.24607   -1155.4697    6362.3521    11599.815    1875.0569 
  110600    296.18903   -1166.1241    6396.3172    11557.817    1900.8078 
  110700    305.48427   -1153.5751    6451.9594    11824.587    1945.3431 
  110800    299.03707   -1158.9072    6514.6555    11744.217    1948.0226 
  110900    300.44159   -1161.1394       6285.9    11543.234    1884.1601 
  111000    303.64588   -1164.5538    6388.4463    11710.821    1907.6212 
  111100    299.53253   -1158.9046    6453.8575    11694.006    1904.7151 
  111200    299.13933   -1172.1319    6376.9779    11595.499    1913.8206 
  111300    305.40581    -1166.706     6456.912    11814.733    1932.0861 
  111400    303.51931   -1161.2551    6418.7854    11741.755    1946.3302 
  111500    299.84956   -1165.0922    6270.1707    11510.904    1903.2443 
  111600    298.81934   -1160.7112    6388.9196    11612.025    1943.3251 
  111700    297.60435   -1155.1488     6429.464    11632.175    1921.0189 
  111800    301.15404   -1156.8304    6486.9172    11763.781    1978.5032 
  111900    301.02002   -1153.4077    6437.7018    11715.125    1977.6966 
  112000    300.15023   -1159.9929    6392.8725    11645.129    1927.5752 
  112100     299.5508   -1157.2289     6394.749    11636.963    1898.9902 
  112200    301.80677   -1154.5166    6536.8072    11829.929    1911.5834 
  112300    295.98714   -1155.3308    6452.4778    11620.458    1850.1683 
  112400    298.57665    -1158.561    6460.1403    11680.211    1939.3395 
  112500    301.56595   -1158.9556    6527.4083    11810.946    2034.9406 
  112600    298.10176   -1155.1248    6342.1049    11555.467    1886.9856 
  112700    294.89766    -1154.062    6396.7177    11542.692    1909.6292 
  112800    298.99804   -1163.3843    6397.3276    11621.578    1906.3511 
  112900    300.55855   -1160.9486    6540.6629    11800.687    1958.7329 
  113000    298.59505   -1158.1778    6490.0193    11710.867    1970.0668 
  113100    300.56894   -1163.5639     6344.886    11602.516    1905.4306 
  113200    304.02478   -1165.1227    6496.6117    11826.512    1926.3236 
  113300    299.52223   -1169.9728    6421.9087    11650.769    1823.6098 
  113400     296.9346   -1158.6462    6398.1957    11583.102    1913.6852 
  113500    298.94041   -1167.2708    6437.2344    11656.367    1928.6993 
  113600    301.09374   -1169.9986    6287.9714    11550.378    1875.6502 
  113700    296.98087   -1161.6866    6430.7852    11613.639    1996.1085 
  113800    297.37986   -1168.8927    6404.9464    11589.118    1957.7486 
  113900    301.20706   -1171.2942    6369.3507    11632.883    1908.7273 
  114000    297.43126   -1163.4096    6448.2119    11638.965    1986.4381 
  114100    299.02536   -1170.0555     6443.615    11661.778     1926.441 
  114200    299.78296   -1171.0952    6511.8907    11745.198     1959.974 
  114300    298.87264   -1166.9235    6343.1389    11561.171    1925.5108 
  114400    299.66752   -1159.3877    6375.7733    11618.322    1932.6524 
  114500    302.16778   -1157.3153    6417.4746     11715.51    1888.9109 
  114600    297.53297   -1159.6213    6439.7722    11636.486     1923.415 
  114700    299.98892   -1161.5009    6456.2522    11703.554    1995.4739 
  114800    301.18488    -1160.848    6326.9869    11600.492    1901.4004 
  114900    296.39229   -1160.7605    6342.9972    11514.203    1891.1624 
  115000    299.52409   -1153.8987    6529.9909    11774.965    1972.9025 
  115100    300.61183   -1156.5212    6454.6655    11720.255    1894.9734 
  115200     300.7129   -1150.9106    6403.4639    11676.823    1880.2268 
  115300    299.03916   -1152.0369    6493.0494    11729.525    1994.7774 
  115400    296.31225   -1149.2787    6443.3903    11624.368    1971.8905 
  115500    303.65361   -1149.5966    6387.3829     11724.88    1945.9553 
  115600    299.18979   -1149.3882    6464.6096    11706.952    1939.0914 
  115700     298.8921   -1154.8164    6515.3647    11745.919    1914.6345 
  115800     307.3798   -1153.7697    6397.8696    11810.798    1875.1786 
  115900     294.5246   -1153.1923    6397.3686    11536.242    1884.6598 
  116000    300.43566   -1159.2613    6454.2604    11713.346    1886.1471 
  116100    299.69174   -1162.1933    6416.7108    11656.972    1843.8909 
  116200    304.32712   -1153.4245    6487.6599    11835.717    1950.9371 
  116300    300.58502   -1157.1081    6472.3229    11736.752    1984.7402 
  116400    294.82638   -1158.5478    6353.2277    11493.193    1907.1365 
  116500    302.30552   -1160.6133    6399.1933    11696.874    1907.6966 
  116600    299.39425   -1162.6803    6447.3038    11680.722    1921.4683 
  116700    297.67808   -1168.1109    6479.0581    11670.383    1928.2154 
  116800     302.4439   -1171.4256     6443.872    11733.696    1890.4154 
  116900     306.0205   -1167.2862    6458.4924    11828.865    1933.0429 
  117000    295.71946   -1173.6114    6356.9018    11500.883    1918.7024 
  117100    305.53868   -1169.8717     6444.575    11802.068    1948.0934 
  117200    296.54844   -1164.3201    6376.1531    11547.135    1929.9612 
  117300    304.20482   -1168.6488    6377.9761    11708.196    2033.9244 
  117400     297.3945   -1161.6544      6338.28    11530.003    1958.0811 
  117500    302.19966   -1167.5175    6505.6524    11794.167    2024.8441 
  117600    299.00116   -1172.9127    6417.0668    11631.855     1989.622 
  117700    303.04453   -1173.3715    6362.5976    11663.308    1968.5201 
  117800     300.3545   -1169.5717    6462.7185     11709.76    1996.2659 
  117900    298.15583   -1163.9114    6452.9501     11658.68    2007.4804 
  118000    302.37355   -1163.0318    6260.7365    11557.452    1857.8474 
  118100     298.0212   -1155.1407    6398.9494    11610.574    1867.6275 
  118200    305.62699   -1153.0804    6571.9917    11948.163     1915.238 
  118300    295.70774   -1154.1499    6493.7683    11656.961     1942.339 
  118400    298.07598   -1158.0181    6333.5591    11543.477    1916.3923 
  118500    304.30502   -1151.5992    6458.3955    11807.806    1946.1773 
  118600    298.85645   -1153.1443    6510.3288    11741.794    1938.8793 
  118700    298.73408   -1150.7047    6425.0097      11656.3    1915.0026 
  118800    301.75793   -1148.4805    6489.0704    11787.185     1942.369 
  118900    296.16739    -1150.785    6362.6696    11539.046    1866.5519 
  119000    306.17233   -1152.5681    6371.4303    11759.764     1845.667 
  119100    297.75199   -1151.9101     6539.542    11748.646    1944.8842 
  119200    300.04088   -1150.2499    6430.7452    11690.408    1894.3784 
  119300    301.56368   -1153.9954    6363.0815    11651.531    1868.5856 
  119400    302.62138   -1154.8087    6476.4008    11786.634    1944.8019 
  119500    301.48423   -1158.6231    6473.4075    11755.532     1874.679 
  119600    296.13998   -1157.4985    6498.3065    11667.384    1927.0864 
  119700    297.02771   -1161.5174    6482.7612    11666.785    2005.1409 
  119800    298.22141   -1164.5804    6363.3575     11569.82    1924.2889 
  119900    294.85603   -1163.6952     6429.086    11564.537      1892.54 
  120000    304.38936    -1168.832    6487.7622    11821.742    2003.8733 
  120100    297.43574    -1167.419    6444.8651    11631.704    1904.5922 
  120200    305.97889   -1165.2494    6419.1279    11790.648    1919.5672 
  120300    297.50406   -1162.0522    6475.7581    11669.424     1995.893 
  120400    300.94694   -1168.4289    6217.0424    11477.883     1901.541 
  120500    300.28986   -1169.7166    6384.8187    11630.334    1969.3665 
  120600    302.20534    -1167.991    6486.1364    11774.299    2016.8817 
  120700    296.92903   -1163.0374    6393.5488    11573.945    1919.5155 
  120800    300.31954   -1172.2298    6403.7438     11647.38    1915.4842 
  120900    300.17113   -1165.2934    6381.5898    11628.992    1901.9894 
  121000    301.11635   -1168.9822    6446.1102    11710.017    1934.7993 
  121100    297.73954   -1168.2823    6382.6693    11575.136    1860.4959 
  121200    302.96863    -1170.136    6486.8686    11789.192    1867.9784 
  121300    299.79375   -1163.4389    6432.0944    11673.289    1893.4159 
  121400    301.18728   -1166.2262    6292.4407    11560.619    1905.4799 
  121500    298.06105   -1162.2313     6388.755    11594.141    1909.6106 
  121600    299.27786   -1153.2967    6496.9541     11737.27    1930.4319 
  121700    299.79705   -1155.1481    6337.8032    11587.359    1878.6964 
  121800    299.70388   -1154.2542    6512.1453    11760.605    1988.7306 
  121900    299.67076   -1153.1284    6500.8288    11749.706    2014.4502 
  122000    300.75064    -1158.047    6370.9614     11637.99    1916.5559 
  122100    300.98763   -1153.8378    6459.0719    11735.373    1964.8113 
  122200    297.19085   -1152.2025    6461.7835    11658.607    1884.0601 
  122300    296.11561   -1148.9617    6483.6494    11660.743    1808.0922 
  122400    307.84098   -1146.8779     6494.679    11924.351    1911.6667 
  122500    300.39631   -1149.6337    6456.8832    11724.756    1936.6902 
  122600     297.7001   -1153.8405    6355.4356    11561.501    1850.0319 
  122700    302.62762   -1151.8575    6412.2289    11725.546    1930.7812 
  122800    295.31018   -1158.7497    6477.0936    11627.193    1991.1576 
  122900    299.73058   -1157.9691     6412.379    11657.694    1924.1764 
  123000    301.28587    -1156.954    6452.1325    11731.689    1937.6642 
  123100    293.60565   -1167.9281    6309.1149    11413.621    1871.9719 
  123200     302.0505   -1164.1721    6548.9869     11837.66    1958.8635 
  123300    296.76294   -1163.7611    6435.0407    11611.165    1903.3119 
  123400    302.35247   -1163.7321    6410.6871    11706.252    2018.1937 
  123500    300.38639    -1162.944    6386.3976    11640.748    1942.8165 
  123600    304.68971   -1167.0994    6333.3556    11675.484    1889.0589 
  123700    298.36058   -1158.4134    6446.4933    11662.096    1966.7755 
  123800    301.89568   -1163.0306    6407.3943    11693.902    1917.5715 
  123900    297.65881   -1175.1113    6412.7308    11596.643     1848.626 
  124000    296.58854   -1174.5087    6481.2862    11642.937    1912.2078 
  124100    304.05684    -1177.249    6403.9076    11722.366    1903.3004 
  124200    297.32142   -1174.5689     6366.527    11543.774    1862.5299 
  124300    302.44248   -1170.5589    6473.6255    11764.286     2009.983 
  124400    299.68063   -1171.4893    6376.9475    11607.675    1931.3196 
  124500    300.26716   -1162.0584    6377.0996    11629.788    1891.6311 
  124600    300.17284   -1159.9237    6390.7274    11643.536    1950.8732 
  124700    299.39107   -1158.2765    6424.4364    11662.191    1981.7892 
  124800    296.45033   -1159.1737    6343.8569     11517.89    1919.3106 
  124900    301.74929    -1160.948     6361.782    11647.245    1949.3248 
  125000    300.87499   -1161.5596     6447.884    11714.057    1941.3836 
  125100    296.90054   -1158.1531    6449.3201    11633.992    1865.5342 
  125200    301.54221    -1155.828    6421.7439    11707.902    1915.6452 
  125300    303.34628   -1157.7427    6445.7363    11768.521    1902.2998 
  125400    298.02825   -1153.7079    6463.8042    11677.013    1893.5529 
  125500    300.98449   -1152.9897    6362.2789    11639.361     1866.851 
  125600    301.33811   -1147.6181    6381.7669    11671.775    1890.5292 
  125700    297.03275   -1146.6324    6515.4705    11714.487    1969.6101 
  125800    303.08661    -1147.851    6475.6752    11802.805    1946.7281 
  125900    295.66122    -1157.192    6337.4913    11496.648    1873.9974 
  126000    301.52404   -1154.5608    6413.3716    11700.409    1943.7357 
  126100    299.89996   -1160.0795    6483.5666     11730.39    1925.2592 
  126200    300.03377   -1162.6695    6486.2098    11733.301    1885.2584 
  126300    298.81211   -1158.4402    6442.5346    11667.757    1884.8781 
  126400    295.21189   -1159.9748    6402.8588    11549.633    1849.5047 
  126500    300.87747   -1154.2966    6460.0678    11733.557     1938.444 
  126600    301.98618   -1152.7683     6362.868    11661.571    1979.0512 
  126700    295.41104   -1158.6719    6363.9588    11516.291    1910.9436 
  126800    304.17107   -1155.9437    6432.5084    11774.713     1902.678 
  126900     305.6636   -1163.5186    6474.5279    11841.043    1950.9924 
  127000    295.67862   -1166.2585    6436.1723    11586.634    1941.8571 
  127100    298.61022   -1164.5546    6306.3999    11521.195    1878.1758 
  127200    299.40099   -1169.8837    6366.7665    11593.126    1911.4079 
  127300    299.20385   -1167.8174    6547.3304    11771.544     2040.251 
  127400    300.52977   -1168.6758    6398.5055    11650.187    1947.3679 
  127500    298.51642   -1162.2676    6494.6561    11709.734    2024.5465 
  127600    300.77237   -1163.2804    6385.3106     11647.57    1987.2465 
  127700    300.51435   -1163.1083    6325.1783    11582.098    1924.1773 
  127800    298.07754   -1160.7547    6572.3108    11779.526    1961.7931 
  127900    308.07068   -1160.8127    6434.6806    11855.325    1960.8674 
  128000    300.56523   -1165.1116    6318.1307    11574.134    1900.2036 
  128100     297.2961   -1164.9638    6449.1192     11635.43    1842.5674 
  128200    298.89814   -1164.4931     6439.387    11660.394    1895.3794 
  128300    294.93541   -1164.6411    6395.7427    11531.944    1913.9282 
  128400    304.78194   -1155.8967    6376.3638    11731.666      1921.33 
  128500    298.65541   -1156.0132     6457.554    11681.855    1996.8571 
  128600     301.4187   -1152.9147    6461.8015    11748.235    2044.1981 
  128700    303.32255   -1160.4871    6373.4346    11692.968    1992.6545 
  128800    295.45569   -1156.1831    6443.6088    11599.383       1970.7 
  128900    300.18392    -1157.831    6526.3629    11781.501    1991.7681 
  129000    297.55338   -1156.8119    6320.3127    11520.272    1861.9139 
  129100    300.48882   -1159.5042    6445.7596    11705.738    1938.6382 
  129200    299.13731   -1156.2984    6451.3084     11685.62    1978.5982 
  129300    301.33541   -1158.2646    6412.7455     11692.05    1917.7163 
  129400      300.566    -1153.749    6482.1513    11749.534    1994.2502 
  129500    302.10692   -1158.3008    6291.3042    11587.054    1928.3869 
  129600     299.1345   -1155.2329    6390.1766    11625.493    1964.3339 
  129700    295.82405   -1152.0863    6428.1964    11595.937    1913.8028 
  129800    301.36981   -1157.3208    6454.6228    11735.606    1909.5132 
  129900    301.38428     -1163.54    6471.2404    11746.313    1880.2606 
  130000    298.85176   -1164.8122    6336.7445    11556.442    1850.8223 
  130100    304.11031   -1163.4119    6400.7932    11734.232    1918.2528 
  130200    294.25314   -1159.2832    6464.5704    11591.554    1917.5724 
  130300    304.26592   -1154.9476    6563.9983    11909.225    2012.9628 
  130400    294.35962   -1160.1341    6310.6675    11439.075    1889.0574 
  130500    301.31141   -1160.4064    6431.3002     11707.95    1921.0742 
  130600    300.65288   -1159.6016    6500.5562    11763.942    1884.7631 
  130700    298.59365   -1158.9485    6440.5777    11660.624    1797.6302 
  130800    299.58359   -1161.4399    6326.7787    11565.483    1751.1281 
  130900    299.96254   -1158.1607    6354.2373    11604.316    1834.2236 
  131000    297.30465    -1155.458    6461.2378    11657.238    1882.8799 
  131100    300.78428    -1155.967    6402.0589    11671.887    1848.9615 
  131200     301.2594   -1160.2271    6413.2028    11688.921    1894.5025 
  131300    297.50973   -1155.8836    6329.7131    11529.668    1822.8252 
  131400    298.64116   -1156.8077    6493.2319    11716.434    1904.1846 
  131500    296.82907   -1161.2948     6438.435    11618.438    1879.9605 
  131600    302.11217   -1153.4325    6469.0156    11769.746    1908.6186 
  131700    297.56214   -1160.5405    6507.5287    11703.947    1849.4569 
  131800    302.98135   -1158.8719    6461.0559    11774.916    1919.4262 
  131900    294.93691   -1156.8257    6381.3693    11525.418    1877.2465 
  132000    298.69918    -1155.432    6321.0493    11546.867    1867.1431 
  132100    301.87008   -1159.0766    6511.9204    11801.835    1960.3513 
  132200    296.09644   -1159.3078    6450.0008    11616.339    1922.5987 
  132300    300.81119   -1163.8401    6356.7931    11619.323    1864.2211 
  132400    298.15422   -1161.3459    6553.6102    11761.872    1914.6071 
  132500    298.25636   -1165.5527    6311.0101    11517.247    1874.9105 
  132600    300.69168   -1162.3527    6330.5996    11592.063    1962.4643 
  132700    300.47198   -1159.9444     6483.422      11742.6    1953.7437 
  132800    299.53938   -1155.7805    6432.5534    11675.972    1917.0232 
  132900    302.12058   -1159.1713     6400.854    11696.025    1902.8259 
  133000    298.85888   -1160.9035    6436.9472    11660.705    1910.3491 
  133100     300.1771    -1164.681    6349.1767    11597.319    1896.0541 
  133200    303.95774   -1165.7263    6438.4902    11766.354    1910.4712 
  133300    296.32971   -1158.7456     6428.069    11599.953    1860.5157 
  133400    300.21813   -1164.0131    6444.2921    11693.979    1876.4193 
  133500      294.012   -1162.6024     6434.258    11552.771     1865.436 
  133600    298.48667   -1160.2411    6304.8692    11521.338     1892.621 
  133700    300.13937   -1157.4306    6402.4541    11657.041    1970.9391 
  133800    300.84003   -1153.6475    6499.6419     11772.98    1907.9013 
  133900    300.77162   -1157.3875    6575.5531     11843.69    1915.4815 
  134000    296.85583   -1157.7221    6302.2357    11486.383    1900.3294 
  134100    304.17307   -1159.1542    6395.6526    11734.689    1909.3944 
  134200    297.85261    -1158.185    6431.4177    11636.397    1857.0875 
  134300    295.26733    -1146.762    6477.8549    11639.026    1905.8694 
  134400     301.3631   -1156.4006    6445.2538    11727.013     1929.563 
  134500    300.69449   -1152.8537    6382.7521    11653.775    1850.0589 
  134600    302.06695   -1152.9478    6460.3296    11760.579    1967.0971 
  134700      299.696   -1148.0247    6442.4317    11696.952    1921.1631 
  134800    302.28237    -1150.727    6378.7615    11685.833    1870.3306 
  134900    300.37098   -1150.7526    6421.6335    11687.846    1905.3694 
  135000    300.52643   -1151.8482    6428.1427    11696.581    1868.0686 
  135100    297.23286   -1153.3648    6326.1187    11522.678    1827.8104 
  135200    304.79292   -1153.7472    6438.1968    11795.883    1928.8803 
  135300    300.19455   -1158.4524    6453.0784    11707.822    1900.0386 
  135400    299.84368   -1157.7313     6423.868    11671.837    1888.1615 
  135500    297.20512   -1158.3149    6380.1985    11571.215    1842.4329 
  135600    301.74316   -1158.7316    6419.2394    11706.787    1927.0892 
  135700    299.44777   -1156.8556    6355.4475    11595.834    1943.2529 
  135800    299.26647   -1156.8522    6396.0752    11632.592     1900.639 
  135900    295.42065   -1162.1995    6441.7909      11590.8     1947.591 
  136000    296.78834   -1156.6453    6410.7237    11594.506    1895.0798 
  136100    301.76954    -1158.034    6363.6786    11652.488    1799.9604 
  136200    299.96672   -1166.5841    6456.2398    11697.984    1861.4674 
  136300     296.1186   -1168.3098    6437.7722    11595.582    1932.1621 
  136400    302.20051   -1164.7918    6371.2057    11662.464    1871.3678 
  136500    299.91349   -1162.0274    6398.3659     11643.53    1846.3768 
  136600    305.66171   -1158.9642    6531.9268    11902.956    1951.5417 
  136700    296.43402    -1159.679    6395.1528    11568.332     1898.976 
  136800     303.4966   -1156.7825    6374.3588    11701.315    1888.4802 
  136900     302.2938   -1155.8402    6413.9465    11716.149    1879.9903 
  137000     294.1849   -1156.5834    6529.6352    11657.861    1963.6052 
  137100    298.94121   -1162.2905    6465.4599     11689.59    1936.4287 
  137200    299.96797   -1158.9685     6422.412    11671.799    1894.0427 
  137300    299.03196   -1159.4689    6317.6554    11546.545    1852.4228 
  137400    300.78108   -1158.2152    6509.8835    11777.394     1896.126 
  137500    298.66899   -1154.1387    6589.9176    11816.384    1897.7434 
  137600    300.60778   -1153.0311     6286.912    11555.905    1799.4718 
  137700    298.24817    -1152.196    6421.1948    11640.613    1921.2053 
  137800    299.49356   -1153.7131    6395.0988    11639.606    1907.2139 
  137900     302.2431   -1151.6809    6444.4128    11749.692    1882.8202 
  138000    301.00127   -1154.9873    6434.7377    11710.181    1892.5039 
  138100    297.64749   -1154.1616    6427.6573    11632.278    1887.1072 
  138200    302.35778   -1154.9988      6468.82    11773.231     1967.179 
  138300    293.14401   -1154.8523    6390.4629    11498.183    1901.4853 
  138400    299.74981   -1158.1454    6397.7552    11643.305    1836.8397 
  138500    300.32191    -1158.948    6433.3818    11690.351    1832.2075 
  138600    297.29755   -1150.1449    6438.2111    11639.372    1893.0874 
  138700    298.00606   -1160.1527    6512.0529    11718.342    1935.5878 
  138800    301.37413   -1157.3836    6486.9857    11767.998    1886.2568 
  138900    302.51059   -1159.3688    6400.4582    11703.764    1908.2514 
  139000    298.75406   -1163.2334    6381.0514     11600.24    1927.1397 
  139100    303.16971   -1162.4912    6382.9058     11697.17    1881.4015 
  139200    305.78261   -1160.2489    6535.3692    11907.697    1925.9477 
  139300    298.23046   -1165.6656    6423.9247    11629.495    1960.7365 
  139400    301.44355   -1169.2349    6300.7641    11571.408    1903.5194 
  139500    298.23327   -1166.1018    6508.1778    11713.372    1948.7486 
  139600    297.07589   -1168.6836    6414.2259    11592.113    1916.9156 
  139700    304.21502   -1168.6718    6468.6883    11799.104    1883.3256 
  139800    293.35824   -1165.6579    6320.9049    11422.396    1775.7886 
  139900     301.5511   -1162.7286    6387.5342    11666.982     1895.819 
  140000    303.61972   -1153.3241    6474.4258    11807.471    1948.4794 
  140100    298.86351   -1158.6217    6401.7489    11627.887    1915.1653 
  140200    301.65138   -1162.9108    6356.1076    11637.516     1942.383 
  140300    298.63754   -1169.3675    6447.7595    11658.325    2050.2789 
  140400    306.21862   -1166.5413    6369.5373    11744.887    1879.8284 
  140500    300.59106   -1161.5053    6522.6441    11782.806    1972.9678 
  140600    302.72918     -1161.06    6372.7395    11679.024    1945.9679 
  140700    295.80313   -1159.4259    6387.6305    11547.585     1862.565 
  140800    301.67439    -1156.272    6452.5034    11741.042    1892.1001 
  140900    298.78361   -1158.5357    6408.2239    11632.742    1990.9815 
  141000     301.9013   -1153.5378    6472.3756    11768.496    1928.8481 
  141100    305.12458   -1150.0308    6480.2238    11848.711    1884.7849 
  141200    301.27449   -1151.9046    6549.5991    11833.962    1988.7273 
  141300    297.36091   -1163.7081    6340.4963    11529.448    1905.8816 
  141400    303.02546   -1158.1668      6376.88    11692.387    1879.8834 
  141500    298.06818   -1156.7968    6485.9537    11696.926    1882.9217 
  141600    300.86454   -1154.9231    6536.9768    11809.563    1885.2073 
  141700    302.86758   -1150.7352    6487.6659    11807.232    1893.9283 
  141800    298.36976   -1153.4685    6335.7417    11556.485    1896.6375 
  141900    299.74178   -1151.8983    6345.9404    11597.565    1983.5462 
  142000    300.90613   -1153.5277    6378.8463    11653.716    1954.9606 
  142100    296.40825   -1155.4982    6320.7136    11497.523      1860.32 
  142200    304.04291   -1156.5461    6564.9822    11903.846     1887.283 
  142300    296.93024   -1159.3024    6512.0312    11696.188    1889.9323 
  142400    302.77889   -1163.8998    6429.3588    11733.865    1953.5563 
  142500    298.71038   -1161.4885     6361.465    11581.465     1957.403 
  142600    298.46669   -1167.1695    6366.1389    11575.252    1916.6623 
  142700     299.0016    -1161.761    6393.3764    11619.326    1907.2475 
  142800    299.15914   -1157.3354    6528.1809    11761.922    1987.5828 
  142900    303.20348   -1162.9886    6510.6891    11825.178    1997.8258 
  143000    296.17561   -1161.9978    6307.7512    11473.091    1939.9703 
  143100    302.45794   -1163.0447    6302.7202    11601.225    1949.9869 
  143200    297.13438   -1158.4647    6492.2831    11681.639    1931.3891 
  143300    300.41618   -1154.6905    6454.0183    11717.258     1899.586 
  143400    297.86197   -1165.1469    6436.8843    11635.101    1920.9889 
  143500    300.51641   -1158.6902    6322.4638    11583.846    1885.1776 
  143600    299.91857   -1159.5093     6487.877    11735.668    1994.5895 
  143700    300.76063   -1166.3469    6401.3832    11660.326    1935.9149 
  143800    294.93781    -1161.704    6403.8419    11543.032    1883.0174 
  143900    301.83208    -1162.632    6496.2311    11781.779    1973.7569 
  144000     298.9022   -1159.9602     6368.555    11594.182     1899.705 
  144100    304.99661   -1153.6401    6343.2198    11705.364    1937.6058 
  144200    295.35536   -1154.1081    6392.8714    11548.577    1925.3676 
  144300    301.08834    -1158.409    6329.8727    11603.754    1895.8719 
  144400    299.60891   -1157.5407    6504.7807    11747.925    1937.4677 
  144500    299.89247   -1156.0492    6391.4003    11642.094    1871.5011 
  144600    301.46121   -1159.4267     6524.937    11805.767    1901.8953 
  144700    295.38239    -1161.259    6390.5641    11539.697     1802.774 
  144800      297.733   -1160.9155    6346.1059    11545.799    1771.0545 
  144900     300.6666   -1157.2689    6421.8418    11687.853    1890.0929 
  145000    300.68612   -1157.5509    6366.5659    11632.712    1876.4799 
  145100    299.35381   -1156.2162    6458.0711     11697.09     1867.728 
  145200    298.32627   -1155.8716    6405.7618    11623.173    1866.4095 
  145300    302.69323   -1155.4009    6405.7666    11716.942    2005.3349 
  145400    298.20331   -1159.1629    6357.1729    11568.666    1953.7362 
  145500    306.16985   -1157.4104    6430.1952    11813.634    1932.9353 
  145600    291.56582   -1165.4064     6456.289    11519.739    1965.1523 
  145700     303.0092   -1165.6486    6445.2965    11752.974    1901.9861 
  145800    296.55084   -1163.4788    6496.6392    11668.514    1845.4645 
  145900    296.53595   -1162.2183    6391.5687    11564.386    1872.3763 
  146000    306.20313   -1157.4842    6299.1231    11683.199    1931.9932 
  146100    299.22051   -1153.4559    6378.0432    11616.974    1850.8778 
  146200    299.60042   -1156.8806    6482.1401    11725.763    1918.4466 
  146300    298.69508   -1156.6244    6320.2725     11544.81    1882.6171 
  146400    299.41723    -1160.177    6394.3507    11630.763    1831.7195 
  146500    299.56865   -1161.4291    6446.5566    11684.952    1855.3484 
  146600    299.25511   -1167.2755    6429.5841    11655.435    1948.4533 
  146700    296.97697   -1165.5939    6498.8366      11677.7    1883.7435 
  146800    304.54065   -1160.6378    6347.6745     11693.08    1843.1852 
  146900    298.25159   -1159.6519    6324.7209    11536.757    1912.5094 
  147000    296.04126   -1155.9278    6428.7066    11597.246    1965.5485 
  147100    295.56993   -1156.8314    6424.5888    11582.155    1868.4227 
  147200    296.44781   -1155.0464     6467.876    11645.982    1906.3942 
  147300    302.62322   -1158.2148    6369.1051    11675.971    1851.5077 
  147400    298.33601   -1158.1749     6441.644     11656.96     1840.277 
  147500    300.92502   -1162.0196    6412.6011    11679.383    1833.5426 
  147600    299.70819   -1163.3012    6426.2507    11665.755    1885.1531 
  147700     298.3004   -1160.5572    6450.3383    11662.511    1787.8298 
  147800    300.92701   -1161.3376    6540.9884    11808.495    1906.4908 
  147900    301.01925   -1161.0572     6411.024    11680.781    1944.1464 
  148000    299.90999   -1153.1526    6434.0493    11688.014    1935.2534 
  148100    299.90484   -1159.3176     6324.228    11571.917    1843.5667 
  148200     298.9633   -1157.5939    6507.8292    11737.127    1970.5551 
  148300    296.13981   -1158.5685    6428.3481    11596.352    1916.0215 
  148400     302.2115   -1163.6373    6399.4673    11692.115    1890.1992 
  148500    296.20652   -1165.0742    6450.8937    11613.817    1909.7179 
  148600    302.94637   -1167.2039    6396.1807    11700.961    1920.8466 
  148700     297.2133   -1165.4458    6398.6932    11582.754    1845.9758 
  148800    301.52214   -1163.2755    6487.4614    11765.744    1974.3224 
  148900    298.53694   -1162.7575    6372.4941     11587.52    1934.6397 
  149000    299.08892   -1159.4069    6299.6876    11529.857    1855.8783 
  149100    296.92056   -1155.8929    6400.7896    11588.149    1886.3182 
  149200     299.9346   -1160.1227     6406.391    11653.911    1877.1446 
  149300    297.98968   -1164.5125    6482.0104     11683.59    1945.5937 
  149400     301.4748   -1164.0296    6333.7791    11610.296    1896.6415 
  149500    299.24863   -1166.6005    6424.1998    11650.587    1962.9467 
  149600    303.06405   -1167.0552    6425.4895    11732.933    1873.8703 
  149700    305.45779   -1164.9347    6434.5036    11795.206    1919.4394 
  149800    298.05245   -1162.2922     6459.989     11665.13    1925.1074 
  149900    302.84136   -1156.6678    6538.1006    11851.174    1909.8993 
  150000    295.82839   -1162.8808    6529.5963    11686.635     1843.593 
  150100    299.18936   -1159.9328    6388.2517    11620.041    1880.0912 
  150200    299.71705    -1151.888    6467.3006    11718.407    1939.9749 
  150300    302.69455   -1159.6694    6315.2494    11622.185    1878.3837 
  150400    298.15239    -1160.795    6469.1729    11677.946    1969.0692 
  150500     297.4467   -1155.1651    6518.8385    11718.166    1899.7995 
  150600    301.56144   -1160.0622    6405.3978    11687.733    1860.4035 
  150700    297.79774   -1154.5322    6456.9596    11664.419    1915.9102 
  150800    303.45185   -1159.8772    6414.6446    11737.551    1882.9196 
  150900    297.04969   -1159.2722    6427.4297    11614.168    1878.6758 
  151000    304.86803   -1153.9393    6264.8626    11623.961    1787.8024 
  151100    295.95543   -1157.7422    6472.7988     11637.69    1892.2207 
  151200    301.97511   -1160.3395    6456.7925    11747.688     1884.537 
  151300    299.61817   -1154.8695    6453.9533    11699.966    1876.4251 
  151400    302.12778   -1154.9371    6352.9363    11652.496    1885.3061 
  151500    298.97235   -1161.7316     6422.848    11648.202    1912.5883 
  151600     301.7187   -1161.7589    6459.8421     11743.84    1881.4228 
  151700    298.78307    -1161.066     6400.433    11622.409    1946.1013 
  151800     295.2366    -1162.005    6479.9193    11625.191    1968.1767 
  151900    302.03434   -1162.1547    6326.4366    11616.782    1899.6443 
  152000    295.48215   -1168.6345    6510.8511    11654.739    1912.4571 
  152100    303.14686   -1161.5522    6382.5998    11697.315    1904.7919 
  152200    297.99048    -1166.812    6380.5624     11579.86    1858.0558 
  152300    299.22484   -1167.7756     6339.105    11563.809    1878.3717 
  152400    294.91787   -1165.5435    6453.5189    11588.443    1933.1101 
  152500    307.89869   -1164.8749    6396.8828    11809.791    1947.5999 
  152600    297.82544    -1166.213    6435.8163    11632.187     1927.291 
  152700    296.79199   -1170.7483    6366.7971    11536.554     1955.722 
  152800    301.00335   -1164.8695    6472.0009    11737.606    1967.9677 
  152900    302.36919   -1165.6202    6489.9695    11784.003    1897.7391 
  153000    300.82731   -1168.5338    6306.6924    11564.872    1921.4808 
  153100    299.89628   -1169.8811    6309.3522    11546.295    1911.4619 
  153200    298.67989   -1163.2137    6447.2149    11664.839    1837.6045 
  153300    303.07212   -1161.3592    6549.8522    11863.164    1967.4275 
  153400    297.64792   -1161.4564    6473.8767    11671.211    1951.8753 
  153500     299.1278   -1158.7865    6366.5359    11598.156     1853.945 
  153600    301.40606    -1162.573     6380.174    11656.679     1908.346 
  153700    299.20201   -1153.0102    6508.5085     11747.49    1929.1055 
  153800    299.84766   -1160.5886    6489.5149    11734.712    1854.5967 
  153900    298.05215   -1157.5243    6389.8627    11599.765    1862.5068 
  154000    300.21364    -1160.343    6354.2456    11607.506    1931.8427 
  154100    300.86945   -1160.4153    6464.7766    11731.975    1895.5914 
  154200    300.26997   -1157.2117    6532.9237    11790.519    1911.3582 
  154300    298.59042   -1158.0469    6475.4046    11696.284    1917.4756 
  154400     301.0096    -1154.195     6333.456    11609.869    1886.2543 
  154500    302.11676    -1156.173    6420.5497    11718.638     1891.978 
  154600    299.17647   -1152.7987    6488.7926     11727.44    1882.2938 
  154700    303.28603   -1154.8242    6307.8101    11632.227    1842.7457 
  154800    298.71686   -1159.2627    6363.9116    11586.276    1879.9865 
  154900    297.42762   -1163.6575    6400.1226     11590.55    1852.3806 
  155000    305.08363    -1164.129    6402.8847    11756.399     1888.186 
  155100    301.72377   -1168.2026    6400.4229    11678.086    1869.3724 
  155200    301.31896    -1164.837    6547.9959    11820.376    1964.3651 
  155300    304.22587   -1161.6081     6344.653    11682.364    1935.7987 
  155400    297.23954   -1165.3848    6397.5102    11582.192    1905.5633 
  155500    302.16115   -1163.5691    6463.4656    11755.106    1907.6699 
  155600    298.62711    -1167.857    6381.4504    11593.303    1885.9957 
  155700    305.64114   -1164.8739    6412.1995     11776.88    1911.8377 
  155800    300.29544   -1164.4137    6531.7619    11782.699    1882.0282 
  155900    301.82988   -1166.8274    6402.3567    11683.661    1860.9537 
  156000    298.11733   -1169.8391    6247.0433    11446.024    1826.4805 
  156100    301.75746   -1169.6254    6471.4713    11748.431    1908.2716 
  156200    299.79471   -1165.8268    6455.8175    11694.645    1892.8316 
  156300    301.65214   -1170.8959    6416.7716    11690.211    1909.1761 
  156400    302.90606    -1168.918    6387.7889    11689.994    1864.2418 
  156500    303.50877   -1163.3493    6475.4137    11796.064    1937.2347 
  156600    302.28437   -1165.0579    6422.5564     11715.34     1952.233 
  156700    297.70176   -1166.4914    6376.2114    11569.661    1926.8585 
  156800    302.79745    -1163.038    6435.1744    11740.939    1976.6994 
  156900    298.07655   -1167.4515    6462.9616    11663.458    1951.1057 
  157000    297.01952     -1163.24    6454.5414    11636.668    1902.5867 
  157100    303.17128   -1159.6136    6370.2362    11687.412    1871.1998 
  157200    295.00634   -1164.2476    6433.3999     11571.51    1961.9283 
  157300    301.92786   -1161.5139    6416.3909    11705.103     1941.659 
  157400    299.55468   -1157.7928    6430.4307    11672.164    1902.3196 
  157500    298.91392   -1156.3421    6546.4138    11775.909    1927.5804 
  157600    304.29191   -1156.9267    6431.0786    11774.882    1872.8167 
  157700    304.40614   -1160.1744    6329.9255    11672.921    1936.2088 
  157800    299.91036   -1163.4178    6373.2239    11616.931    1974.1176 
  157900    309.36003    -1161.619    6514.2481    11961.631    1968.8894 
  158000    294.18791   -1162.1498    6503.4935    11626.217    1953.6535 
  158100    300.94122   -1166.0914    6466.3105    11729.367    1950.1142 
  158200    298.35634   -1164.3576    6368.1364    11577.704    1926.1849 
  158300    300.33159   -1165.5892    6364.1249    11614.659    1914.9836 
  158400    302.42726   -1161.9527    6450.5519    11749.494    1916.1108 
  158500    298.03726    -1155.102    6443.4834     11655.49    1838.7315 
  158600    301.84538   -1162.2991    6389.5466    11675.711    1863.0629 
  158700    302.74545    -1161.696    6395.3599    11701.356      1914.19 
  158800    294.35106   -1167.9376    6405.4132    11525.834    1885.7976 
  158900    300.45097   -1164.8714    6486.5859    11740.389    1993.0025 
  159000    298.13541   -1167.7578    6428.4955    11629.943    1882.3196 
  159100    303.57063   -1164.5939    6475.9385    11796.665    1980.9017 
  159200    295.12441   -1163.4748      6352.89    11494.295    1891.2558 
  159300    302.07193   -1165.9901    6382.8538    11670.167    1928.0351 
  159400     300.6945   -1161.4187    6542.1119     11804.57    1964.4054 
  159500    301.87034   -1165.5514    6406.0908    11689.536    1921.7569 
  159600    305.54682    -1165.976    6393.2141    11754.777    1955.2805 
  159700     301.8469   -1164.6279    6367.0023     11650.87    1928.6852 
  159800     306.3733    -1166.991    6539.0708    11917.275    1984.3584 
  159900    299.30777   -1162.4523    6347.3146    11579.113    1911.9779 
  160000    296.66173   -1155.7579    6493.9766    11675.941    1997.8418 
  160100    301.36689   -1161.8481    6499.2617    11775.655    1948.3824 
  160200    297.56134    -1161.942    6306.1296    11501.129    1861.9039 
  160300    302.00335   -1156.8422    6466.2813    11761.277    1982.4119 
  160400    298.88217   -1161.5425    6518.8384    11742.455    1913.3153 
  160500    298.61841   -1157.9157    6383.8605    11605.469    1853.9516 
  160600    304.61611   -1167.6521    6413.9474    11753.951    2023.0397 
  160700    300.60371   -1167.3642     6434.737     11689.31    1923.4547 
  160800     295.2058   -1158.6976     6532.724    11680.645    1892.5472 
  160900    302.40418   -1154.9582    6394.6037    11700.047    1963.3644 
  161000    303.47157   -1165.8722    6374.5723    11691.905    1972.0352 
  161100    299.43531   -1161.2246    6386.6627    11622.414    1962.3715 
  161200    299.89108   -1157.4577    6414.2555     11663.51    1976.5151 
  161300    298.37357   -1165.1849    6520.2169    11729.325    2022.0118 
  161400    299.80515   -1166.5382    6423.7378    11662.077    1928.5234 
  161500    299.88301   -1161.9183     6360.507    11605.129    1953.2991 
  161600    299.47664    -1166.519    6399.3875    11630.727    1972.5821 
  161700    298.37158   -1164.1331    6569.8775    11779.995    1921.4222 
  161800     299.2213   -1167.4952    6446.1011     11671.01    1830.9825 
  161900    304.84389   -1170.8356    6474.6098    11816.296    1958.2544 
  162000      299.613   -1166.8786    6377.6689    11611.562     1899.013 
  162100     294.8845   -1163.3745    6407.2548    11543.635    1904.2738 
  162200    299.09752   -1162.3061     6376.553    11604.007    1963.3882 
  162300    306.77792   -1168.5145    6411.3206    11796.645    1960.3491 
  162400     298.3727   -1159.1541    6545.8778    11760.999    1951.6552 
  162500    302.22414   -1164.3347     6338.165    11630.385    1925.1064 
  162600    295.03171   -1162.6054    6269.1831    11409.477    1904.7224 
  162700    300.82826   -1161.3544    6581.0721    11846.452    1997.6087 
  162800    300.78337   -1161.6325    6409.4438    11673.586    1929.6416 
  162900    305.79654   -1163.4588    6357.4749     11726.89     1957.225 
  163000    301.15575   -1159.6619    6468.6965    11742.765      1961.71 
  163100    299.64081   -1160.3109    6439.8698    11680.925    1886.8318 
  163200     299.0328   -1159.2806    6366.1852    11595.282    1913.9072 
  163300     304.4228    -1155.107    6505.9815      11854.4    1913.4326 
  163400     295.4139   -1156.1167    6421.0906    11576.038    1873.3944 
  163500    301.93626   -1154.5071    6423.9371    11719.835    1947.7563 
  163600    302.09628   -1159.2453    6428.4582    11723.036    1916.8322 
  163700    300.99558    -1161.221    6348.3463    11617.434    1910.8652 
  163800    303.50632   -1157.3872    6443.6153    11770.175    1978.1148 
  163900    297.10629   -1162.0995    6574.6923    11759.813    1967.3018 
  164000    302.07376   -1160.8593    6366.2181    11658.701    1898.0237 
  164100    299.92603   -1164.2535    6374.6154    11617.821    1896.6805 
  164200    298.86609   -1155.7498    6412.9421    11642.008    1947.9482 
  164300    302.06872   -1155.1571    6462.4406    11760.518    1863.5954 
  164400    301.29049   -1153.9568    6491.6803    11774.333    1949.6604 
  164500    301.69567   -1161.7195    6357.6322    11641.178    1973.7747 
  164600    302.64137   -1160.7636    6368.4463    11673.151    1896.5277 
  164700    296.52617   -1168.1792    6438.2984    11604.946    1957.0915 
  164800    302.50313   -1170.2559    6420.5419    11712.801     1994.184 
  164900    301.16295   -1167.5255    6400.3293    11666.688    1869.2551 
  165000    300.79319    -1171.496    6454.8043    11709.293    1876.4088 
  165100    298.64267   -1163.8142    6305.4442    11521.673    1935.1402 
  165200    305.19249    -1163.955    6365.9577    11721.972    1964.6596 
  165300    297.67131   -1168.6561    6419.3798    11610.015    1960.4247 
  165400    297.20504    -1170.788    6537.2782     11715.82    2017.1619 
  165500    294.84774   -1165.0861     6426.198    11560.081     1897.099 
  165600     301.9754    -1164.176    6463.0671    11750.132    1940.8954 
  165700    301.60212    -1168.651    6320.6616    11595.277    1958.0848 
  165800    301.11718   -1163.8405    6396.5885    11665.655    1963.0393 
  165900    292.30207   -1164.8031    6353.1632    11432.945    1838.6528 
  166000    300.58105   -1164.4905    6524.7388    11781.701    1954.7636 
  166100     297.2937   -1165.1775    6484.4953    11670.542    1954.6658 
  166200    299.74001   -1163.4601    6453.4786    11693.504    1900.2547 
  166300    302.69256    -1164.432    6355.5148    11657.645    1916.4574 
  166400    300.71083   -1163.4459    6359.0526    11619.832    1930.8856 
  166500    296.93358   -1157.9976      6369.64    11555.173    1853.3681 
  166600    299.69004   -1153.3707    6448.4793    11697.526    1846.8547 
  166700    293.84869   -1152.9024    6524.9511    11649.675    1926.0875 
  166800    302.34724   -1159.5286    6352.5361    11652.192    1866.5358 
  166900    297.29519   -1163.0154    6435.1149    11623.355    1929.6192 
  167000    300.71947   -1162.0008    6416.1694    11678.579    1909.9581 
  167100    299.86376   -1158.4248    6521.7845    11769.489    1951.5617 
  167200    304.42333   -1157.3564    6417.5514    11763.732    1888.9335 
  167300    300.58212   -1155.5626    6449.2177    11715.131    1911.7822 
  167400    295.42888   -1160.2212     6455.752    11606.916    1929.2396 
  167500    304.91175   -1154.1857    6430.3341     11790.12    1939.5011 
  167600    298.86209   -1152.1668    6332.8272     11565.39     1898.435 
  167700    298.65406   -1156.4518    6442.6477    11666.482     1953.844 
  167800    294.74173   -1165.0386    6349.6984    11481.365    1848.2328 
  167900    301.95783   -1164.1518    6451.1985    11737.912    1891.3186 
  168000    297.75976   -1165.9317    6498.1372    11693.386    1939.1653 
  168100    295.26936   -1166.7777    6477.3232    11618.522    1899.7138 
  168200    304.01552   -1163.2062    6394.7922    11726.411     1948.446 
  168300    301.73308   -1165.0066    6338.1542    11619.212     1936.642 
  168400    294.54171   -1161.3018    6444.8186    11575.949    1931.1357 
  168500    304.27954   -1160.3605    6428.7422    11768.847     1962.204 
  168600    299.61237   -1165.5955    6423.0925    11658.256    1978.3232 
  168700    298.66483   -1162.2967    6438.4616    11656.681    1923.4167 
  168800    304.55531   -1163.7979    6412.6826    11755.242    1930.3849 
  168900    303.86037   -1166.0476    6420.2261    11745.689    1897.6024 
  169000    299.26308    -1166.054    6412.7112    11639.954    1932.4154 
  169100    299.01292   -1172.3177    6487.0184    11702.653    1970.3254 
  169200    298.43483    -1162.673    6375.3002    11588.229    1918.9811 
  169300    301.40847   -1161.4164    6419.6763    11697.389    1962.6066 
  169400     300.1492    -1163.693    6434.4275    11682.962    1940.1939 
  169500    300.44467    -1162.103    6306.5514    11562.988    1901.1809 
  169600    301.60686   -1166.2963    6438.3744    11715.446     1940.375 
  169700    297.38028   -1156.6845     6572.293    11768.682    1989.9483 
  169800    298.88216   -1165.3594    6426.2087    11646.008    1891.1173 
  169900    302.85232   -1167.0423    6469.7161    11772.649    1943.6649 
  170000    305.31651   -1159.0233    6424.1652    11787.761      1946.54 
  170100    303.10255    -1153.623    6359.6703    11681.368    1923.1336 
  170200    299.54555   -1162.7146    6456.8466    11693.463    1881.3711 
  170300    302.65142   -1157.0903    6553.8469     11862.44    1922.6917 
  170400    297.95372   -1159.7998    6501.1792    11706.703    1963.7003 
  170500    298.47516     -1162.37    6286.2907    11500.385    1899.5809 
  170600    298.60909   -1159.8276    6491.4322     11710.93    1991.8323 
  170700    302.79235    -1159.275    6429.7825    11739.202    1974.7302 
  170800     295.2127    -1160.432    6449.8425    11596.177    1955.1597 
  170900    299.51187   -1161.4121    6394.5155    11631.715    1907.9057 
  171000    301.42791   -1164.3311    6413.2514    11688.465     1916.695 
  171100    300.64098   -1161.1347    6454.2141    11715.813     1939.631 
  171200    302.79229   -1161.8687    6453.5716    11760.396    1914.6465 
  171300    298.65438   -1158.8064    6485.7529    11707.239     1906.622 
  171400    299.19132   -1158.1759    6353.7848    11587.372    1878.2264 
  171500    296.44757   -1160.3366    6412.3253    11585.136    1872.8673 
  171600    299.62106   -1159.6572    6389.5649    11630.852    1855.5831 
  171700    305.92099   -1166.5344    6454.1931    11823.191    1934.6452 
  171800     296.3876   -1164.3578    6382.7953    11550.304    1874.4591 
  171900    297.71499   -1161.8519    6552.9237    11751.296    1859.2179 
  172000    303.30024   -1166.7221     6349.767    11662.589    1861.5053 
  172100     296.8412   -1171.3494    6342.8995    11513.107    1883.7196 
  172200    303.01919   -1162.8217     6506.689    11817.407     1917.653 
  172300    302.91013   -1164.3625    6446.7991    11753.647    1903.7115 
  172400    296.98266   -1156.2797    6466.7067    11655.006    1977.6423 
  172500    302.78345   -1165.1532    6416.3329    11719.684    1933.5031 
  172600    302.02665   -1161.1656    6395.9515    11687.122    1856.0513 
  172700    299.09644   -1162.1735    6424.9307    11652.494    1853.7629 
  172800    295.38862   -1160.4252    6506.2217    11656.321    1865.6953 
  172900    299.70219   -1163.7873    6357.9655    11596.856    1811.4504 
  173000    301.69527   -1164.5191    6524.6405    11805.378    1936.7115 
  173100    306.08214   -1158.9108    6389.5546    11769.619    1965.5819 
  173200    294.31775    -1159.996    6444.5595    11572.211    1906.0279 
  173300    300.32699   -1159.8699    6398.9742     11655.13    1877.8399 
  173400    301.11875    -1159.004    6500.4174    11774.353    1976.0423 
  173500     300.6536   -1161.6092    6485.4185    11746.812    1992.7632 
  173600    301.53226   -1159.4139    6349.9864    11632.347    1951.1016 
  173700    299.94013   -1171.1389    6374.4833    11611.105    1896.8065 
  173800    295.90031   -1161.3048     6562.983    11723.134    1923.3695 
  173900    307.07432    -1160.392    6564.8854    11964.665    1973.4557 
  174000    298.63962   -1156.1745    6305.3442    11529.147      1907.34 
  174100    303.65341   -1157.5691    6299.0283    11628.548    1927.4183 
  174200    296.70417   -1162.4551    6436.0449    11612.219     1855.922 
  174300    303.24594    -1151.253     6627.084    11954.215    1968.2061 
  174400    303.09413   -1162.8811    6410.8877    11723.148     1952.463 
  174500    299.72112   -1163.9479    6326.4396    11565.573    1975.5215 
  174600    303.79682   -1162.3867    6367.0403    11694.806    1911.2945 
  174700    297.71133   -1160.5111    6468.3792    11668.014    1909.1741 
  174800    304.89546   -1165.5922    6549.1778    11897.209    1980.8391 
  174900     298.3338   -1159.9741    6437.4126    11650.882    1865.1163 
  175000    303.94931    -1160.813    6426.7088    11759.306    1915.1872 
  175100    298.18742   -1155.4495    6414.1269    11628.994    1940.5776 
  175200    295.89554   -1156.7296    6398.3793    11563.004    1931.2467 
  175300    302.00407   -1158.0606    6343.6822    11637.475    1939.6782 
  175400    299.52584   -1157.9981    6474.6719    11715.584    1899.9773 
  175500    303.48527   -1160.2846    6585.7723    11908.985    1988.9723 
  175600     299.4114   -1156.0121    6379.1532    11619.606    1866.8179 
  175700    299.37294   -1161.9893    6290.3778    11524.032    1849.8276 
  175800    300.03906   -1156.0064    6500.5097    11754.377    1953.3386 
  175900    301.33262   -1163.5384    6540.4189     11814.39    1959.6433 
  176000     299.8748   -1159.6747    6464.5128    11711.203    1965.0391 
  176100    306.72779   -1156.8071    6323.2754    11719.237    1985.9236 
  176200    297.72755   -1155.5262    6349.6671    11554.633    1940.3475 
  176300    299.10877   -1157.4627      6432.62    11665.157     1887.292 
  176400    295.32161   -1158.7941     6546.549    11696.848    1947.8216 
  176500    301.69442   -1151.8446    6396.0149    11689.409    1892.3961 
  176600    305.17862   -1155.3363    6328.1477    11692.484    1876.2483 
  176700     298.6524   -1163.0988    6417.6339    11634.785    1974.0771 
  176800    302.63878   -1163.8886    6468.0301    11769.555    1951.7933 
  176900    296.82608   -1157.0851    6424.7142    11608.863     1879.478 
  177000    302.39913   -1159.8076    6408.3268    11708.813    1916.2403 
  177100    300.87411      -1164.1    6364.8586    11628.472    1915.6805 
  177200    300.67653   -1166.1419    6477.8416    11735.192    1949.6349 
  177300    298.55277   -1160.2635    6426.3134    11644.172    1933.9664 
  177400    301.96213    -1165.733    6353.0862    11638.311    1905.3632 
  177500    300.51598   -1163.5996    6551.4848    11807.948    1958.5484 
  177600    298.73565   -1160.7585    6384.1193     11605.39    1871.8111 
  177700    299.70729   -1169.4446    6341.3825    11574.724    1838.6326 
  177800    295.17854   -1162.4657    6481.6627    11625.234    1963.9979 
  177900    302.90829    -1168.507    6382.5641    11685.228    1913.0211 
  178000    297.11291   -1166.2014    6406.5039    11587.664    1952.4165 
  178100    302.38799    -1158.154    6428.7559    11730.657    1898.3147 
  178200    301.52833   -1162.2683    6468.4391    11747.861    1883.4337 
  178300    298.83572   -1160.1855    6456.5103    11680.492    1907.9186 
  178400    303.69958   -1159.4087    6331.7354    11660.402    1925.9205 
  178500    298.95752   -1165.4987     6436.442    11657.712    1955.8045 
  178600    300.36103   -1157.8765    6544.4623    11803.338    1980.0705 
  178700    300.57305   -1161.8848    6509.7485    11769.146    2007.1884 
  178800    302.51406   -1161.9924    6325.7255    11626.482    1939.6904 
  178900    297.76326    -1162.253    6389.8237    11588.826    1945.5425 
  179000     302.1787   -1154.1081    6417.8617    11719.338    1933.6866 
  179100    301.36601   -1160.6153    6452.8025     11730.41    1965.2808 
  179200    298.66469   -1155.3459    6419.5004    11644.667    1898.8705 
  179300    300.71499   -1161.1603    6491.0694    11754.223    1905.6405 
  179400    298.50559   -1159.2203    6520.4561     11738.35    1948.2158 
  179500    298.90574   -1160.6629    6320.3506     11545.35    1955.1824 
  179600    298.12358   -1157.7752    6403.8271    11615.005    1973.7298 
  179700     296.7704   -1155.3708    6586.1575    11770.831    1981.0012 
  179800    304.44603   -1158.1925    6483.3462    11829.176    1901.5124 
  179900    296.50377   -1159.1576    6433.3999     11608.59    1934.5372 
  180000    297.84023   -1160.5061    6357.5825    11559.976    1899.1999 
  180100    302.25967   -1159.2472    6384.2656    11682.332    1952.9246 
  180200    300.40795   -1160.1224    6605.1587    11862.791    2032.8247 
  180300    304.54666     -1164.19    6498.7208    11840.703    1947.5379 
  180400     300.5033   -1167.0395    6299.5054    11552.258    1853.1889 
  180500    301.12022    -1167.524    6432.1768    11697.624    1941.8494 
  180600    300.14147   -1165.9636      6484.65    11730.748    1955.6062 
  180700    299.67411   -1169.7983    6379.5546    11611.834    1912.5731 
  180800    300.73634   -1168.8611    6446.3685    11702.278    2005.3023 
  180900    302.06665   -1171.0465    6425.2534    11707.397    1947.3494 
  181000    296.30282   -1164.6597    6429.7462    11595.142    1925.0106 
  181100    301.95997   -1160.9089    6407.2509    11697.253    1943.9311 
  181200    294.02762   -1169.2161    6492.9002    11605.133    1925.0192 
  181300    300.98538   -1167.6102     6355.635    11618.116    1924.7086 
  181400    298.89509   -1166.3477    6360.2052    11579.292    1985.8409 
  181500    304.09501     -1171.05    6413.3757    11738.849    1977.3894 
  181600    299.32802   -1170.8617    6427.0417    11650.864    1895.2105 
  181700    297.66228     -1164.28    6394.2713    11589.089    1925.2941 
  181800     302.1564   -1163.9908    6443.5507    11734.668    1999.6183 
  181900      294.194   -1160.1616    6422.0127    11546.855    1938.1412 
  182000    301.58076   -1159.5129    6407.9965    11691.294    1971.5127 
  182100    299.93857   -1162.4656    6423.3493    11668.611     2026.085 
  182200    300.05987   -1160.2414    6378.5991    11628.676    1915.5889 
  182300    300.41005   -1156.3511    6467.4021    11728.851    1920.2101 
  182400    300.86549    -1160.651    6514.3766    11781.255    2007.4887 
  182500    297.43128   -1161.4031     6310.915    11503.675    1901.4645 
  182600    300.46809   -1153.2242    6393.4412    11659.257    1904.8362 
  182700    301.96789   -1153.0608    6482.0051    11780.025    1981.8008 
  182800    301.48824   -1147.6624    6456.6049    11749.776    1922.4861 
  182900     298.0315   -1151.2678    6378.7141    11594.432    1885.8399 
  183000    300.64443   -1152.4144    6448.5127    11718.905     1941.578 
  183100    302.22835   -1156.0946    6461.0114    11761.562    1940.2689 
  183200    301.15098   -1155.6639     6486.444    11764.409    1861.3525 
  183300    298.27319   -1157.9873    6482.7543    11696.916     1909.955 
  183400    306.17926   -1161.6544    6468.2217    11847.617    1986.1826 
  183500    297.51313   -1165.0665     6401.625     11592.47    1910.5237 
  183600    304.13047   -1163.9709    6497.3196     11830.63    1961.2065 
  183700     298.4799   -1163.1762    6486.4298    11699.819     1993.032 
  183800     297.4406   -1158.3065    6357.2566    11553.312    1922.5649 
  183900    305.26825   -1154.1491    6413.2395    11780.678    1960.9312 
  184000    299.00409   -1163.5067    6370.0779    11594.335    1911.1839 
  184100     299.6409    -1156.717    6410.3932    11655.044    1921.1587 
  184200    300.65845   -1171.4033    6442.3484    11694.052    1944.8858 
  184300    299.48662    -1167.328    6496.3078    11727.052    1988.9734 
  184400    305.64274   -1170.7675    6293.7288    11652.549    1911.5315 
  184500    298.47213   -1173.1681    6398.6513    11601.882    1940.0722 
  184600    303.83561   -1174.3033    6541.8144    11858.493    2031.4516 
  184700     302.8764   -1173.2308     6437.528    11734.787    1945.2575 
  184800    297.61002   -1166.0026    6394.1901    11586.169    1912.3459 
  184900    299.41195   -1155.7014    6366.6995    11607.475    1963.8088 
  185000    299.33385   -1159.7475    6499.9085    11734.969    2004.5813 
  185100    300.77758   -1164.9895    6454.3222    11714.984    1962.9318 
  185200    304.06732   -1166.2583    6368.9662     11698.64    1917.9015 
  185300     306.0506   -1165.8768    6408.0551     11780.48    1931.3785 
  185400    301.27643   -1165.8634    6498.8845     11769.33    1914.3012 
  185500    297.99123   -1160.8728    6394.8905    11600.143    1886.9259 
  185600    304.61895   -1161.0879     6449.435    11796.064    1999.9696 
  185700    300.43093   -1153.5348    6476.3384    11741.049    1972.1393 
  185800    300.49953   -1150.2857    6406.9937    11676.419    1874.2954 
  185900    305.27109   -1153.8545    6368.5083    11736.302     1940.373 
  186000    300.55009   -1154.9409    6426.3392     11692.19    1959.7752 
  186100    298.92089   -1154.9731    6500.8612    11731.874    1908.3674 
  186200    299.50449   -1155.5593    6522.6192    11765.514     1921.095 
  186300    300.32863   -1152.4898    6416.1206    11679.691    1894.7473 
  186400    295.74896   -1152.9042    6332.9646    11498.283    1882.8921 
  186500    306.41361   -1159.3016    6469.3574    11856.113    2018.3754 
  186600    298.66703   -1158.8945    6448.1166    11669.785    1954.5298 
  186700    298.92648   -1158.1706    6421.1639    11649.099    1897.6477 
  186800    298.24588   -1158.7294    6377.3692    11590.205    1894.8136 
  186900    297.75116   -1151.9655    6396.4485     11605.48    1903.0711 
  187000    302.13463   -1159.0533    6420.0191    11715.608    1924.1985 
  187100    297.59385   -1161.3984    6470.7401    11666.978     1931.331 
  187200    301.31181   -1156.9048    6454.1266    11734.286     1960.743 
  187300    301.84022   -1160.6818    6319.4505    11607.122     1913.241 
  187400    299.31548   -1162.1926    6344.7105    11576.934    1901.5504 
  187500    306.89235   -1168.7126     6394.125    11781.697    1922.4908 
  187600     298.4328   -1169.8715    6470.7289    11676.416    1912.4947 
  187700    296.69521    -1172.613    6413.5823    11579.407     1882.254 
  187800    300.01331   -1166.6778    6398.4101    11641.056    1920.4536 
  187900    299.41168   -1165.7987    6482.8872     11713.56    1971.5359 
  188000    303.19004   -1164.1089    6370.2297    11683.311     1950.682 
  188100    300.12848   -1158.4499    6359.8895    11613.224    1927.7522 
  188200    298.86826   -1159.4642    6297.4556    11522.853    1920.1341 
  188300    301.38701   -1162.1348    6445.9198    11722.456    1950.8147 
  188400    296.47308   -1164.5185    6513.5158     11682.69    1901.6008 
  188500    300.45916   -1164.7465    6373.6985    11627.801    1887.0161 
  188600    297.36102   -1162.8396    6322.3198    11512.142    1882.9995 
  188700    303.61318   -1164.7635    6547.8095    11869.276    1992.3817 
  188800    300.88836   -1160.9902    6517.4035    11784.432    1862.9969 
  188900    299.95721    -1158.611    6341.7844    11591.299     1866.639 
  189000    296.46787   -1160.2587    6508.1127    11681.435    1960.3505 
  189100    301.63517   -1152.9415    6415.8255    11706.857    1884.2295 
  189200    300.38684   -1158.2517    6412.9734    11672.026    1944.4673 
  189300    300.03334   -1158.0166    6385.1297    11636.865    1924.0512 
  189400    305.17204   -1156.2564    6487.7103    11850.986    1870.4527 
  189500     303.6337   -1160.7824    6475.6668    11801.552    1809.0411 
  189600    298.76954   -1161.8823    6527.3119    11748.182    1851.5972 
  189700    299.99337   -1160.2301    6373.9798    11622.648    1813.8954 
  189800    302.12428    -1159.636    6370.1099    11664.896    1897.1109 
  189900    300.43758   -1155.5575    6380.7921    11643.623    1909.2582 
  190000    298.74829   -1154.6995    6458.9111     11686.51    1965.9949 
  190100    300.39629    -1151.356    6554.7278    11820.877    2018.2878 
  190200    306.27339   -1158.0028    6250.8209    11635.879    1912.5552 
  190300    301.78379   -1159.8802    6428.3754    11715.643    1920.4583 
  190400    306.16241   -1158.4865    6462.8003    11845.004    1890.4878 
  190500    297.60921   -1164.6053    6443.1104    11636.469    1865.7517 
  190600    305.78575   -1163.5062    6346.9937    11716.131    1813.8415 
  190700    296.94291   -1161.3708    6448.0922    11630.451    1949.0273 
  190800    304.21875   -1162.9345    6375.6839    11711.916    1960.8152 
  190900    299.72257   -1160.8173     6277.541    11519.837    1846.3361 
  191000    297.20554    -1167.839    6453.0802    11634.582    1870.9119 
  191100     297.0936   -1164.1951     6419.861    11602.615    1955.0778 
  191200    295.82121   -1170.3868    6340.4755    11489.855    1867.1207 
  191300    303.64091   -1169.2458    6419.2724    11736.849    1908.1674 
  191400    297.56994   -1169.9144    6429.8687    11617.079    1888.2459 
  191500    303.23693   -1165.5137    6372.9587    11685.637    1899.1022 
  191600    301.01365   -1157.7473    6395.5788    11668.526    1941.4442 
  191700    300.44952   -1165.5953    6359.1829    11612.231    1912.1191 
  191800    296.52373   -1163.9843    6499.1007    11669.891    1943.6672 
  191900    303.06524    -1165.087    6599.3051    11908.742    2000.1952 
  192000    299.23701   -1167.1345    6478.6129    11704.218    1907.3736 
  192100    298.31486   -1164.9342    6262.5177    11470.623      1818.33 
  192200    301.64513   -1164.3993    6471.4169    11751.203    1935.9837 
  192300    298.77193   -1160.2899    6453.2883    11675.802    1908.1633 
  192400    300.43925   -1159.0255    6360.6628    11620.061    1902.6552 
  192500    299.10467   -1161.2157     6418.674    11647.371    1864.3492 
  192600    298.78699   -1156.7276    6372.6611    11599.059    1848.4866 
  192700    307.43407   -1161.6923    6601.4593    12007.624     2017.355 
  192800    300.04572   -1157.0481      6312.86    11565.828    1936.2996 
  192900    299.87015   -1156.5913    6320.0214    11569.696    1897.2094 
  193000     297.7207   -1159.6696    6522.3807    11723.057    1913.5426 
  193100    299.09378   -1160.2719    6516.5783    11745.986    1921.0826 
  193200    296.62371   -1160.9701    6276.3875    11452.328    1907.4562 
  193300    300.15502   -1156.1145    6388.0132     11644.25    1960.4178 
  193400    299.51305   -1157.5187    6459.9674    11701.085    1919.6078 
  193500    298.57301   -1161.6081     6318.344     11535.29    1853.3954 
  193600    301.39792   -1161.7914    6459.9629    11737.076    2006.1493 
  193700    298.42526   -1159.3298     6426.692     11642.76    1933.5912 
  193800    302.05667   -1162.2426    6391.2295    11681.964    1923.1306 
  193900    299.06666   -1168.8755    6342.1691    11562.394    1933.1824 
  194000    302.35676   -1164.5762    6503.4917    11798.304    1962.5287 
  194100    297.81137   -1163.4364    6359.3467    11558.193    1884.2845 
  194200    302.15563    -1165.831    6456.2494     11745.51    1976.2787 
  194300    300.33457   -1166.4016    6438.9061    11688.692    1932.1345 
  194400    296.64771   -1162.8363     6365.959    11540.546    1869.1476 
  194500    303.90898   -1166.4947    6427.2771    11753.331    1951.2181 
  194600     301.4372   -1164.6053    6436.5104    11711.648    1954.5557 
  194700    298.58558   -1169.1245    6383.3898    11593.088    1932.8784 
  194800     303.3773   -1167.7855    6380.2731    11693.678    1924.5962 
  194900    304.29843     -1161.51    6557.1862    11896.545    1973.7856 
  195000    299.04083   -1161.9367    6448.4305    11675.042    1919.2792 
  195100    302.80214   -1161.1472     6313.672    11621.428    1887.8035 
  195200    299.56437   -1163.9459    6376.7435    11612.531    1912.8978 
  195300    299.59319   -1164.4333     6555.324     11791.24    1948.5006 
  195400    297.32506   -1163.5368    6462.5958    11650.953    1867.7199 
  195500    302.81066   -1168.0912    6409.6053    11710.599     1865.526 
  195600    302.88579   -1163.7699    6453.9795      11760.9    1926.0436 
  195700     295.5836   -1160.0951    6394.4637    11549.059    1953.7026 
  195800    301.99053   -1161.7386    6318.0877    11607.913    1969.5831 
  195900    297.47777   -1156.5543    6471.5892    11670.191    1960.2527 
  196000    297.94839    -1158.474    6503.0147    11709.751    1886.8638 
  196100    304.00441   -1161.3023    6476.9514    11810.237    1951.5665 
  196200    297.33991   -1159.5836    6368.5451    11561.173    1875.2674 
  196300    302.40404   -1156.5082    6439.4604    11743.351    1974.5173 
  196400    303.83238   -1155.7853    6309.5979    11644.725    1918.1609 
  196500    300.20161   -1162.6164    6318.1556    11568.886    1856.8495 
  196600    308.49894   -1160.1951     6591.587    12021.998    2015.3164 
  196700     293.8746   -1159.5428    6412.0702    11530.707    1881.3303 
  196800     302.5308   -1160.8147      6338.27    11640.562    1913.0124 
  196900     297.0439   -1156.8694     6430.615    11619.633    1921.8278 
  197000    301.96124   -1150.3543    6530.4617    11831.046    1974.7927 
  197100    298.69777   -1157.4781    6320.4029    11544.144    1824.9424 
  197200    301.49233   -1162.4299     6369.641    11648.132    1884.5286 
  197300    293.21439    -1161.821     6366.615     11468.87    1850.0831 
  197400    305.43839    -1160.656    6510.9879    11875.554    1918.8989 
  197500    298.05133   -1163.2226    6472.6092    11676.796    1934.2778 
  197600     300.5497   -1164.2704    6370.8003    11627.313    1865.8485 
  197700    302.19014   -1164.4335    6389.5335    11680.929    1908.7184 
  197800    298.27719   -1156.7066    6521.3237    11736.851    1958.5853 
  197900    305.90983   -1155.3064    6508.6396    11888.627    1961.8259 
  198000    296.78945   -1156.1676    6381.8431    11566.127    1900.6648 
  198100    305.24424   -1159.3146    6379.2462    11741.006    1945.2699 
  198200    298.53466   -1161.7572    6362.4461    11578.424    1912.2171 
  198300    297.03544   -1162.9782    6436.7451    11619.473    1919.1126 
  198400    301.00553    -1163.605    6514.3727    11781.289    1932.0316 
  198500    300.73648    -1156.921    6434.9276     11702.78    1885.3586 
  198600    296.63472   -1150.3847    6389.6828    11576.444    1858.4909 
  198700    301.04824   -1158.7505    6435.3119    11707.995    1884.5259 
  198800    299.13221   -1158.1785    6486.7804    11719.103    1948.1468 
  198900    299.51854   -1164.9439    6389.4009    11623.211     1938.502 
  199000    300.84429   -1166.6185    6465.6517     11726.11    1999.3231 
  199100    295.48026   -1160.7981    6400.9205    11552.605    1942.1274 
  199200    298.41778   -1159.4375    6359.6179    11575.418     1959.116 
  199300    297.73881   -1158.9636    6349.3707     11551.14    1931.2963 
  199400    302.78739   -1154.7193    6363.5208    11677.389    1909.8141 
  199500    297.10092   -1153.3988     6520.493      11714.2    1973.2839 
  199600    304.50175    -1156.679    6369.0294    11717.563    1927.4223 
  199700    298.24449   -1164.8759    6343.3707    11550.031    1885.6534 
  199800    301.15516   -1161.0006    6397.7323     11670.45    1886.9802 
  199900    301.97318   -1161.1244    6438.0995    11728.169    1928.1725 
  200000     304.4683   -1164.1038    6491.8534    11832.248    1890.2479 
  200100    297.57225    -1162.223    6383.0448    11577.996    1859.7474 
  200200    303.41383   -1160.6856    6300.2647     11621.55    1913.0844 
  200300    304.50078   -1151.2373    6534.6504    11888.605     1955.816 
  200400    299.29234   -1156.8595    6499.4079     11736.47    1899.6174 
  200500    295.64209   -1161.1151    6303.5045    11458.329    1870.5773 
  200600    304.35896   -1160.4282    6343.3559     11685.09    1923.5116 
  200700    300.85349    -1161.769    6439.5471    11705.051    1898.7788 
  200800    298.18021   -1165.7802     6464.549    11668.932    1916.3452 
  200900    297.92214   -1164.6314    6489.0373    11689.055    1916.1134 
  201000    300.38275    -1159.385    6404.0825    11661.914    1859.4994 
  201100    297.83099   -1166.5677    6486.2532    11682.388    1914.4285 
  201200    299.25075   -1158.0519    6458.1268    11693.108    1965.1179 
  201300    299.24342   -1160.7178    6421.5946    11653.753     1947.576 
  201400    300.75682   -1154.9363    6378.4421    11648.714    1905.2255 
  201500     302.9367   -1155.4183    6457.5568    11773.916    1906.8374 
  201600    296.42457   -1167.0804    6340.4287    11506.004    1942.4351 
  201700    302.39002   -1156.7788    6397.5066    11700.827    1928.4192 
  201800    294.21003   -1162.1568    6479.3438    11602.533     1921.554 
  201900    302.05382   -1167.0449    6382.7312    11668.603    1924.3153 
  202000    299.65235   -1164.4361    6469.8973    11707.074    1960.4453 
  202100    301.46367   -1164.9842    6408.4232    11683.748    1924.9521 
  202200    304.13179   -1160.8897    6473.8218    11810.241    2013.7156 
  202300    300.51091   -1156.9091    6431.4493    11694.495    1947.0923 
  202400    299.30641   -1160.9566     6523.685     11756.95    1970.8463 
  202500    300.25129   -1160.4666    6380.2128    11634.154    1872.9243 
  202600    294.09329   -1160.8638    6347.3408    11469.329    1876.6548 
  202700    299.06609   -1164.8681     6351.507    11575.727    1917.1322 
  202800    298.09174   -1166.1451    6441.3952    11643.523    1908.9005 
  202900    301.85095   -1160.8568     6462.562    11750.288    1958.8444 
  203000    294.79594   -1166.5269    6351.5479    11482.884    1901.8984 
  203100      301.126   -1163.6401    6388.5939    11658.049    1899.1866 
  203200    307.24593   -1159.6637    6509.3057     11913.48    1976.3832 
  203300    296.73739   -1152.3612    6446.1781    11633.156     2007.187 
  203400    303.79706   -1163.3081    6358.1563    11685.006    1953.3934 
  203500     298.1769   -1161.0261    6381.2512    11590.317    1895.6761 
  203600    302.26124   -1157.6684     6461.871     11761.55    1944.5305 
  203700    296.77775   -1162.1135    6498.8417     11676.93    1975.7036 
  203800    298.99183   -1166.2739    6447.6752    11668.903    1923.7933 
  203900    301.66239   -1164.9651    6401.9823    11681.571     1960.257 
  204000    298.13482   -1165.5468    6417.8523    11621.498    1967.2104 
  204100    295.20166   -1162.1863    6436.1612    11580.505    1839.6597 
  204200    302.83442   -1163.3251    6466.4927     11772.76    1894.7372 
  204300    296.95937    -1157.908    6429.4647    11615.638    1935.1549 
  204400    300.27958   -1155.8764    6409.1688    11668.305    1935.6951 
  204500    302.56098   -1160.4673    6352.4612    11655.745    1946.5822 
  204600    295.39153   -1165.7291      6553.45    11698.308    2034.8091 
  204700    302.68461   -1163.4718    6472.8524    11775.773    1896.4602 
  204800    294.95699   -1165.0801    6385.3127    11521.536    1900.4503 
  204900    302.70272   -1163.2113     6531.179    11834.747    1984.2096 
  205000    299.41294   -1161.4182    6297.9777    11533.058    1856.2617 
  205100    299.12289   -1160.2491    6517.3894    11747.442    1921.0895 
  205200     300.6571   -1162.4549    6451.6738    11712.296    1977.1235 
  205300    300.12475   -1165.3689    6382.7364    11629.072    2002.8581 
  205400     298.0968   -1161.7451    6417.2758    11623.912    1984.9523 
  205500    303.73927   -1162.1723    6366.9526    11693.704    1916.6145 
  205600     300.2687   -1162.8221     6428.169    11680.127    1928.1689 
  205700    297.86274   -1162.5381     6359.087    11559.929    1889.3408 
  205800    301.40652   -1162.2395    6333.8415     11610.69    1869.1646 
  205900    295.93483    -1162.881    6355.1736    11514.486    1886.6521 
  206000    301.51376   -1165.2673    6520.8167    11796.928    1931.5626 
  206100    298.34671   -1162.6085    6449.9931    11661.104    1847.8477 
  206200     300.2305     -1162.76    6434.7304    11685.934    1871.4982 
  206300    298.56785   -1158.7362     6411.979    11631.687    1909.1214 
  206400    301.54704   -1162.4417    6303.4666    11583.115    1888.2216 
  206500    299.93172   -1162.9804    6329.2224    11573.823    1866.0312 
  206600    300.99556   -1158.4721    6579.0468    11850.883    1910.6123 
  206700    300.45652   -1159.9296    6464.3455    11723.208    1875.2173 
  206800    299.69619   -1162.1296    6501.0526    11741.472    1918.3145 
  206900    300.69286   -1162.9922    6285.8313    11546.681    1868.2457 
  207000    303.17524   -1157.5691    6459.3415    11778.646    1949.3413 
  207100    295.94155   -1155.3459    6477.1846    11644.176    1852.3898 
  207200    301.29002   -1159.0332    6384.1663    11661.732    1821.8162 
  207300    300.14921   -1162.1887    6489.5307    11739.569    1893.9138 
  207400     298.2753   -1158.2175    6406.8874    11620.864    1920.7666 
  207500     302.1026   -1164.6631    6406.0809    11695.376    1907.6732 
  207600    296.78649   -1158.9362    6418.7035    11600.155    1904.8715 
  207700    297.76503   -1156.4033    6517.0983    11721.988    1940.7961 
  207800    304.37482   -1160.1927    6394.6791    11736.987    1843.0934 
  207900    298.79631   -1165.7646    6437.4955    11655.056    1929.9139 
  208000    303.88171   -1161.3406    6391.9891    11722.615    1917.8225 
  208100    296.28743   -1166.2946    6420.3688      11583.8    1877.6731 
  208200     301.7164   -1170.1176    6458.3317    11733.922    1891.8831 
  208300    301.00851   -1165.4519    6458.6906    11723.824    1900.2036 
  208400    298.14523   -1166.9879    6414.5172    11616.945    1904.2816 
  208500    302.09908   -1168.5371    6363.1562    11648.502     1939.137 
  208600    298.65114   -1162.5145    6420.5157    11638.225    1991.0206 
  208700    298.32369   -1164.2769    6458.7789     11667.73    1899.1649 
  208800    304.69407   -1171.9565    6467.9487    11805.313    1857.8299 
  208900    303.95246   -1168.4862     6475.477    11800.469    1929.2399 
  209000    297.79436   -1164.4419     6453.655    11651.133    1931.0964 
  209100    299.31293   -1171.1864    6334.3387    11557.514    1826.0811 
  209200    303.09781   -1165.5867    6423.0807    11732.714    1887.2543 
  209300    301.44136   -1163.1535     6479.906    11756.585    1876.1135 
  209400    296.60397    -1164.048    6427.3616    11599.802    1880.8233 
  209500    300.86389    -1160.517    6384.5575    11651.536    1971.8956 
  209600    298.08993   -1162.9441    6448.1662    11653.456    1941.4121 
  209700    302.42326   -1164.4088    6371.5483    11667.948    1833.2927 
  209800    304.03854   -1161.7189     6421.932     11755.53    1928.7472 
  209900    295.24713   -1166.1655    6506.4082    11647.745    1948.9877 
  210000    303.54931    -1161.458    6474.1802    11797.588    1934.2439 
  210100    298.78191   -1160.5576    6312.2955    11534.755    1920.0142 
  210200    303.20168   -1160.6918    6416.5246    11733.271    1919.9191 
  210300      296.604   -1153.6452    6510.9886    11693.833    1891.6344 
  210400    300.86329   -1155.6839     6448.132    11719.931    1883.8742 
  210500    297.97601   -1156.1132    6361.8567    11571.544    1895.1273 
  210600    300.31459   -1153.2628    6367.1669    11629.664    1799.8351 
  210700    305.92735    -1155.401    6581.5107    11961.778    1928.7031 
  210800    300.28171   -1158.4157    6428.8551    11685.497    1839.4067 
  210900    298.99692   -1160.7266     6378.734    11605.618    1829.7218 
  211000    295.65112   -1158.2563    6509.2983    11667.174    1848.7665 
  211100    305.26704   -1160.3449    6354.7964    11716.013    1752.9874 
  211200    298.16641   -1158.4388    6378.1792    11589.608    1806.6761 
  211300    304.22456   -1154.2334    6493.2945    11838.352    1908.4524 
  211400    296.92938   -1158.4007    6501.7485    11686.789    1926.8094 
  211500      303.085   -1161.4038     6318.546    11632.088    1839.1157 
  211600    296.96452   -1161.9752    6410.7898    11593.006    1905.8014 
  211700    301.94618   -1168.4034    6408.3599    11690.573    1894.5758 
  211800    298.38836   -1163.6121    6365.5243    11576.522    1829.8092 
  211900    299.40741   -1161.9064    6422.5665     11657.04    1849.0367 
  212000    300.92506   -1163.5189    6454.1909    11719.474    1867.2833 
  212100    299.53509   -1170.1511    6434.2681    11663.225     1874.798 
  212200    298.86031   -1166.6149    6379.4338    11597.511    1863.5567 
  212300     305.6842   -1164.5766     6383.386    11749.283    1881.1172 
  212400    299.24193   -1168.7878    6448.6631     11672.72    1852.5895 
  212500    306.08697   -1163.3791    6436.8951    11812.594    1874.4839 
  212600    299.98836   -1163.8747    6400.7176    11645.634     1910.461 
  212700    301.18713   -1167.1674    6417.4643    11684.698    1871.8031 
  212800    298.89259   -1162.0377    6345.6569    11569.001    1828.9508 
  212900    300.28525   -1163.8991    6488.4651      11739.7    1899.2592 
  213000    299.92172   -1162.0842    6498.7667     11744.05    1855.5266 
  213100    300.16814   -1158.3481    6338.1388    11592.422    1819.5963 
  213200     296.4694   -1155.2083    6289.0141    11467.419    1829.4933 
  213300    300.59044   -1157.0068    6440.3461    11704.993    1885.5251 
  213400    298.45428   -1151.8053    6535.5891    11759.801    1890.3788 
  213500    299.71926   -1155.1039    6372.8876    11620.826    1869.4009 
  213600    294.88409   -1158.2794     6366.185    11507.652     1888.742 
  213700    301.79612   -1160.7398     6480.969     11767.64     1927.736 
  213800    303.40442   -1157.0803     6441.866    11766.556    1900.9996 
  213900    298.41536   -1154.1171     6389.744    11610.813    1968.7885 
  214000    293.01428   -1154.9168    6421.1361     11526.02    1906.8304 
  214100    300.15262    -1148.486    6428.8711    11692.685    1941.0925 
  214200    303.06286   -1149.9409    6418.0536    11742.586    1929.9421 
  214300    297.77414    -1158.666    6446.0663    11648.888    1866.1573 
  214400    298.13986   -1153.9927    6442.4992    11657.807    1805.8354 
  214500    299.66492   -1161.4804    6465.4818    11705.883    1839.5503 
  214600    297.62229    -1160.779    6474.6785    11672.143    1875.9289 
  214700    304.65943   -1162.3986    6404.4182    11750.601    1863.1953 
  214800    298.79645   -1165.8107    6370.1492    11587.666    1812.8753 
  214900    303.14981   -1162.1649    6438.1096    11752.275    1885.6331 
  215000    304.49914   -1165.4669    6407.0494    11746.739    1882.6203 
  215100    300.34279   -1165.6414    6499.2122    11749.934    1875.3235 
  215200    303.41133    -1158.298     6407.787    11731.406    1868.7761 
  215300    296.59649   -1161.4705    6393.0084    11567.867    1903.8405 
  215400    295.35928   -1163.8853      6381.15    11527.163    1903.3482 
  215500    301.70908   -1170.6207    6396.1086    11671.039     1853.872 
  215600     299.7633   -1172.7556    6493.9878    11725.215    1878.8174 
  215700    296.98395   -1170.7036    6513.0759    11686.979    1833.4868 
  215800    299.84197   -1168.7082    6419.1678    11656.123    1851.9926 
  215900    296.47852   -1168.1111     6342.952     11508.65    1912.7779 
  216000    302.52532   -1168.9453    6350.1373    11644.181    1908.1867 
  216100    298.83353   -1157.1904    6410.6188    11637.548    1872.3915 
  216200    299.50491   -1162.2962    6459.2525    11695.419    1936.2983 
  216300    298.29026    -1165.639    6383.8916    11590.766    1883.1443 
  216400    299.88027   -1158.7118    6357.5309    11605.301    1894.7561 
  216500     301.5508   -1167.4505    6317.4005     11592.12    1866.9775 
  216600    300.56534    -1166.783    6499.5768    11753.911    1875.1495 
  216700    301.19649    -1165.592    6506.8136    11775.822     1839.907 
  216800    300.21323   -1161.1692     6488.239    11740.665    1913.0843 
  216900     300.5267   -1158.0409    6536.1864    11798.437    1978.5605 
  217000     296.4132   -1156.8822    6298.1693      11473.7    1837.9776 
  217100    301.25128   -1156.4148    6376.7078    11656.064    1843.8942 
  217200    298.86506    -1145.148    6382.6443     11622.29    1846.5616 
  217300    302.34102   -1150.7779    6478.4724    11786.746    1809.9723 
  217400    296.94675    -1156.059     6458.208    11645.961    1838.0232 
  217500    294.63924   -1152.6234    6456.0011    11597.893    1837.1667 
  217600    302.35995   -1164.7025    6413.3267     11708.08    1851.8116 
  217700    297.10451   -1158.5727     6446.045    11634.654    1828.6563 
  217800    297.66962   -1163.7896    6452.4113    11647.876    1915.8177 
  217900    300.74084   -1164.7164    6419.1358    11679.286    1869.7793 
  218000    299.52211   -1156.5734    6450.5988    11692.856    1848.2861 
  218100    294.22456   -1163.1693    6477.7482    11600.235     1887.552 
  218200    295.74569    -1160.883     6256.204    11413.474    1849.3088 
  218300    304.50388   -1162.0494    6383.7187    11726.928    1927.6196 
  218400    296.66177   -1165.8253    6431.6014      11603.5    1919.1972 
  218500    303.48601   -1168.3444    6446.6727    11761.841    1888.4467 
  218600    299.16437   -1173.6873    6468.7195     11686.22    1909.9921 
  218700     301.7105   -1173.0055    6416.1305    11688.707    1896.8537 
  218800    304.56797   -1165.5241    6447.0562    11788.159    1955.2233 
  218900     301.1291   -1163.7354    6507.1608    11776.587    1951.3306 
  219000    296.30946   -1163.2132    6361.1461     11528.13    1872.0283 
  219100    299.99546   -1164.8713    6344.0944    11588.166    1881.2238 
  219200     301.0502    -1157.522    6402.1283    11676.082      1932.48 
  219300    301.37042   -1165.3157    6464.6902    11737.691    1955.9299 
  219400    298.15913   -1167.9677    6342.9616    11544.706    1882.7994 
  219500    303.52169   -1172.6475    6407.3525     11718.98    1929.7057 
  219600    297.99251   -1164.8872    6497.4313    11698.697    1886.9453 
  219700    305.51235   -1163.2344     6501.581    11865.149    1952.6941 
  219800    299.27418   -1165.7198    6462.5357     11690.35    1959.2976 
  219900    301.61938   -1163.3628    6379.9835    11660.256    1950.9955 
  220000    298.56528   -1159.0845    6362.8268    11582.132    1920.0647 
  220100    301.49825   -1154.1066    6402.6579    11689.599    1950.3367 
  220200    299.95447   -1156.1154    6538.7418    11790.693    1950.8018 
  220300    297.69275   -1160.5537    6458.4818    11657.677     1902.188 
  220400    301.28795   -1157.2254    6248.9216    11528.251    1832.7609 
  220500    296.85378   -1158.9738    6444.6549    11627.507    1870.0742 
  220600    306.47319   -1158.6836    6515.6551    11904.301     1879.824 
  220700    295.17709   -1157.2769    6438.9852    11587.714     1864.116 
  220800    304.41922   -1154.9012    6429.8841    11778.432    1902.2573 
  220900    299.89059   -1154.4763    6473.3444     11725.57    1990.6257 
  221000    300.11661   -1155.9382    6358.3105    11613.903    1965.6867 
  221100    301.00094   -1154.2637     6410.082    11686.242    1962.4301 
  221200     297.1022   -1157.2869    6373.3281    11563.174    1892.1395 
  221300    307.10295   -1161.7508    6460.2043    11859.237    1887.4892 
  221400    300.08228   -1159.0388       6527.7    11779.459     1875.391 
  221500    299.19571   -1165.0265    6504.7779    11731.609    1981.0455 
  221600    299.28272   -1164.0966     6319.696    11549.316    1875.9763 
  221700     304.4567   -1160.6363    6391.0183    11734.632    1922.8944 
  221800    299.27878   -1165.0835    6426.1055    11654.654    1972.8065 
  221900     299.7487   -1165.8117    6320.7799    11558.639    1862.8922 
  222000    296.55538    -1159.659    6444.1789    11619.971    1905.2406 
  222100     298.7683   -1159.5777    6456.4713     11679.62    1935.9926 
  222200    302.12956   -1163.6797     6400.064    11690.919    1976.4246 
  222300    299.32648   -1164.0913    6389.0159    11619.575    1934.7586 
  222400    301.04217   -1162.2929    6434.2893    11703.301    1941.9487 
  222500    297.11553   -1164.6284    6409.5223    11592.311    1914.7518 
  222600    301.32909   -1167.4087    6496.8548     11766.88    1905.3758 
  222700      299.136   -1164.7614    6424.6831    11650.503    1872.4474 
  222800    300.51747   -1166.9089    6370.3467    11623.532    1933.1313 
  222900    302.25726   -1159.9217    6401.3889     11698.73     1910.322 
  223000    298.45495   -1162.1238    6341.3582    11555.267    1836.1182 
  223100    294.77573   -1158.6619    6446.4596    11585.229    1888.7491 
  223200    296.14636   -1161.5725    6456.8444    11621.984    1946.0436 
  223300    300.09089   -1164.2412    6379.7212    11626.461    1940.1208 
  223400    294.13849   -1162.4335    6532.9734    11654.357    1961.1986 
  223500    300.13132    -1157.557    6442.3129    11696.601     1848.463 
  223600    304.30891   -1149.4453    6462.5315    11814.179    1895.4388 
  223700    295.97557   -1155.0926    6420.2817    11588.253    1884.9761 
  223800    293.38765   -1160.6535    6333.2242    11440.348    1873.4685 
  223900    304.76157    -1155.402    6466.2114    11821.573    1966.2028 
  224000     298.4408   -1155.2966    6502.7876    11723.221    1910.5141 
  224100    301.16051    -1151.452    6537.1703    11819.551    1949.9385 
  224200    299.03838   -1159.2023    6356.6839    11585.978     1942.646 
  224300    300.93166   -1163.1206    6343.0514    11608.874    1902.5856 
  224400    304.30302   -1160.2232    6460.8404    11801.584    1838.7469 
  224500    300.86791   -1161.0377    6543.8224    11810.366    1970.8575 
  224600    294.25445   -1160.1586    6362.2239     11488.36    1914.5997 
  224700    305.76911   -1162.0869    6421.2445    11791.445    1941.1775 
  224800    299.48584   -1160.7158    6441.9114    11679.251    1959.2828 
  224900    295.33315   -1161.1979    6389.9334    11538.075    1925.8082 
  225000    300.63461   -1161.3614    6506.9833    11768.219    1939.2505 
  225100    303.05582   -1158.2953    6407.4932     11723.52    1908.6175 
  225200    303.34544   -1168.7383    6381.3594    11693.131    1925.7545 
  225300    297.74492   -1170.2771    6462.2297    11652.816    1927.9314 
  225400    296.78819   -1165.1114    6555.7891    11731.102    1964.4585 
  225500    307.75055   -1166.3515    6451.3502    11859.617    1970.4943 
  225600    298.07089    -1164.745    6361.6083     11564.69    1900.7233 
  225700     301.5447   -1165.9365    6384.7734    11660.877    1882.4959 
  225800    298.11316   -1157.8545    6437.3292    11648.205    1930.9947 
  225900    300.67153   -1163.2801    6322.4499    11582.556    1896.9903 
  226000    300.58625   -1164.1795    6435.0881    11692.473    1908.7846 
  226100    297.76074    -1161.069    6536.9861    11737.118    1969.3138 
  226200    304.49739   -1166.4435    6395.2331    11733.909    1892.1461 
  226300    295.11449   -1167.4774    6431.6401    11568.831    1887.7453 
  226400    301.16761   -1167.1166    6434.1753    11701.042    1936.3409 
  226500    302.31758   -1166.1928    6386.1998    11678.558    1947.1349 
  226600    300.75219    -1162.531    6409.1488    11671.727    1884.6933 
  226700    300.38413   -1156.4629    6450.9593    11711.742    1932.1348 
  226800    305.01794   -1156.9464    6402.2306    11761.525    1953.6206 
  226900    299.13049    -1150.299    6350.7899    11590.955    1936.2972 
  227000     297.8069   -1155.7474    6415.8363    11622.276    2016.4699 
  227100     301.9072   -1154.6186    6539.2129    11834.378    2003.0709 
  227200    299.16249   -1156.8632    6415.3213    11649.606    1869.2983 
  227300    298.62831   -1156.6178    6429.8354    11652.953    1903.8978 
  227400     300.5515   -1166.3957    6445.8306    11700.256     1918.117 
  227500    302.14729   -1161.5975    6448.6719    11741.988    1890.7316 
  227600    298.61981   -1159.0702    6539.9738    11760.458    1935.7545 
  227700    298.27311    -1161.872    6459.7528    11670.028    1931.0416 
  227800    299.00251   -1164.5696     6356.178    11579.338    1900.6678 
  227900    297.34416   -1159.2111    6361.9069    11554.997    1970.2063 
  228000    296.70301   -1155.6252    6418.6479    11601.627    1938.4719 
  228100    299.97119   -1161.1134    6460.2651    11707.576    1906.8172 
  228200    300.71661   -1163.6262    6429.0456    11689.768     1895.266 
  228300    298.90662   -1166.5811     6441.322    11660.422    1926.9049 
  228400    303.42338   -1167.0013    6243.2811    11558.455    1800.9382 
  228500    296.63751   -1168.2735    6482.5495    11651.481    1889.2236 
  228600    305.97012   -1165.9381     6447.375    11818.019    1909.0248 
  228700    295.97115   -1161.9945    6383.0795    11544.055    1847.9927 
  228800     300.6183   -1162.8012    6353.5858    11613.033    1904.9552 
  228900    297.25865   -1161.4801    6410.7919    11599.787    1879.7741 
  229000    299.54939   -1156.7487    6492.2543    11734.919    1888.0202 
  229100     300.6935   -1161.1947    6303.9543    11566.615    1843.2311 
  229200    298.10211   -1165.3783    6436.4425    11639.558    1899.6601 
  229300    298.33216   -1171.3329    6505.9104    11707.986    1902.6301 
  229400    302.53202   -1170.5076    6509.5066    11802.131    1879.5862 
  229500     296.9555    -1167.786    6358.2012    11534.414    1899.7089 
  229600    297.67438   -1165.1176    6316.0342    11510.273    1878.2377 
  229700    302.15594   -1155.5357    6467.8225    11767.385    1902.5115 
  229800    303.13664   -1155.9197    6604.0267    11924.156    1953.1604 
  229900    300.05479   -1154.9772    6405.0997    11660.333    1825.8182 
  230000    303.60047    -1153.469    6529.4121    11861.901    1919.9136 
  230100    298.52131   -1158.6329    6392.6722    11611.489    1898.7943 
  230200    293.83159   -1157.3054    6435.8455    11555.801    1963.9959 
  230300    303.42995   -1162.6576    6417.2243    11736.882     1938.066 
  230400    297.58755   -1163.3599     6409.797    11603.938    1889.5241 
  230500    298.85494    -1164.378    6462.2447    11682.444    1911.1675 
  230600    300.88918    -1162.046    6482.1661    11748.156    1909.4282 
  230700    298.45898   -1158.2616    6480.6857    11698.542    1993.0669 
  230800    298.24243   -1156.3825    6420.7763    11635.886    1946.6355 
  230900    303.46632   -1153.3066    6373.4102    11703.196    1854.8501 
  231000    297.91935   -1152.1363    6376.7144    11589.168    1837.5444 
  231100    300.46214   -1150.1071    6520.6368    11789.442    1966.8418 
  231200    299.26574   -1166.5937    6375.9742    11602.734    1906.0591 
  231300    299.15114   -1167.0352    6344.2706    11568.141    1874.1407 
  231400    297.64252   -1164.3202    6516.4907    11710.846    1950.7725 
  231500    298.24206   -1171.6472    6332.4686    11532.305    1875.3097 
  231600    302.77915   -1166.6304    6367.4636    11669.245    1927.0177 
  231700    296.19178   -1165.9386    6505.4558      11667.2    1914.2719 
  231800    296.97869    -1160.886    6436.3054    11619.914    1868.1027 
  231900    304.30811   -1166.0109    6413.9691    11749.034    1919.2056 
  232000    299.38212    -1163.811     6415.636    11647.665    1880.5316 
  232100    299.07568   -1164.0767    6316.2849    11541.501    1859.5638 
  232200    301.64754   -1167.0866     6377.666    11654.816    1847.9503 
  232300    302.71255   -1167.8939    6538.4268    11837.522     1894.604 
  232400    299.17178   -1165.4882    6443.9634    11669.821    1889.6362 
  232500    296.22685   -1166.8408    6479.9421    11641.534    1899.3778 
  232600    302.56847   -1165.7219    6426.6921    11724.881    1910.3759 
  232700     298.9385   -1165.3095    6236.2323    11457.285    1861.2896 
  232800    298.45594   -1163.6242    6429.0879    11641.517     1974.216 
  232900    301.00106   -1163.0611    6402.0025    11669.367    1875.6441 
  233000    302.35006   -1158.6488    6587.2928    11887.889    1997.8166 
  233100    298.20897   -1163.9608    6437.7026    11644.519    1946.5443 
  233200    302.30166   -1166.1122    6269.3321    11561.431    1818.5572 
  233300    301.89075   -1165.0232    6413.5125    11697.922    1889.0285 
  233400     298.5033   -1160.1081    6532.4682    11749.425    1906.0653 
  233500    302.67512   -1157.4748    6428.4234    11737.138    1846.7032 
  233600    294.60238   -1164.5074    6408.4047    11537.625    1962.8786 
  233700    299.67163   -1159.5315    6413.8036    11656.297    1971.5339 
  233800    304.67927   -1157.4375    6350.0456    11701.613    1878.5953 
  233900    297.81594   -1161.9615    6492.2361    11692.655    1957.3991 
  234000    299.66169   -1164.0321    6396.0526    11633.833    1873.2126 
  234100    303.48506   -1163.0849    6418.6289    11739.037    1914.9214 
  234200    300.15584   -1161.1508     6450.256    11701.474    1852.0723 
  234300    304.04327   -1169.7198    6513.5843    11839.282    1885.3264 
  234400    299.26427   -1164.5707    6477.4838    11706.235    1904.7951 
  234500    299.88338   -1169.3974    6298.0166    11535.167    1825.8948 
  234600    298.91608   -1165.2943    6382.6537    11603.243    1867.7345 
  234700    301.67598   -1158.8438    6478.6492     11764.65    1939.6161 
  234800    300.21416   -1151.8904    6479.6413    11741.366    1947.9078 
  234900    300.17954   -1159.8908    6345.9782    11598.963    1921.1526 
  235000    298.63127   -1162.0261     6326.926    11544.699    1889.6053 
  235100    298.98977   -1163.9984    6376.6205     11600.08    1946.3766 
  235200    302.04281   -1161.9519    6429.3474    11720.077    1910.3524 
  235300    301.94802   -1162.7677     6424.944    11712.832    1909.8667 
  235400    296.82437   -1165.6426    6408.5097    11584.064    1851.0037 
  235500    298.20049    -1164.939    6482.6292    11688.286    1820.6638 
  235600    301.33058   -1166.2275    6391.0636    11662.302    1804.5046 
  235700    297.23345   -1161.1075    6469.6337    11658.463    1923.0721 
  235800    298.24908   -1160.9502    6367.5795    11578.263    1893.1324 
  235900    301.12416   -1157.2722    6351.6507    11627.434    1899.4111 
  236000    299.26837   -1154.1664    6519.8238    11759.067    1951.9175 
  236100    300.51069   -1154.9501    6398.7746    11663.774    1912.1296 
  236200    298.08687   -1160.9378    6407.7561    11614.987    1881.5265 
  236300    298.45171   -1159.3121    6457.3214    11673.972    1850.5148 
  236400    305.50361    -1161.291    6330.6941    11696.019    1805.1103 
  236500     297.0916   -1159.5357     6484.534    11671.904    1860.1858 
  236600     303.7995   -1164.5175    6499.5079    11825.201    1910.7435 
  236700    303.15943   -1154.9026    6383.5273    11705.161    1837.0998 
  236800     299.5018   -1157.5548    6476.9082     11717.75    1956.7687 
  236900     302.5222   -1159.2463    6445.9012    11749.578    1983.7436 
  237000    297.69326   -1158.6404     6319.797    11520.916    1908.8422 
  237100    302.65327   -1154.4438    6432.9801    11744.259    1971.8099 
  237200    298.24153   -1161.4673    6433.5527    11643.558     1962.043 
  237300    302.09952   -1165.4794    6412.0968     11700.51    1916.1051 
  237400    298.44109   -1161.5219    6460.9728    11675.187    1963.5319 
  237500    294.85111   -1166.4192    6390.6217    11523.244    1866.6569 
  237600    298.38835   -1163.0086     6454.648    11666.249    1936.7973 
  237700    302.23022   -1160.5225    6416.2905    11712.453    1966.9065 
  237800    300.59306   -1165.5496    6440.6908    11696.851    1974.2405 
  237900    301.90134   -1163.8338    6367.6405    11653.466    1945.8118 
  238000    299.91656   -1165.9625    6405.3794    11646.674     2014.335 
  238100    301.79922   -1168.2285    6464.3899    11743.639    2019.5293 
  238200    302.91694   -1167.7425    6443.2403    11746.853    1931.4576 
  238300     296.8031   -1169.9239    6402.8289    11573.648    1922.1205 
  238400    304.46424   -1171.8421    6418.0187    11750.588    1944.9519 
  238500    300.59078   -1165.1356    6519.0958    11775.621    1962.9276 
  238600    298.95649   -1167.8567    6382.9357    11601.826    1888.8599 
  238700    296.61081    -1166.127    6393.8994    11564.407    1913.7289 
  238800    303.62698   -1159.0163    6437.3644    11764.873     1967.559 
  238900    300.08917   -1162.0574     6469.051    11717.938    1972.4069 
  239000    300.55681   -1163.6705    6358.7564    11616.021    1951.9804 
  239100    298.73664   -1156.2527    6406.6142    11632.412    2018.8046 
  239200    299.52871   -1159.9463    6402.2855     11641.31    1988.0662 
  239300    303.22611   -1161.5413    6422.3599    11738.779    1962.2173 
  239400     295.6952   -1159.7378     6375.574    11532.911    1909.7632 
  239500    301.80228   -1157.2298    6533.8501    11824.163    1980.4119 
  239600    296.24576   -1158.7466    6457.7505     11627.84      1961.86 
  239700    301.10012   -1158.6152    6260.6288    11534.556    1893.0166 
  239800    296.92279   -1149.5489    6468.3577    11662.109    1955.7035 
  239900    300.48993   -1149.9269     6445.885    11715.464    1903.5163 
  240000    306.54883   -1154.6627    6342.1238    11736.406    1919.9967 
  240100    298.10926   -1146.8269    6469.7212    11691.541    1918.1478 
  240200    301.68285   -1149.7181    6389.1437    11684.417    1857.4971 
  240300     299.2679   -1149.2883    6425.5902    11669.701    1893.5279 
  240400    299.59258   -1162.5206    6431.3478    11669.163    1937.9333 
  240500    300.97387   -1158.0686    6405.5038     11677.28    1816.8642 
  240600    296.49928   -1163.2916    6546.8327    11717.793    1890.7194 
  240700    300.02812   -1158.5903    6408.9591    11660.009    1846.1712 
  240800    302.64302   -1157.1575    6365.8879    11674.234    1859.6752 
  240900    295.03176    -1156.125    6467.7688    11614.545    1901.2143 
  241000    307.31961   -1157.3157    6403.8114    11811.908    1920.4409 
  241100    298.24471   -1161.3863     6390.983    11601.137     1830.778 
  241200    299.14655   -1162.6446    6439.0301    11667.193    1853.5514 
  241300    302.12622    -1164.608     6478.913    11768.768     1929.828 
  241400    299.07717   -1168.5787    6461.1911    11681.937    1890.5813 
  241500    299.05397    -1167.443    6482.4452    11703.831    1891.5776 
  241600    294.81196   -1167.1016    6422.2773    11553.381    1947.6921 
  241700    302.40722    -1166.427    6327.9603        11622    1908.3103 
  241800    297.02789   -1171.3974    6437.5802    11611.728    1955.6857 
  241900    301.01659   -1164.6505    6481.5726     11747.68    1986.6858 
  242000    301.81316   -1163.8646    6368.1524    11652.063     1848.551 
  242100     299.7414   -1167.4099    6340.1538    11576.259    1898.2832 
  242200    298.73679   -1162.2922      6366.68    11586.441    1919.2044 
  242300    299.94924   -1164.7463    6544.3892    11787.598    1976.4514 
  242400    296.64046   -1163.0222    6483.6945    11657.941     1882.295 
  242500    304.54037    -1162.907    6408.8931    11752.024     1916.904 
  242600    300.92097    -1164.181    6365.0381    11629.572    1908.1741 
  242700    299.95038   -1161.3947    6484.8683    11731.453    1905.1323 
  242800    306.72379     -1159.43    6446.3904    11839.643    1957.5205 
  242900    300.11369   -1160.9434    6308.1129    11558.638    1890.4394 
  243000    297.40254    -1157.276    6387.2639    11583.537    1851.5027 
  243100    296.77364    -1154.532    6492.4552    11678.037    1938.1745 
  243200    301.91333   -1156.4575    6363.8351    11657.292    1864.4307 
  243300    297.93273   -1155.0829    6455.7424    11665.535    1886.5798 
  243400     301.2029   -1153.5684     6459.729    11740.898    1849.2754 
  243500    302.17705   -1156.4385    6375.9395     11675.05    1818.7363 
  243600    298.32072   -1153.7082    6487.2431    11706.699    1896.7361 
  243700    301.21274   -1158.0364    6418.2413    11695.153    1882.5829 
  243800    301.51473   -1163.2441    6356.1677    11634.323     1885.945 
  243900    300.35061   -1159.9324    6491.4443    11748.042    1931.0331 
  244000    301.96549   -1157.7902    6541.3994    11834.639    1886.0077 
  244100    300.52294   -1160.0088    6422.1163    11682.319     1899.299 
  244200    297.06432   -1163.2022    6257.3914    11440.513    1874.3048 
  244300    299.85961   -1164.4758    6442.6712    11684.236    1966.7781 
  244400    304.03963   -1158.5184    6485.6286     11822.45    1910.0827 
  244500    296.96832   -1164.5929    6401.8912    11581.571    1894.3149 
  244600    303.06099   -1164.9627    6438.8427    11748.313    1936.2042 
  244700    302.03132   -1165.5883    6466.1259    11752.973    1987.5943 
  244800    301.08766   -1171.4807    6369.0926    11629.888    1926.4082 
  244900    302.69511   -1165.9184    6364.3983    11665.096     1930.538 
  245000    301.90826   -1170.4377    6455.9241    11735.293    1861.1476 
  245100    291.83613   -1168.4799    6481.0731    11547.224    1872.8599 
  245200    300.73071   -1170.2212    6415.1895    11669.618    1879.7767 
  245300    300.89294   -1170.1048     6414.296    11672.307    1915.9573 
  245400    298.25705   -1171.9121    6284.2557    11484.148    1823.3809 
  245500    301.10011    -1162.826    6440.5365    11710.252    1886.7168 
  245600    298.27612   -1156.0711    6484.1975    11700.338    1860.9602 
  245700    302.16675   -1161.5094    6437.3797    11731.199      1852.56 
  245800    302.68247   -1158.7874    6374.1069    11681.666    1864.9372 
  245900    298.00242   -1161.5877    6266.6234      11471.4    1823.7854 
  246000    297.68428    -1161.074    6528.6774    11727.171    1959.1672 
  246100     299.9142   -1161.3675    6426.6538    11672.493    1820.9447 
  246200    302.03115   -1162.3606     6535.605    11825.676    1916.4036 
  246300    297.23657   -1155.8352    6396.8848    11591.053    1884.4294 
  246400    300.95793   -1161.0841    6402.5146    11670.935     1863.701 
  246500    303.32134   -1157.8347    6453.7163    11775.877    1898.9296 
  246600    295.36938     -1150.48    6516.8424    11676.476    1963.3321 
  246700    306.49143   -1149.5421    6454.9528     11853.13    1898.7386 
  246800    294.77775   -1148.7342    6406.5245    11555.265     1907.542 
  246900    302.67961    -1156.281    6369.2728    11679.277    1915.8691 
  247000    300.80795   -1158.7165    6436.6624    11704.246    1980.7242 
  247100    298.54362   -1150.8514    6533.1417    11760.217    1950.9366 
  247200    302.33022   -1161.1459    6448.7735    11746.449    1889.9137 
  247300    293.10892   -1157.5874    6415.4908    11519.726    1927.3754 
  247400    300.14144   -1159.6881    6402.6008    11654.974    1959.1248 
  247500    302.91626   -1155.9295    6388.8916    11704.303    1910.5042 
  247600    305.27719    -1161.534    6341.3395    11701.584    1851.6166 
  247700    298.56373   -1155.0258    6506.8562    11730.186    1871.5144 
  247800    297.71496   -1162.3339    6429.1453    11627.035    1872.1594 
  247900    299.60699   -1158.2121    6439.7625    11682.194    1903.8877 
  248000    303.50371   -1167.5061    6369.3157    11685.701    1954.1486 
  248100    300.78969   -1172.0353     6355.152    11609.027    1927.6517 
  248200    298.75351   -1169.0116    6362.8998    11576.299    1847.0612 
  248300    303.97939   -1167.7257     6562.579    11888.907    1966.2902 
  248400    295.45292   -1168.9375    6377.2176    11520.178    1898.3366 
  248500    303.95708   -1171.5009     6348.353    11670.429     1884.238 
  248600    299.75089   -1165.8923    6383.8898    11621.715    1914.8124 
  248700    298.32841   -1162.9228     6413.856    11624.262    1945.6384 
  248800    303.05179   -1162.8016    6425.2452     11736.68    1903.5572 
  248900    297.79994   -1163.7708    6463.2524     11661.52     1991.013 
  249000    304.15373   -1160.0803    6353.1623     11690.86    1952.5491 
  249100    296.61441   -1168.5674    6391.5153     11559.66    1930.8757 
  249200     302.8972   -1167.1917    6544.2879     11848.03    2011.2341 
  249300    301.90477    -1159.174    6460.5073    11751.065    1981.2371 
  249400    296.75253   -1162.4821    6380.9077    11558.088    1927.4953 
  249500    304.04671   -1162.2134    6397.7569    11731.035    1928.8937 
  249600    294.30594   -1154.4039     6474.916    11607.907    1957.2474 
  249700    300.54775   -1154.5143     6367.645    11633.872    1928.6171 
  249800    302.99169   -1152.4704      6389.26    11709.742    1883.5001 
  249900    297.15349   -1159.5046    6547.1108    11735.835    1995.8324 
  250000    302.04095   -1162.4281    6406.2043    11696.418     1964.361 
  250100    302.97951   -1156.6556    6465.3787    11781.416    1970.6175 
  250200    295.51608   -1156.2039    6389.4993    11546.543    1956.1055 
  250300    292.87964   -1155.1607    6428.6418    11530.405    1942.3787 
  250400    302.97769   -1154.9174    6454.5481    11772.284    1938.2493 
  250500    293.50111   -1157.9421    6326.6946    11438.953    1935.1071 
  250600    301.83996   -1162.6311    6395.1867    11680.903     1950.105 
  250700    298.94638   -1157.7697      6557.71    11786.471     1878.195 
  250800    302.35277   -1161.2117    6544.1742    11842.266    1920.6893 
  250900    294.73409    -1164.651    6242.4236    11374.314    1863.9234 
  251000    299.94694   -1166.4797    6337.3727    11578.799    1854.8344 
  251100    299.59922   -1155.5275    6471.7378    11716.688    1879.9374 
  251200    305.11504   -1155.6202    6488.7907    11851.485    1968.1011 
  251300    294.28335    -1161.077      6378.83    11504.665    1934.3827 
  251400    301.82434   -1163.8868    6301.1947    11585.322    1851.6371 
  251500    302.25975   -1165.8629    6516.8395    11808.292     2025.261 
  251600    298.87717   -1168.7624    6453.7008    11669.991    1980.1209 
  251700    302.90549   -1163.0029    6345.9842    11654.092    1852.5499 
  251800    295.95419   -1170.2175    6307.2522    11459.642    1880.8398 
  251900    305.41404   -1166.4373    6455.2202    11813.485    1913.9965 
  252000    299.98592   -1159.1893    6603.3299    11852.879     1933.013 
  252100    302.69043   -1163.5033     6349.869    11652.882    1928.9626 
  252200    297.68237   -1160.0664    6222.2756    11421.736     1881.141 
  252300    296.44015   -1155.5492    6568.0684    11745.508    1956.3005 
  252400    300.65878    -1164.327     6395.772    11654.558    1890.5732 
  252500    299.05915   -1162.4668    6418.2029    11644.676    1939.4185 
  252600    304.40807    -1159.768    6430.9577    11774.401     1904.364 
  252700     297.9709   -1163.8733    6498.6671    11700.485     1928.293 
  252800    302.03759   -1158.9749     6457.063    11750.658    1941.0718 
  252900    295.66421   -1163.0521    6413.5644    11566.924    1919.8968 
  253000     299.2339   -1159.7734    6442.5172    11675.417    1927.3847 
  253100    303.01955   -1159.5873    6365.7851    11679.746    1904.2691 
  253200    299.93847   -1159.8595    6521.0667    11768.932    1966.4058 
  253300    302.99042   -1156.9056    6436.6031    11752.623    1949.3819 
  253400    298.25751    -1157.946    6428.1162    11641.984    1983.0705 
  253500    301.92565    -1163.814    6472.4474    11758.812     1986.806 
  253600    298.53739   -1162.1643    6442.6305    11658.259    1896.0979 
  253700    300.36367   -1161.3525      6440.53    11695.987    1961.2551 
  253800    296.37314   -1163.3184    6287.5414     11455.78    1914.9178 
  253900    305.10605   -1164.6276    6470.8004    11824.295    1971.6434 
  254000    295.26431   -1163.7913    6429.3529    11573.431    1912.7498 
  254100    301.05321   -1162.5728    6351.5154    11620.482    1956.2608 
  254200    300.44034   -1163.3001    6359.6172    11614.764    1877.8531 
  254300    301.53151   -1158.9228    6479.9944     11762.83    1915.5078 
  254400    303.12575   -1162.2396    6369.4365    11683.014    1905.2466 
  254500    299.67931   -1164.4248    6435.6264     11673.39    1952.3844 
  254600      299.757   -1169.0215    6313.7923    11548.619    1866.7258 
  254700    299.92328   -1164.0274     6436.335    11679.708    1907.8611 
  254800    299.16635   -1164.7208    6481.8687    11708.378    1931.7833 
  254900    304.27171    -1162.043    6542.3451      11880.6    1964.9406 
  255000    297.90878   -1163.5155    6363.1437    11563.992    1944.8645 
  255100    298.61417   -1164.2122    6519.0281    11734.249    2042.4051 
  255200    296.25854   -1161.6509    6341.0457    11508.504    1877.0871 
  255300    299.97324   -1163.1902     6383.199    11628.477    1872.7535 
  255400    303.68216   -1158.9567    6505.0128     11833.76    1965.1945 
  255500    298.81641   -1157.6747    6423.4075    11649.487    1883.7054 
  255600    302.84821   -1164.5376    6355.4796    11660.829    1880.3672 
  255700    300.23561   -1159.9854    6330.2558    11584.343    1806.6559 
  255800    301.24959   -1159.3326    6475.0584    11751.461    1901.3714 
  255900    297.28468   -1166.7508     6450.751    11635.031    1871.8412 
  256000     303.3738   -1162.6403    6392.2073    11710.683    1955.6194 
  256100    295.11539   -1161.5607    6440.3918    11583.519    1951.0111 
  256200     299.2579   -1157.2612    6343.2481    11579.173    1890.4293 
  256300    296.80506   -1156.2298    6477.8713    11662.426    1928.7315 
  256400    300.95377   -1155.6502    6473.2387    11747.004    1857.1864 
  256500     297.9704    -1162.887    6500.1946    11702.988    1863.2326 
  256600    299.41972   -1164.0922    6389.7703    11622.321    1828.6473 
  256700    298.52682   -1167.4211    6471.1383    11681.285    1914.4013 
  256800    302.08518   -1164.9753    6348.2324    11636.843    1840.1909 
  256900    298.36027   -1167.3661    6480.2002    11686.844    1946.3229 
  257000    303.59792   -1165.6421    6358.2381      11678.5     1839.695 
  257100    296.66899   -1167.7654    6518.8888    11689.001    1901.3428 
  257200    302.13765   -1159.6839    6434.3392    11729.363    1922.2274 
  257300    300.37199     -1164.92    6416.6281    11668.695    1935.6914 
  257400    302.09935   -1165.1662    6362.5007    11651.223    1842.6041 
  257500    302.31401   -1165.7791    6474.8614    11767.557    1891.7863 
  257600    297.57272   -1169.6147     6369.833    11557.403    1844.4163 
  257700    302.17144   -1172.3957    6340.5441    11623.578    1816.4937 
  257800    299.24558   -1170.0284     6405.779    11628.673    1875.3814 
  257900    301.96441   -1166.7992    6394.2051    11678.412    1824.0323 
  258000    296.73493   -1165.2204    6552.3568    11726.423    1920.2548 
  258100    300.96999   -1159.6713    6405.7903    11675.881    1900.0862 
  258200    294.79493   -1158.4459    6247.6814    11387.077    1879.1328 
  258300    297.34018   -1166.8469    6380.7768    11566.147    1982.0772 
  258400    296.60937    -1159.058     6390.656    11568.202    1924.2026 
  258500    301.86059   -1164.9823    6447.1359    11730.942     1897.133 
  258600    301.09103   -1168.2844    6434.0678    11698.131    1811.4347 
  258700    297.29744   -1165.7398    6475.0667    11660.631    1866.8994 
  258800    304.62599   -1162.7963    6425.4535    11770.524    1889.3996 
  258900    304.09115   -1157.4194    6362.0479    11701.069    1789.2453 
  259000    297.43131   -1163.3303    6499.9232    11690.756     1867.041 
  259100     300.5439   -1160.6054    6449.6308    11709.685     1861.268 
  259200    302.47062   -1163.0304    6479.1439    11777.934    1886.8994 
  259300    302.32601   -1159.6918    6359.5716    11658.611    1871.2174 
  259400     301.2713    -1156.922    6494.7163    11773.993    1927.1592 
  259500    299.89898   -1163.9974    6444.8841    11687.768    1925.5078 
  259600    294.10068    -1165.349    6336.9553    11454.616    1865.9633 
  259700    300.35394   -1162.5087    6400.2595    11654.352    1917.0434 
  259800    302.44276   -1155.9857    6527.6937    11832.934    1905.3187 
  259900    296.52967   -1158.2842    6443.8257    11620.443    1911.4419 
  260000    301.10804   -1161.3257    6247.4656    11518.851    1840.5369 
  260100    297.04217   -1165.8379     6389.301    11569.313    1888.2528 
  260200    303.54686   -1159.8524    6458.2964    11783.257    1909.5038 
  260300    298.39402   -1169.8328    6535.5233    11740.421    1906.9799 
  260400     296.5021   -1167.2871    6474.9899    11642.015    1958.6896 
  260500    301.39501   -1166.0837    6407.0844    11679.843    1915.7914 
  260600    296.47341    -1160.863    6376.0173    11548.854    1904.3405 
  260700    298.94281   -1156.5533    6376.4451    11606.346    1934.0369 
  260800    294.97501   -1161.4837    6424.3931    11564.598    1918.7689 
  260900    299.79049   -1161.1428    6411.4229    11654.844    1852.3294 
  261000    299.62026   -1161.4895    6473.9691    11713.407     1920.543 
  261100    301.46571   -1167.4337    6400.7954    11673.714    1851.7305 
  261200    294.67728    -1171.462    6396.5625    11520.428    1921.3249 
  261300    298.28484   -1170.4933    6353.4792    11555.384    1915.3453 
  261400    303.29043   -1167.8757     6434.671     11746.13    1910.9883 
  261500    297.35485    -1169.069    6551.4662    11734.927    1991.6643 
  261600    302.67162   -1161.9401     6485.142    11789.317    2002.5277 
  261700    300.48578   -1155.9382     6387.257    11650.736    1967.5533 
  261800    304.53715   -1149.0831     6392.637    11749.523     1918.303 
  261900    293.42141   -1155.1981    6345.6474    11458.947     1875.944 
  262000    304.21395   -1163.0023    6460.5487    11796.611    1912.8579 
  262100    295.96214   -1162.8807    6459.9858    11619.882    1834.1404 
  262200    302.60038   -1163.0431    6425.0681    11726.618    1830.1146 
  262300    301.04905   -1162.5531    6508.3979    11777.296    1893.1877 
  262400    299.05169   -1160.8978    6347.5826    11575.465    1859.1103 
  262500    300.76745   -1161.1171    6372.1159    11636.434    1900.0993 
  262600    298.76055   -1159.2957    6424.0928    11647.358    1830.6321 
  262700    302.46177   -1152.1008    6497.7551    11807.286     1834.807 
  262800    300.44941   -1156.6045    6324.9094    11586.945     1784.298 
  262900    298.62614   -1164.4497    6394.8971    11610.137    1907.7419 
  263000    301.47335   -1164.5861    6482.2883    11758.218    1931.6054 
  263100    302.96489   -1165.5087    6403.3731    11710.244    1867.0236 
  263200    297.37422   -1163.2171    6468.5933     11658.32    1867.2308 
  263300    304.19307   -1162.2893    6442.5809     11778.91     1896.071 
  263400    298.24724   -1161.4494     6343.971    11554.116    1897.0312 
  263500    300.57281   -1160.5234    6291.9026    11552.656    1895.2329 
  263600    298.72133   -1156.4589    6506.2527    11731.517    1947.9393 
  263700     301.6071   -1161.2621    6421.6786    11703.789    1923.1559 
  263800    298.18484   -1163.0026    6304.9655    11512.224    1897.2589 
  263900    293.99407   -1162.6565    6367.7836    11485.859    1949.5109 
  264000    298.17393   -1165.8867    6273.8594    11478.001    1839.7093 
  264100    299.07061   -1167.0765    6425.0715     11647.18    1886.1486 
  264200    299.20928   -1166.5582    6386.9921    11612.581    1906.7034 
  264300    299.08733   -1165.7935    6355.7719     11579.52      1897.59 
  264400    294.88065   -1160.8568    6518.3101    11657.126    1908.6503 
  264500    303.17918   -1161.5225    6346.7134    11662.149    1856.8664 
  264600    297.42204   -1160.6554    6293.0467    11486.357    1847.0043 
  264700    302.58205   -1160.9071    6488.0419    11791.336    1917.5375 
  264800    296.49273   -1160.4189    6525.6969     11699.39     1856.432 
  264900    301.66673   -1161.5421    6492.3652     11775.47    1914.2244 
  265000    298.41965   -1159.9754    6366.9434    11582.246    1911.0906 
  265100    301.69179   -1157.3182    6329.4877    11617.352     1846.401 
  265200      300.657    -1166.644    6490.3687      11746.8     1956.982 
  265300    300.17168   -1161.5594     6390.835    11641.983    1813.7917 
  265400    305.27676   -1161.3751    6399.2935    11759.688    1867.2208 
  265500    304.84345   -1155.1774    6379.7726    11737.108    1899.5242 
  265600    296.01188    -1160.794    6450.1831    11613.229    1884.5415 
  265700    301.61068   -1162.2847    6349.5904    11630.755     1853.231 
  265800    301.60055   -1163.1114    6493.5342    11773.656    2000.3618 
  265900    298.30609   -1167.2169    6454.4852     11660.12    1997.1962 
  266000    293.94877   -1162.4562    6370.5609    11487.869    1858.9318 
  266100    300.73211   -1159.0531    6441.9303    11707.557    1926.9466 
  266200    294.10492   -1157.3605    6518.0424    11643.782    2042.3817 
  266300    298.88031   -1161.9875    6339.0639    11562.196    1939.1471 
  266400    303.05386   -1162.5892    6387.4684     11699.16    1891.9915 
  266500    300.98894   -1167.0629    6375.3694    11638.473     1944.548 
  266600    299.02653   -1167.9411    6426.9817    11647.284    1919.3335 
  266700    298.79944   -1168.1457    6518.2134    11733.459    1900.3693 
  266800    300.35342   -1164.3676    6366.4256    11618.648    1910.4584 
  266900    300.15134   -1168.4893    6396.6648    11640.448    1907.9453 
  267000    299.71261   -1162.4139    6355.2502    11595.736     1820.655 
  267100    298.27726    -1167.874    6449.0852    11653.447    1968.3372 
  267200    301.23357   -1162.4757    6412.2713    11685.189    1890.1515 
  267300    301.40934   -1160.7981    6469.5576    11747.908    1834.7742 
  267400    297.99968   -1159.9842    6417.8123    11624.134     1860.395 
  267500    303.39394   -1169.1515    6381.0195    11693.414    1900.4827 
  267600    300.47419   -1162.0483    6428.6872    11685.809    1895.5823 
  267700    299.95513   -1163.4862    6349.7833    11594.378    1869.3179 
  267800    297.86823   -1168.4198    6503.3102    11698.388    1952.0953 
  267900    298.42163   -1162.6009     6472.109    11684.828    1909.2595 
  268000    296.50224   -1162.8075    6512.4308    11683.939    1951.9724 
  268100     304.9911   -1156.4366    6422.9877    11782.218    1953.6997 
  268200    297.96749    -1158.986    6372.3042    11578.937    1918.2197 
  268300    300.34333   -1153.4491    6343.0978    11606.023    1943.7217 
  268400    302.80573   -1154.4758    6328.4518    11642.956    1903.8586 
  268500    292.54506   -1158.7606     6438.618    11529.634    1854.1073 
  268600    303.02353   -1155.0974    6521.3623    11839.898    1876.3009 
  268700    303.30076   -1156.5661    6379.3628    11702.352    1863.8807 
  268800    297.30297   -1161.6862    6458.5167    11648.252    1869.6171 
  268900    297.82984   -1160.1641    6383.7732    11586.287    1788.7561 
  269000     299.6995     -1151.47     6495.299    11746.449    1876.9584 
  269100     299.4931   -1156.4103    6508.8059    11750.606    1904.9801 
  269200     304.9369   -1156.1895    6344.0171    11702.337    1851.1279 
  269300    301.21865   -1158.1703     6348.527    11625.431    1835.8779 
  269400    295.74228   -1163.3386    6534.0506    11688.792     1915.664 
  269500    300.80511   -1161.7013    6440.1968    11704.735    1878.7472 
  269600     299.3371   -1159.0477    6407.9069    11643.737    1845.9063 
  269700    298.58946   -1158.7181    6422.4004    11642.588    1933.9615 
  269800    301.74772   -1163.6101    6369.0451    11651.812    1914.7628 
  269900    295.97652    -1162.729    6414.8626    11575.218    1844.8511 
  270000       303.68   -1159.7696    6500.9161    11828.804    1949.2745 
  270100    298.03419   -1163.0122     6359.476    11563.507    1950.2409 
  270200     300.3658   -1164.9405    6431.6523    11683.566    1916.7512 
  270300    306.24138   -1162.6524    6428.1015    11807.826    1928.4556 
  270400    294.07856   -1161.8017    6421.4018    11542.137    1929.6652 
  270500    300.22602   -1166.7878    6454.3873    11701.468    1948.3735 
  270600    299.99791   -1169.7931    6355.2924    11594.494    1835.7389 
  270700    293.04554   -1164.2439    6472.3807    11568.605    1917.6671 
  270800    297.54349   -1162.5695    6386.9262    11580.917     1811.357 
  270900    305.25861    -1164.276    6455.2543     11812.36    1908.1818 
  271000    297.61935   -1166.4246    6434.5262    11626.282    1944.5526 
  271100    301.34972   -1168.8449    6361.5371    11630.567    1824.8577 
  271200    298.22532   -1156.6138    6603.3197    11817.832    1905.0153 
  271300    300.58391   -1162.5662    6370.0595    11629.007    1865.3232 
  271400    301.66637   -1165.5715    6285.6288    11564.697    1841.1734 
  271500    298.38094   -1154.8065    6444.7943    11664.439    1918.2335 
  271600    301.42757   -1153.3403    6564.2174    11850.415    1997.6872 
  271700    297.07021   -1152.5099    6395.1817    11589.121    1928.3966 
  271800    301.22445   -1158.0587    6440.2006     11717.34    1918.8846 
  271900    299.00151   -1160.1923    6481.0369    11708.553     1912.913 
  272000    302.68732   -1158.7149    6374.4166    11682.152     1913.295 
  272100    302.82255   -1155.1781    6468.5574    11782.718     1936.151 
  272200    303.91895   -1156.8611    6416.6445    11752.546    1869.5329 
  272300    295.90234   -1157.6495    6442.5952    11606.445    1862.0636 
  272400    299.96127   -1155.3196    6496.0869     11748.98    1956.6605 
  272500    302.33873   -1153.0144    6438.0301    11744.019    1951.0355 
  272600    297.93424   -1154.8993    6386.9408    11596.949     1901.824 
  272700    302.35005   -1161.6975    6418.3126     11715.86    1996.4237 
  272800    297.54386   -1158.1352    6414.5306    11612.964     1923.732 
  272900    301.39974   -1160.4848    6431.2001    11709.658    1867.5545 
  273000    297.79067   -1164.6694    6544.8534    11742.025    1962.3357 
  273100    303.13337   -1165.3754    6434.8122    11745.416    1946.7373 
  273200    298.27017   -1165.9804    6356.2557     11562.36    1937.8186 
  273300    293.61159   -1168.4376    6359.2302    11463.354    1877.9136 
  273400     300.5952   -1164.9984    6467.3129     11724.07     1904.523 
  273500    298.27352   -1165.9091    6444.2795    11650.526    1896.7791 
  273600    302.58086    -1173.646    6361.0998    11651.629    1868.4389 
  273700     294.4573    -1169.021    6449.9077    11571.515    1882.9287 
  273800    298.34333   -1167.2517    6401.0376    11607.434     1911.058 
  273900    303.45269   -1167.3141    6316.2399    11631.727    1906.5396 
  274000     298.1878   -1168.4461    6379.5601    11581.439    1894.3472 
  274100    300.87992   -1168.0578    6477.6944    11737.474    1961.0489 
  274200    298.00879   -1157.6224    6458.0869    11666.965    1897.7633 
  274300    298.61639   -1166.3736    6316.7276    11529.835    1887.4168 
  274400    303.47794   -1169.5267    6430.5482    11744.362    2026.2929 
  274500    295.69168   -1162.1196    6356.6099    11511.489    1927.2315 
  274600    297.14602   -1162.1955     6444.973    11630.846    1974.5148 
  274700     300.2613   -1164.8876    6434.4321    11684.166    1931.1022 
  274800    298.76614   -1155.4387    6439.2374    11666.479    1928.4268 
  274900     303.5182   -1162.7328    6415.5688    11737.037    1896.0225 
  275000    298.09188    -1159.121    6376.9444    11586.099    1896.3765 
  275100    301.36806   -1156.5574    6458.2965    11740.005    1940.4779 
  275200    298.08116   -1150.3189    6554.3972    11772.125    1939.7482 
  275300    296.47002    -1156.869    6433.4114    11610.169    1863.2582 
  275400     299.4951   -1157.9136    6480.4418    11720.782    1967.1664 
  275500    299.94653   -1155.0249     6389.836    11642.708    1850.3884 
  275600    302.58616   -1153.7844    6440.4945    11750.999    1887.5866 
  275700    299.92382   -1157.3181    6421.6022    11671.696    1882.6725 
  275800    297.92801   -1163.3385    6471.1526    11672.589     1840.185 
  275900    300.69136   -1157.2647    6446.9057    11713.451     1905.658 
  276000    304.08841   -1155.8312    6428.7161    11769.267    1937.6499 
  276100     297.1314   -1159.4066    6458.2864    11646.636    1949.9148 
  276200     305.2514   -1160.9004    6364.4316    11724.759    1876.9726 
  276300    299.09297   -1158.2872    6464.8172    11696.192    1931.3745 
  276400    300.25347   -1162.1404    6340.2792    11592.593    1867.3842 
  276500    302.48649   -1163.6446    6430.9208    11729.436    1922.6759 
  276600    304.51538   -1163.4211     6541.855    11883.938    2023.9989 
  276700    299.17117   -1165.7612    6320.4148    11545.987    1853.5044 
  276800    308.91204   -1161.1306    6444.4383    11882.739    1964.3812 
  276900    299.28829   -1159.0312    6468.7309    11703.535     1927.856 
  277000    301.77702   -1167.8751    6477.0142    11756.142    1918.9695 
  277100    300.11965   -1168.8591    6424.2604    11666.997    1949.5861 
  277200    298.48289    -1165.295    6281.8392    11493.173    1857.7092 
  277300      297.871     -1164.06    6463.2634     11662.76    1925.8815 
  277400    296.46452   -1166.8565    6399.8573     11566.51    1861.1575 
  277500    304.11718   -1161.6543    6560.3324    11895.675     1881.796 
  277600    296.14567   -1167.6807    6431.9123    11590.929     1849.866 
  277700    301.50691   -1167.0351    6253.0816    11527.279    1859.6272 
  277800    299.34336   -1156.4595    6408.8168    11647.369    1857.8444 
  277900    302.71834   -1161.3216    6632.6303    11938.421    1959.3596 
  278000    297.18884   -1158.0523    6477.1893    11668.121    1874.5494 
  278100    296.62003   -1161.4547    6354.5649    11529.942    1852.8586 
  278200    298.83329   -1158.3758    6379.4583    11605.197    1940.6832 
  278300    299.24537   -1155.8041    6445.5124    11682.627    1943.6765 
  278400    301.04605   -1159.8048    6404.5171    11676.099    1882.2559 
  278500    298.43651   -1159.1945    6432.9445    11649.388    1927.2374 
  278600    300.72405   -1152.6366    6408.0129    11679.884     1879.419 
  278700    300.71095   -1160.5953    6459.0419    11722.675    1883.9638 
  278800     298.0289   -1156.3823    6443.2162    11653.764    1880.9419 
  278900    301.80891   -1156.8765    6407.1619     11697.97    1874.8591 
  279000    293.02077   -1161.2884    6378.8213    11477.472    1876.6765 
  279100    300.92459   -1158.1833    6467.1291    11737.738    1890.1465 
  279200    302.24478    -1160.117    6414.4577    11711.337    1878.2992 
  279300    298.60547   -1163.4351    6386.9592    11602.772    1921.9995 
  279400    299.55698   -1153.2051    6366.2579    11612.628    1916.3573 
  279500     302.2209   -1159.7575    6446.9743    11743.703     1855.537 
  279600    296.37322   -1166.4555    6445.5839    11610.687    1831.1909 
  279700    306.10697   -1166.7257    6323.5827    11696.363    1870.3052 
  279800     297.8138   -1170.5956    6421.6013    11613.341    1930.0065 
  279900     303.4577   -1168.2405    6415.2552    11729.923    1976.2949 
  280000    301.82383   -1161.4227     6369.556    11656.136    1912.3577 
  280100    305.81642   -1161.7517    6483.5977    11855.145     1957.135 
  280200    298.64779   -1160.7272    6484.9504    11704.375    1895.4401 
  280300    299.23094   -1163.0942    6335.4393    11564.955    1886.6408 
  280400    302.42083   -1167.6344    6382.0444    11675.167    1931.2032 
  280500    297.70628   -1166.3211    6423.8155    11617.532    1919.9221 
  280600    299.55783   -1165.1688    6464.2405    11698.665    1927.7755 
  280700     300.9402   -1166.6741    6355.1522    11617.604    1868.5006 
  280800    296.41885   -1162.5083    6442.6778    11612.704    1963.9692 
  280900    300.26854   -1162.5496    6383.1906    11635.418    1879.1274 
  281000    295.03109   -1159.5935    6416.7327    11560.026    1877.9789 
  281100    302.77629   -1161.5921    6493.6705    11800.429     1937.552 
  281200    297.90658   -1161.6756    6378.0863    11580.728    1910.1821 
  281300    301.89727   -1153.8136    6395.0109    11690.769    1931.0258 
  281400    298.76261   -1158.5577    6493.3103    11717.357    1925.3903 
  281500     300.4708    -1162.623    6410.0807    11666.555    1888.9476 
  281600    298.88932   -1159.2705    6382.0702    11608.111     1917.687 
  281700    297.04705   -1161.1755    6426.3662    11611.145    1885.9816 
  281800    299.35259   -1159.8603    6498.8693    11734.218    1905.0584 
  281900    302.50704    -1161.807    6353.8806    11654.672    1837.1715 
  282000    298.50593   -1159.9365    6388.6625    11605.847    1863.6872 
  282100    302.50127   -1160.5949    6470.0874    11771.968    1961.4066 
  282200    296.25793   -1156.0537     6424.646    11597.688    1925.6482 
  282300     303.4931   -1157.7833    6500.2584    11826.139     1934.017 
  282400    297.80213   -1161.4676    6472.4482    11673.066    1859.9063 
  282500    304.24306   -1164.6878    6357.8443    11692.843    1843.3604 
  282600    299.47595   -1168.4494    6409.1274    11638.522    1866.4152 
  282700    300.15308   -1166.6842    6402.9486    11648.574    1838.1568 
  282800    297.15697   -1164.5873    6551.0458    11734.761    1975.7282 
  282900    302.44198   -1163.5817    6377.3669    11674.994    1893.7207 
  283000    299.39487    -1162.766    6388.1329    11621.479    1939.9626 
  283100    303.11004   -1163.3594    6510.4072    11822.529    2034.7893 
  283200    298.46461   -1163.5351     6401.903    11614.606    1939.0532 
  283300    301.09229   -1157.1838    6364.1236    11639.315    1918.9905 
  283400    300.82695    -1170.048    6398.8836    11655.542    1911.2662 
  283500    303.04465   -1165.2994    6499.1921    11807.977    1935.8308 
  283600    297.49007   -1161.0914    6456.2184    11650.546    1828.7836 
  283700    298.67329   -1162.1305    6437.4083    11655.974    1918.8202 
  283800    293.23448   -1157.3741    6431.2608    11538.391    1868.8519 
  283900    303.46049   -1151.8875    6394.7304    11725.811    1901.9642 
  284000    298.39461    -1151.733     6330.603    11553.613     1884.515 
  284100    298.88157   -1155.8825    6426.8567     11656.12    1907.7623 
  284200     303.9814   -1152.8325    6417.0712    11758.335    1872.8103 
  284300    302.48718   -1150.7012    6521.8206    11833.294    1932.3039 
  284400    294.77808   -1156.0792    6388.4159    11529.818    1851.5941 
  284500    298.88385   -1158.3296    6318.5144     11545.38    1878.0759 
  284600    300.31661   -1156.4569    6427.7388    11687.085     1891.781 
  284700    301.07944   -1150.6346    6522.8408    11804.306    1845.6807 
  284800    294.02795   -1152.8476    6455.9688    11584.577    1884.1177 
  284900    298.45374   -1151.9469    6386.0047    11610.064    1879.0581 
  285000    300.85908   -1154.4853    6497.8349    11770.742    1949.9795 
  285100    296.81263   -1154.7461    6406.0636    11592.264    1835.6418 
  285200    301.34317   -1159.5806    6492.0124    11770.166    1888.0889 
  285300    299.97781   -1161.4073    6330.1615     11577.32    1858.3253 
  285400     299.1232   -1157.7168    6469.8542    11702.446    1939.5614 
  285500    297.03281   -1167.0807    6418.3771    11596.947    1895.1383 
  285600     302.9528   -1157.5075    6357.7353    11672.349    1871.5155 
  285700    295.92962   -1159.5904    6440.0081      11602.5    1895.2389 
  285800    301.93257   -1165.9879     6454.551    11738.889    1869.9072 
  285900    301.83688   -1163.0816    6422.1242    11707.324    1845.6098 
  286000    298.00578   -1170.5961    6394.6903     11590.53     1873.017 
  286100    298.63816   -1167.8216    6310.0724    11522.197    1923.3842 
  286200    303.88817   -1167.6074    6348.0459    11672.543    1907.8146 
  286300    298.39942   -1165.4413    6431.2411    11640.646    1926.7322 
  286400    307.05523   -1164.2684    6533.0277    11928.523     1983.218 
  286500    298.35471   -1170.2849     6408.974     11612.58    1881.4853 
  286600    301.95782   -1166.0329    6429.6069    11714.439    1930.0961 
  286700    299.24662   -1170.4608    6330.2243    11552.708    1949.9968 
  286800    297.37726   -1171.4047    6408.7502    11590.354    1925.2391 
  286900    299.42998   -1163.3402      6426.89    11660.412    1934.8058 
  287000    301.51392   -1166.6824    6391.8634    11666.563     1975.458 
  287100     298.8376   -1168.3216     6422.952    11638.837    1915.9847 
  287200    300.77081   -1159.7379    6452.4968    11718.266    1903.1999 
  287300     301.8986   -1165.1334     6439.571    11724.038    2009.3746 
  287400    300.90697   -1166.3084     6459.258    11721.365    1944.6563 
  287500    296.79524   -1162.6128     6419.094    11597.056    1784.3081 
  287600    298.78405   -1156.9396     6400.311    11626.434    1893.1169 
  287700    297.82698   -1163.6852    6463.7981    11662.729    1885.7335 
  287800    302.79128   -1156.0099    6423.7916    11736.453    1830.9294 
  287900    301.80013   -1154.3105    6504.3687    11797.555    1838.6219 
  288000    292.54835   -1162.0056    6461.7322    11549.573    1887.0522 
  288100    302.50341    -1152.836    6371.7845     11681.47     1814.914 
  288200    301.76624   -1147.7611    6397.8979     11696.91    1823.0861 
  288300    302.54762   -1160.3385    6528.3414    11831.468    1975.3305 
  288400    299.54622   -1163.3449    6445.7545    11681.755     1822.871 
  288500     301.8443   -1158.8191    6362.9307    11652.552     1868.712 
  288600    297.59256   -1158.5728    6385.9891    11585.025     1894.402 
  288700    298.80031    -1153.211    6380.9059    11611.105    1838.5834 
  288800    302.27549   -1151.4927    6368.4519    11674.611    1837.1866 
  288900    303.58089   -1154.6349    6415.4632    11746.368    1931.3697 
  289000    299.88428   -1155.9529    6500.4815    11751.096    1928.2413 
  289100    300.80995    -1157.184    6434.6465    11703.806    1858.7417 
  289200    300.39489   -1164.1013    6431.6802    11685.055    1938.5661 
  289300    300.77198   -1162.3364    6344.9617    11608.157    1914.9651 
  289400    297.78624   -1164.5282    6478.2624     11675.48    1863.1272 
  289500    305.69683   -1163.7064    6507.6905    11874.728    1905.0314 
  289600    297.43925   -1164.9449    6380.5486    11569.937    1869.2655 
  289700    305.33579   -1161.7735    6326.5828     11687.84    1884.8618 
  289800    298.22425   -1162.9626    6339.6766    11547.818    1856.9316 
  289900    297.59819    -1161.054    6468.1171    11664.792     1955.823 
  290000    302.93381    -1162.647    6403.4844    11712.554    1860.9232 
  290100    298.17371   -1166.9775    6449.3881    11652.434     1913.777 
  290200    301.19554   -1169.5151    6368.2938    11633.359    1884.8643 
  290300    298.20906   -1167.7302    6339.1283    11542.177    1807.9324 
  290400    305.52142   -1163.0381    6492.0211    11855.979    1863.8912 
  290500    295.70731   -1164.3304    6399.5979      11552.6    1834.6963 
  290600     300.4729   -1164.1522    6417.4615    11672.452    1810.0384 
  290700    302.05097   -1161.9408    6387.2136    11678.128    1885.7661 
  290800    303.91975   -1160.7938     6455.398    11787.383    1924.7626 
  290900    300.50414   -1159.8842    6460.0683    11719.994    1952.7154 
  291000    297.01766   -1167.3372    6437.7054    11615.695    1899.2072 
  291100    301.31371   -1163.8978     6558.371    11831.578    1955.1447 
  291200    302.57465   -1169.5813     6440.271    11734.733    1930.7516 
  291300    299.68685   -1165.1376     6421.218     11658.43    1923.2615 
  291400    302.53489   -1162.4571    6338.6956    11639.432    1887.7032 
  291500    295.74023   -1159.6255    6406.2846    11564.695     1919.629 
  291600    301.50799   -1151.7523    6486.3806    11775.884     1953.289 
  291700    301.08876   -1156.9487    6460.6433    11735.994    1916.0162 
  291800    295.39084   -1158.2727    6461.2844    11613.584     1919.134 
  291900    303.78522   -1165.3315     6361.732    11686.306    1861.3575 
  292000    298.63154   -1163.3588    6512.8242     11729.27     1877.484 
  292100    304.96089   -1163.5614    6436.9924    11788.452    1857.3826 
  292200      298.162   -1164.6939    6427.7536    11632.833    1885.9292 
  292300    299.69868   -1157.9271    6440.6015    11685.277    1863.6013 
  292400    304.06565   -1157.5745    6516.7983     11855.12    1933.8156 
  292500    301.21905   -1161.6862     6314.993     11588.39    1891.0532 
  292600    304.38882   -1153.6744    6466.3015    11815.427    1949.9129 
  292700    293.88934   -1156.9538    6388.8081    11510.349    1828.0366 
  292800    301.38726   -1161.2131    6414.3028    11691.766    1898.2302 
  292900    297.64975   -1159.2289    6457.2894    11656.891    1929.0138 
  293000     306.8071   -1164.2871    6288.2339     11678.41    1849.6909 
  293100    297.99323   -1164.9791    6416.3549    11617.544    1912.4336 
  293200    296.68532   -1164.3418     6649.723    11823.608     1997.466 
  293300    301.05831    -1165.128    6480.7616    11747.282    1909.9708 
  293400    300.14966   -1164.1344     6300.599    11548.702    1894.9567 
  293500    298.56412   -1160.1866    6358.3336    11576.511    1955.2373 
  293600    296.61197   -1159.0963     6378.569    11556.132    1912.0684 
  293700    300.21799    -1159.617    6402.4147    11656.494    1929.6545 
  293800    300.97502   -1163.3406    6495.9181    11762.447    1972.2766 
  293900    299.65878   -1166.7195    6412.2085    11647.239     1900.891 
  294000    298.27449   -1171.0117    6399.6163    11600.781    1888.1566 
  294100    297.64073    -1171.623    6307.2826    11494.297    1911.3604 
  294200    300.33833   -1164.6641    6586.7584    11838.362    1979.2153 
  294300    299.13241   -1155.0984    6512.2544    11747.661    1928.5989 
  294400     298.5702    -1166.746     6263.742     11475.49    1853.3022 
  294500    300.48442   -1161.8019    6417.9102    11675.497    2009.7832 
  294600    297.27004   -1163.5687    6503.3632    11690.513    1920.9047 
  294700    300.76309   -1164.0164    6460.5002    11721.826    1887.5543 
  294800    297.93807   -1169.2519    6367.6138    11563.352    1896.7067 
  294900    300.95567   -1167.9221    6485.8211    11747.355    1951.7311 
  295000    298.49089    -1168.837    6441.5856    11649.549    1865.9405 
  295100    301.11544   -1164.3752    6352.5462     11621.04    1939.7879 
  295200    300.54678    -1157.712    6454.2782    11717.287    1987.9759 
  295300    303.33304   -1161.3912    6430.7116    11749.565    1884.5973 
  295400    298.33044   -1160.4242    6504.8056    11717.753    1932.5923 
  295500    289.51026   -1161.0408    6405.2755    11429.177    1868.5838 
  295600    296.38115   -1163.0708    6388.5985    11557.256    1901.5226 
  295700    300.91116   -1157.1301    6421.8075    11693.183    1995.5699 
  295800    297.55058   -1160.4897    6357.3387    11553.561    1943.2298 
  295900    302.79786   -1158.9305    6491.9612    11801.843    1952.3204 
  296000     299.0726   -1161.7809    6336.7975    11564.244    1912.7517 
  296100    300.91497   -1160.7198    6508.6826    11776.549    1972.7583 
  296200    295.59722   -1157.3714     6373.841    11531.451    1793.3883 
  296300    300.46891   -1155.2183    6499.5157    11763.355    1938.2573 
  296400     298.1581   -1156.3683     6449.614    11662.936    1957.2438 
  296500     301.6195   -1156.4436    6387.4199    11674.614    1889.6574 
  296600    304.80671   -1155.1545    6360.6658    11717.239    1930.4035 
  296700    300.14286   -1160.9444     6332.189    11583.336    1928.5481 
  296800     298.0027   -1155.8875    6464.2004    11674.683     1905.852 
  296900    298.61605   -1164.5611    6465.6367    11680.549    1932.2576 
  297000    302.45003   -1166.7957    6351.3187    11645.904    1898.6243 
  297100    297.16738   -1163.7464     6466.471     11651.25    1891.0086 
  297200     298.4879   -1160.8491    6406.6566    11622.544    1879.8379 
  297300     302.5899   -1167.2309    6304.4638    11601.602    1929.6421 
  297400    297.72472   -1161.1372    6471.7216    11671.016    1964.3031 
  297500    301.40719    -1157.654    6483.5661    11765.014    1864.2265 
  297600    302.06471   -1162.0768    6404.0005    11695.073    1924.2218 
  297700    297.47409   -1158.7665    6488.9157    11685.227    1926.6218 
  297800    299.64095   -1166.0962     6455.085    11690.358    1874.5936 
  297900    304.08615   -1165.6517     6332.186    11662.868    1936.3518 
  298000    298.45737   -1171.5623    6402.2296    11606.751    1954.4123 
  298100    300.12891   -1167.4104    6401.7508    11646.134    1903.6145 
  298200    300.29527   -1173.2359    6528.2653    11770.377    1899.5673 
  298300    300.25276   -1167.9718     6421.713    11668.181    1866.3662 
  298400    299.05188   -1164.2363     6350.616    11575.164    1849.6436 
  298500    295.06953   -1162.5935    6476.7273    11617.842    2003.8412 
  298600    299.09659   -1161.1928    6398.8516    11627.398    1967.0546 
  298700    304.11343   -1163.6892    6378.9765    11712.204    1910.5877 
  298800    296.71299   -1166.3546    6460.3462    11632.809    1883.8173 
  298900    295.67101   -1170.8156    6471.7499    11617.492    1885.5769 
  299000    301.60264   -1168.4925    6383.8787    11658.664    1880.3877 
  299100    296.87807   -1168.3532    6491.3877    11665.379    1950.6399 
  299200    299.67862   -1167.4661    6462.0945    11696.802    1973.4138 
  299300    303.33998   -1157.0772    6446.4537     11769.77    1953.7202 
  299400    299.46268   -1162.5871    6474.3101    11709.284    1927.6559 
  299500    302.63933   -1157.7211    6393.0215    11700.725    1951.8664 
  299600    298.15059   -1159.2337    6375.9039      11586.2    1901.6443 
  299700    300.37286   -1159.0626     6504.778    11762.721    1974.1336 
  299800    304.05679   -1158.6972    6446.9881    11783.998    1948.3223 
  299900    301.06973     -1161.83    6322.1616    11592.224    1877.0615 
  300000     302.6705   -1163.8998     6452.934    11755.125    1954.9615 
Loop time of 287.154 on 8 procs for 300000 steps with 7168 atoms

Pair  time (%) = 137.767 (47.9767)
Bond  time (%) = 81.1696 (28.2669)
Neigh time (%) = 19.6215 (6.83308)
Comm  time (%) = 33.4574 (11.6514)
Outpt time (%) = 0.457682 (0.159386)
Other time (%) = 14.6808 (5.11253)

Nlocal:    896 ave 901 max 888 min
Histogram: 1 0 1 1 0 1 0 0 1 3
Nghost:    2846.88 ave 2856 max 2840 min
Histogram: 2 1 1 0 0 1 0 2 0 1
Neighs:    23619.5 ave 23961 max 23220 min
Histogram: 1 0 1 0 2 0 2 0 0 2

Total # of neighbors = 188956
Ave neighs/atom = 26.361
Ave special neighs/atom = 157.056
Neighbor list builds = 3051
Dangerous builds = 0
unfix           NVT
# −−−−−−−−−−−−−−− Equilibration in nve −−−−−−−−−−−−−−−−−
fix             NVE all nve
run             300000
Memory usage per processor = 11.5453 Mbytes
Step Temp E_pair E_mol TotEng Press 
  300000     302.6705   -1163.8998     6452.934    11755.125    1954.9615 
  300100    300.06755   -1164.2132    6508.7496    11755.019    1924.7222 
  300200    301.07054   -1159.4804    6482.7665    11755.196    1945.1049 
  300300    300.16779   -1160.3331    6502.8729    11755.164    1974.8272 
  300400     301.5768   -1157.0506    6469.5571    11755.232    1927.1705 
  300500    301.27652   -1161.2224    6480.0423     11755.13    1930.7249 
  300600    303.16761   -1162.4769    6440.9467    11755.181    1923.3143 
  300700    304.57086   -1163.6788    6412.1936    11755.204    1965.7409 
  300800    303.26153    -1161.553    6438.0029    11755.167     1941.607 
  300900      298.291    -1161.484    6544.0892    11755.135    1973.6007 
  301000    303.27915    -1166.598    6442.7333    11755.229    1913.8793 
  301100    302.19183   -1161.6841    6461.1101    11755.291    1957.6206 
  301200    304.19564     -1168.64    6425.2577    11755.291    1914.9322 
  301300    299.50816   -1166.4371    6523.2144     11755.31    1969.8923 
  301400    304.19839   -1172.3591    6428.9684    11755.341    1923.3963 
  301500     300.8863   -1165.9038    6493.2728    11755.343    1941.5038 
  301600    299.73891   -1160.5811    6512.3142    11755.195    1983.1746 
  301700    304.83695   -1161.7844    6404.6463    11755.235    1989.5401 
  301800    301.44153   -1169.1796    6484.5837     11755.24    1981.5553 
  301900    302.29314   -1164.5253    6461.8009    11755.305    1961.8119 
  302000    300.52276   -1165.2293    6500.2451    11755.223    1960.4503 
  302100    302.28573   -1165.1291    6462.5389     11755.28    1923.0482 
  302200     300.0021   -1172.2428    6518.4832    11755.325    1948.1722 
  302300    299.50585   -1167.4918     6524.365    11755.356    1930.0534 
  302400    305.55129    -1171.754    6399.4005    11755.281    1903.0388 
  302500    302.47126   -1164.3404    6457.7114    11755.205    1928.3732 
  302600    301.30898   -1157.8646    6476.1356    11755.275    1963.7451 
  302700    302.61679   -1155.5615    6445.7216    11755.103    1874.0961 
  302800    299.35878   -1164.0022    6523.7609      11755.1    1917.7097 
  302900    300.85883   -1165.3722    6493.1381    11755.153    1881.6665 
  303000    302.66436   -1164.5192    6453.7664    11755.207    1867.6152 
  303100    302.38558   -1165.4485    6460.6347     11755.19     1933.712 
  303200     299.7607   -1166.7966    6518.0102    11755.141    1935.6254 
  303300    302.39512   -1162.4703    6457.4813    11755.219    1897.8302 
  303400     303.4212   -1160.1955     6433.338    11755.271      1972.04 
  303500    302.77124   -1152.6452    6439.5698    11755.168    1937.6535 
  303600    302.73891   -1155.0542    6442.6417     11755.14    1899.7521 
  303700    299.14342   -1155.8323    6520.2355    11755.143    1898.2672 
  303800     302.5645   -1152.0609    6443.3997    11755.165    1862.1788 
  303900    303.22971   -1159.5556     6436.629    11755.111    1873.5094 
  304000    297.98547    -1164.081    6553.3108    11755.232    1928.3627 
  304100    303.63646   -1164.8105    6433.3126    11755.229    1897.7626 
  304200    304.93045   -1164.5518    6405.3895    11755.209    1841.2796 
  304300    301.45028   -1165.4844    6480.7147    11755.253    1924.9723 
  304400    301.10375   -1159.9954    6482.6727    11755.297    1942.6676 
  304500     303.1255   -1163.7666    6443.1169    11755.161    1978.1911 
  304600    302.58169   -1159.6031    6450.6185    11755.209    1982.6702 
  304700    301.98501   -1157.3102    6461.0416    11755.178     1895.756 
  304800    301.95105   -1157.1261    6461.6526    11755.247    1926.9818 
  304900    301.31392   -1164.8569    6483.0676     11755.32    1970.6939 
  305000     302.9846   -1165.6466    6448.1689    11755.323    1931.3605 
  305100    300.63293   -1165.7129    6498.4005    11755.249    1883.7905 
  305200    301.49023   -1168.7873    6483.2279    11755.317    1899.9125 
  305300    300.08609   -1167.6234    6512.0587    11755.314    1985.0206 
  305400    305.15689   -1167.9233    6404.0323    11755.318    1952.8278 
  305500    300.36131   -1160.3683    6498.8017    11755.192    1890.3771 
  305600    303.63267   -1164.9281    6433.5067    11755.225    1927.9278 
  305700    302.83501   -1161.5585    6447.1734     11755.22    1999.9305 
  305800    300.95361    -1159.488    6485.2053    11755.129     1901.448 
  305900    304.16584   -1164.5545    6421.7292    11755.211    1924.9426 
  306000    303.95073   -1160.2091    6422.0269    11755.259    1959.6792 
  306100    305.42338   -1163.3312     6393.733    11755.304    1898.2253 
  306200    296.83654    -1161.048    6574.8159    11755.225    1872.5867 
  306300    305.58515   -1162.6911    6389.5266    11755.193    1920.1403 
  306400    299.85713   -1164.5459    6513.7035    11755.145    1916.0928 
  306500    300.20686   -1162.8632    6504.6758    11755.272    1897.7833 
  306600    299.73575   -1163.2567    6515.1405    11755.278    1977.2433 
  306700    300.40263   -1161.9392    6499.5168    11755.219    1900.8778 
  306800    303.60375   -1159.0784    6428.1783    11755.128    1899.7984 
  306900    299.49047   -1161.3234    6518.3545    11755.185    1984.8984 
  307000    302.99978   -1162.2973    6444.3455    11755.174    1912.4584 
  307100    303.70969   -1158.2933    6425.2045    11755.203     1889.371 
  307200    302.10584   -1159.6134    6460.8006    11755.215    1917.3005 
  307300    301.62443   -1168.8089    6480.2463    11755.181    1980.3459 
  307400    301.52476   -1163.9442     6477.538    11755.208    1940.2957 
  307500    303.60075   -1159.2476    6428.5769    11755.293    1922.0416 
  307600    304.57058   -1164.0651    6412.6578    11755.276    1904.6807 
  307700    301.23642   -1161.0104    6480.8965     11755.34    1979.8328 
  307800    306.06033   -1166.1269    6382.8432    11755.226    1909.1313 
  307900    300.60986   -1164.1623     6497.355    11755.261    1939.5436 
  308000    302.81362   -1164.2103    6450.3698    11755.308    1933.7249 
  308100    297.87531   -1166.4887     6558.138    11755.298    2048.5304 
  308200    300.96389   -1162.9104    6488.5975    11755.319    2039.4157 
  308300     305.5195   -1162.5791    6390.8937     11755.27    1968.3845 
  308400    300.84109   -1165.0874    6493.3907    11755.312    1916.5771 
  308500    299.60088   -1167.5139    6522.2769    11755.276      1958.01 
  308600    307.26402   -1164.5152    6355.5366    11755.246    1938.1816 
  308700     300.4735   -1158.6908    6494.7856     11755.25    1969.4818 
  308800    304.16976   -1172.0227    6429.0359    11755.133    1931.7695 
  308900    301.36135   -1158.8061    6475.8692    11755.186    1895.7575 
  309000    301.00472   -1157.5908    6482.2776    11755.191    1899.8492 
  309100    304.19815   -1166.8222    6423.3376    11755.242    1922.4335 
  309200    304.21718   -1162.6087    6418.7375    11755.262    1907.7523 
  309300    303.58742   -1159.5341    6429.0616    11755.207    1901.9521 
  309400    299.67298   -1163.7364    6516.9306    11755.248    1952.8309 
  309500    305.41078   -1165.8407    6396.3832    11755.175    1889.7801 
  309600    301.77828   -1159.5478    6467.6206    11755.103    1868.7256 
  309700    299.41538   -1149.3394    6507.9362    11755.147    1948.9293 
  309800    304.15769   -1161.7128      6418.95      11755.1    1980.3584 
  309900    304.09336   -1160.1316    6418.8407    11755.197    1951.5303 
  310000    299.77247   -1157.0971    6508.0231    11755.105    1943.9796 
  310100     299.3502   -1159.7114    6519.6951    11755.141    1955.4532 
  310200    303.03035   -1155.6618     6437.131    11755.248    1931.4018 
  310300    304.36196   -1161.1789    6414.0826     11755.13    1878.0567 
  310400    297.13642   -1160.1512    6567.4661    11755.179    1932.0835 
  310500    301.72142   -1163.3219    6472.6547    11755.148    1927.3644 
  310600    302.43316   -1160.5388    6454.6914    11755.173    1973.0215 
  310700    301.87466   -1163.9685     6470.052    11755.172    1967.3596 
  310800    300.66181   -1162.3822    6494.3754    11755.172    1918.4547 
  310900    301.77357   -1166.1367    6474.4697    11755.262    1936.1042 
  311000     303.1469   -1161.6056    6440.4937    11755.156    1964.1941 
  311100    301.19951   -1159.4789    6479.9976    11755.184    2024.8094 
  311200    306.46008   -1160.4724    6368.6892    11755.266     1908.144 
  311300     300.0636   -1169.0565    6513.8711    11755.213    1938.7658 
  311400    301.41012   -1166.9542    6483.0804    11755.291    1920.3611 
  311500    303.70986   -1173.0983    6440.1291    11755.326    1899.0004 
  311600    299.75568   -1167.8983    6519.5194    11755.441    1922.1886 
  311700    300.25069   -1169.7543    6510.7139    11755.355    1980.5285 
  311800    303.66561   -1161.0275    6428.9157    11755.238    1962.6478 
  311900    301.14431    -1162.799     6484.607    11755.294    1917.8314 
  312000    302.30711   -1165.6855    6462.6248    11755.267    1956.5447 
  312100    305.87654   -1167.6938    6388.4429    11755.332    1907.3879 
  312200      302.277   -1166.2467    6463.8235    11755.261    1917.4965 
  312300    299.01574   -1158.4862    6525.7778    11755.304    1917.1662 
  312400    302.33681   -1166.2738    6462.6221     11755.31    1839.9572 
  312500     302.6477   -1167.0256    6456.6761    11755.254    1849.1851 
  312600    304.54316   -1167.7178    6416.8025    11755.182     1851.882 
  312700    300.55656    -1160.235    6494.4885    11755.183    1883.9033 
  312800    302.53198   -1164.5576    6456.5294    11755.103    1875.7175 
  312900    302.77482   -1162.9619    6449.7191    11755.077    1884.4541 
  313000    301.87449   -1160.3226    6466.3708    11755.133    1988.0155 
  313100    301.76732   -1157.2446    6465.5585     11755.11    2025.8055 
  313200    301.58706   -1159.9889    6472.1089    11755.065    1976.4937 
  313300    302.25274   -1160.8967    6458.8294    11755.099     1978.526 
  313400    299.11447   -1160.7946    6525.7962    11755.123    1961.2789 
  313500    301.59869   -1162.2157    6474.0625     11755.04     1873.228 
  313600    301.57235   -1155.7295    6468.1292     11755.03    1888.1483 
  313700    303.39601   -1156.3151    6429.8042    11755.079     1913.389 
  313800    301.06079   -1158.7158    6482.0688    11755.055    1895.0706 
  313900    300.61272   -1157.9069    6490.8186    11755.041    1905.6618 
  314000    305.30383   -1155.4729    6388.1511    11755.026    1923.0247 
  314100    304.20736   -1150.2645    6406.3848    11755.044    1981.9511 
  314200    301.99928   -1160.2713    6463.5759    11755.056    1916.2427 
  314300    300.38463    -1169.747     6507.611    11755.121    1927.3971 
  314400    304.46058   -1160.1487    6411.0385    11755.223     1876.291 
  314500    298.98673   -1163.0256    6530.8876    11755.255    1938.6338 
  314600    302.80517   -1168.0193      6454.33    11755.278    1922.0526 
  314700    305.02687   -1164.4378    6403.2595    11755.253    1915.3995 
  314800    300.57027   -1164.8389     6498.896     11755.28    1979.7345 
  314900    303.84025   -1161.3104    6425.4544    11755.225    1888.9489 
  315000    297.58161   -1162.9585    6560.8587    11755.275    1951.8369 
  315100    304.75301   -1165.0965    6409.7383    11755.222    1919.8505 
  315200    302.84716   -1158.9786    6444.3784    11755.265    1947.9701 
  315300    304.87604   -1159.8239     6401.958    11755.343    1908.7482 
  315400    299.56659   -1164.2879     6519.814    11755.307    1906.6179 
  315500    298.17825   -1167.7515    6552.8983    11755.268    1933.3457 
  315600    303.92812   -1163.8395    6426.1244    11755.243    1928.4144 
  315700    303.69386   -1162.6585    6429.9362    11755.231    1884.6487 
  315800    299.10166   -1162.7622     6528.165    11755.251    1924.4636 
  315900    303.25184   -1162.8651    6439.5293    11755.174    1902.2469 
  316000    300.38932   -1164.4294    6502.2619    11755.189     1946.402 
  316100    305.01877   -1154.1781    6393.0491    11755.129    1910.7602 
  316200    301.02818   -1160.7158    6484.8511     11755.14    1891.8305 
  316300     303.1648    -1162.409    6440.9682     11755.21    1906.5783 
  316400    299.89892   -1159.1287    6507.4213    11755.173     1946.377 
  316500    302.40635   -1162.7057    6457.3154    11755.057    1923.9193 
  316600    299.65938   -1161.1825    6514.6186    11755.199    1897.1871 
  316700    305.18504   -1153.3643    6388.6986    11755.144    1894.9252 
  316800    302.49618   -1155.6779    6448.4271    11755.116    1970.5255 
  316900    299.49722   -1157.5509    6514.2844    11755.032    1914.0917 
  317000    302.20517   -1157.8515    6456.7873    11755.086    1834.6445 
  317100    303.05019    -1158.565     6439.465    11755.102    1878.5015 
  317200    303.27132    -1157.912    6434.0917    11755.106    1946.6785 
  317300    300.09413   -1156.3353     6500.407    11755.122    1888.9775 
  317400    305.50342   -1157.3202    6385.8541    11755.146    1883.8614 
  317500    300.47863   -1159.2784    6495.2045    11755.191    1976.2255 
  317600    305.32968   -1163.9224    6396.2208    11755.199    1977.9946 
  317700    299.64305   -1159.1654    6512.9765    11755.225     1954.514 
  317800    303.86941   -1166.6814    6430.2647    11755.287     1948.016 
  317900    301.59174   -1168.2516     6480.435    11755.228    1906.4563 
  318000    300.45514   -1164.9634    6501.4243    11755.224    1881.4024 
  318100    302.01192   -1164.9609    6468.0926    11755.153    1876.2996 
  318200    299.35453   -1164.4408    6524.4589    11755.268    1967.6353 
  318300    303.88354   -1160.8271    6424.1562    11755.335    1995.8965 
  318400    303.98169   -1164.2342    6425.4256    11755.294    1989.1253 
  318500    297.30192   -1165.1876    6569.0779     11755.29    1929.8606 
  318600    303.62394   -1166.4031    6435.2841    11755.341    1824.1251 
  318700    301.86527   -1168.6322    6475.0361    11755.292    1881.5622 
  318800    303.01621   -1172.5465    6454.3307    11755.261    1874.8954 
  318900    301.00245   -1164.2444    6489.0409    11755.252    1901.2784 
  319000    304.43983   -1160.4531    6411.8181    11755.255    1880.1742 
  319100    303.74479   -1158.3953    6424.4429    11755.089    1916.4446 
  319200    301.08575   -1153.2351    6476.1921    11755.192    1976.5731 
  319300     301.4813   -1159.5365    6474.0174    11755.166    1956.2183 
  319400    305.43588   -1161.0925    6391.1232      11755.2    1881.9967 
  319500    300.63548   -1161.2097    6493.7332    11755.139    1933.8646 
  319600    300.68744   -1163.0474    6494.5602    11755.239    1869.6897 
  319700    301.25636   -1164.9381    6484.2234    11755.165     1858.154 
  319800    300.22953   -1162.9406    6504.1598    11755.163    1873.4363 
  319900    302.53896   -1155.5934    6447.4165    11755.104      1837.64 
  320000    301.88128   -1156.6328    6462.4465    11755.044    1897.4332 
  320100    302.02804   -1157.2561    6459.9291    11755.039    1939.5302 
  320200    303.81475   -1155.2248    6419.6803    11754.991    1937.1045 
  320300    303.29313   -1156.6618    6432.2094     11754.94    1866.7471 
  320400    301.08197   -1155.8429    6478.6494    11754.961    1927.6893 
  320500      305.214   -1162.8117    6397.4252    11755.042    1993.8378 
  320600    301.55816   -1160.5665    6473.3049    11755.066    1932.2723 
  320700    300.85461   -1164.6451    6492.4351    11755.087    1860.3815 
  320800    302.85508   -1165.0294    6450.0979    11755.103    1803.1229 
  320900    302.29754   -1167.6991    6464.7697    11755.194    1908.0374 
  321000    301.40466   -1165.0984    6481.2293    11755.179    1886.6907 
  321100    304.84945    -1159.364     6401.896    11755.173    1947.0875 
  321200    301.31471   -1164.2895    6482.3789    11755.216    1983.7831 
  321300    303.03117   -1160.4636    6441.9269    11755.259     1949.455 
  321400    302.04262   -1165.9454    6468.5685      11755.3    1979.2308 
  321500    297.77383   -1168.1857    6562.0008    11755.296    1924.2224 
  321600    304.08028   -1169.6641    6428.7942    11755.339    1948.8025 
  321700    300.34198   -1167.0149    6505.9634    11755.294     1902.289 
  321800    302.08266   -1168.4991    6470.3781    11755.412    1890.7388 
  321900    301.67676   -1166.1456    6476.6794    11755.395     1886.968 
  322000    300.08503   -1166.0261    6510.6027    11755.433    1898.8195 
  322100    299.89174   -1168.3539    6517.0002    11755.373    1980.0232 
  322200    301.36239    -1165.027    6482.2147    11755.333    1996.8229 
  322300    306.45079     -1164.88    6373.4237    11755.395    1943.7081 
  322400    302.65285   -1162.6836    6452.3424    11755.373    1921.2571 
  322500     301.7939   -1165.9456    6473.8303    11755.248    1840.5647 
  322600    300.12741    -1167.435     6510.818    11755.145    1897.3701 
  322700    302.59231   -1159.7905    6450.4909    11755.121    1856.6258 
  322800    301.70251   -1155.0715    6464.8869    11755.227    1915.1572 
  322900    300.32103   -1162.2239    6501.3635    11755.038    1907.8426 
  323000    302.26288   -1152.8422    6450.5245    11755.065     1854.503 
  323100    301.68646   -1156.4386    6466.4623    11755.092    1895.2386 
  323200     304.2347   -1159.6558    6415.1469    11754.999     1845.179 
  323300    298.75291   -1152.0418    6524.7088    11755.065    1875.4861 
  323400    301.10103   -1155.0629    6477.5544    11755.053    1828.2333 
  323500    301.97751   -1152.2548    6455.9467    11754.978    1860.2579 
  323600    299.41583   -1155.6942     6514.136    11755.002    1933.4936 
  323700    303.88102   -1151.9257    6414.9214    11754.948    1863.7419 
  323800    298.03598    -1153.966    6541.8947     11755.01    1935.5816 
  323900    301.88919   -1153.3301    6458.9146    11754.984    1893.2607 
  324000    300.56766   -1150.4776    6484.4172    11755.106    1905.2328 
  324100    305.93684    -1154.332    6373.5138    11755.053    1885.0688 
  324200    302.28318   -1159.5456    6456.8521    11755.123    1894.1731 
  324300    301.18828   -1159.9743    6480.6831    11755.134    1897.0454 
  324400     303.3003   -1158.0297    6433.6724    11755.188    1855.0748 
  324500    300.01354   -1161.8453    6507.6737    11755.157    1839.4941 
  324600    305.36825   -1164.8232    6396.2475    11755.148    1879.1396 
  324700    300.80877   -1163.7567     6492.657    11755.218    1887.7455 
  324800    297.54148   -1166.0555    6564.8087     11755.27    1912.8514 
  324900    305.46443   -1161.6598    6391.1661    11755.285    1943.3942 
  325000    303.19924   -1163.9469    6441.8507     11755.29     1931.988 
  325100    302.44231   -1163.7252    6457.8566    11755.347    1897.3981 
  325200    305.13685   -1161.5135    6398.0007    11755.268    1871.2588 
  325300     301.3748   -1166.0797    6483.0253    11755.356    1894.1038 
  325400    302.33508    -1167.028    6463.4299    11755.327    1904.8475 
  325500    301.96542   -1167.7337    6472.0889    11755.383    1903.0488 
  325600    304.77421   -1168.3457     6412.764    11755.452    1853.0917 
  325700    302.67639   -1167.2875    6456.4427    11755.372     1869.637 
  325800    299.29658   -1161.5359    6522.7905    11755.267    1914.2415 
  325900    303.97952   -1166.6907    6427.8963    11755.262    1908.7355 
  326000    299.46964    -1163.836    6521.4601    11755.333    1930.1884 
  326100    304.95828   -1161.1476    6401.3217     11755.14    1866.8177 
  326200    298.15399     -1158.46    6543.9782    11755.121    1932.4519 
  326300    302.84974   -1162.6028    6447.7733    11755.091    1905.4047 
  326400    301.37618   -1165.2797    6481.9008    11755.061    1859.4499 
  326500    301.18302   -1161.1732    6481.9341    11755.074    1809.2339 
  326600    300.45286   -1158.0719    6494.3554    11754.998    1804.7144 
  326700    305.51473   -1165.7551    6393.9601    11755.058    1820.5742 
  326800    300.79872   -1162.4772     6491.462    11755.088    1929.5125 
  326900    305.23296   -1154.9336    6389.1304    11755.031    1888.8552 
  327000    301.90468    -1156.931    6462.2467    11755.046     1937.513 
  327100    303.16178   -1160.3338    6438.7757    11755.028    1937.8576 
  327200     304.0663   -1158.5791    6417.7334    11755.064    1907.9148 
  327300    300.58629   -1160.5978    6494.1809    11755.148    1878.8643 
  327400    300.41774   -1160.9635    6498.2193     11755.22    1871.0895 
  327500    303.63726    -1164.555    6432.9745    11755.164    1898.0621 
  327600     302.8242   -1165.9451    6451.7949    11755.224    1936.1829 
  327700    303.23182   -1166.1067    6443.2465    11755.223    1910.3169 
  327800    302.14422   -1159.4887    6459.8886    11755.248      1914.03 
  327900    302.21358   -1168.7294     6467.559    11755.159    1925.6165 
  328000    300.43944   -1166.4219    6503.2912    11755.297    1958.3629 
  328100    305.91231   -1163.0092    6382.8549    11755.193    1930.9335 
  328200    300.95793   -1161.8265     6487.624    11755.302    1893.0381 
  328300    304.73754   -1170.3034    6415.3691    11755.316    1888.9765 
  328400    301.44004   -1166.6977    6482.2071    11755.313    1993.6493 
  328500    302.52877    -1167.163    6459.3639    11755.264    1839.3351 
  328600    301.92756    -1170.831    6475.8716     11755.26    1789.6458 
  328700    300.61765    -1165.031    6498.1569    11755.361    1946.7444 
  328800    301.91628   -1173.1741    6478.4529    11755.257    1934.5492 
  328900    302.37262   -1160.0569    6455.5222    11755.192    1848.4775 
  329000    302.90011   -1157.6771    6441.8542    11755.173    1878.9584 
  329100      300.127    -1160.983    6504.2905     11755.06    1954.3833 
  329200    301.31975   -1158.9762    6476.7988    11755.057    1824.8514 
  329300    302.08144    -1155.751    6457.3173    11755.073    1818.7292 
  329400    303.91544    -1161.734    6424.1335    11755.087    1860.7411 
  329500    302.75084   -1161.2888    6448.5028    11755.021    1821.4178 
  329600    302.20054   -1153.8611    6452.8681    11755.058    1803.7843 
  329700    300.46213   -1160.1562    6496.3257    11755.082    1865.1932 
  329800    301.91462   -1149.7489    6454.8214    11755.015    1845.2782 
  329900    305.59675   -1153.6741    6380.0079    11754.939    1820.4914 
  330000    301.87292   -1155.2225    6461.2377    11755.067    1835.9242 
  330100     299.9371   -1151.4831    6498.7911    11755.004    1893.2597 
  330200    302.55036   -1148.9853    6440.3705    11754.909    1882.2167 
  330300    300.81258   -1154.0282    6482.7109    11755.082    1910.4144 
  330400    304.16988   -1154.6214    6411.5992    11755.101     1886.279 
  330500    303.66689    -1155.769    6423.4166    11755.025    1846.5112 
  330600    296.61288   -1157.9694     6576.411    11755.121    1881.2104 
  330700    306.54819   -1159.3452    6365.5495    11755.136    1913.5864 
  330800     301.1567   -1162.2439    6483.5945    11755.101    1898.8587 
  330900    304.03984   -1160.6376    6420.3875    11755.095    1851.4371 
  331000     300.0474   -1161.6277    6506.7559     11755.18    1950.5869 
  331100    299.12585   -1166.5102    6531.4203    11755.275    1873.8365 
  331200    303.27443   -1162.6635       6438.9    11755.229    1907.1082 
  331300    302.73856   -1167.7155    6455.4353    11755.265    1968.0129 
  331400    301.23778   -1166.1321    6486.0299    11755.381    1950.7607 
  331500    298.23514    -1164.318    6548.3437    11755.362    1887.8199 
  331600    302.78724   -1164.9979    6451.7111    11755.298    1846.9435 
  331700    305.09158   -1170.4702    6408.0317    11755.375    1908.3948 
  331800    298.12686   -1165.2926    6551.7128    11755.443    1903.6854 
  331900    304.59614    -1167.848    6415.9712    11755.352    1909.9475 
  332000    299.90933   -1162.5549    6510.7893    11755.337     1969.286 
  332100    301.26814    -1165.307    6484.4894    11755.314    1936.6468 
  332200    300.01485   -1170.0664    6516.0194     11755.31    1883.4748 
  332300    301.76415   -1166.8784    6475.4562    11755.306    1980.2305 
  332400    301.40679   -1167.5291    6483.6725    11755.237    1951.3354 
  332500    299.74237   -1165.3497    6517.1129    11755.299     1934.095 
  332600    303.57564   -1163.4448     6433.251    11755.234    1904.4806 
  332700    304.29366   -1157.5684    6411.9598    11755.159    1895.2221 
  332800    299.27182   -1157.2938    6518.9366    11755.126    1898.0355 
  332900    302.34946    -1155.306    6451.1283    11755.055    1889.6091 
  333000    303.69301   -1159.8467    6427.0805    11755.169    1885.2678 
  333100    299.81246   -1159.5892     6509.553    11754.997    1873.8628 
  333200    301.30561   -1157.2206    6475.4006    11755.112    1907.2469 
  333300    300.71039   -1158.1216    6488.9005    11754.995    1865.2701 
  333400    301.84934   -1155.4064    6461.8696    11755.011    1936.8285 
  333500    301.83526   -1151.8771     6458.622    11754.992     1965.478 
  333600    301.55236   -1158.9621     6471.777    11755.018    1913.5443 
  333700    300.94001   -1154.9155    6480.7974    11755.003    1920.3259 
  333800     300.0602   -1156.8837    6501.5853    11755.027    1926.7978 
  333900    301.88618   -1158.5615    6464.2112    11754.985    1909.5106 
  334000    301.57346   -1159.8532    6472.2717    11755.073    1944.2454 
  334100    300.93507   -1160.5497    6486.6292    11755.095    1935.0332 
  334200    302.19686   -1164.5451     6463.615    11755.042    1863.1649 
  334300    299.80526    -1164.095    6514.3658     11755.15    1950.0677 
  334400    300.52872   -1164.5494    6499.4076    11755.193    1938.0859 
  334500    300.70899   -1161.7477    6492.7386    11755.177    1906.6363 
  334600    304.49371   -1165.4683      6415.61    11755.183    1888.9664 
  334700    300.42615   -1170.1611    6507.2994    11755.282    1901.8157 
  334800    301.77111   -1168.8944    6477.2281     11755.21    1883.4818 
  334900    298.19162   -1163.6447    6548.5359    11755.298    1936.0346 
  335000     300.7814   -1166.9502     6496.573    11755.356    1878.2149 
  335100    304.60752   -1173.8163    6421.6428    11755.299    1897.0583 
  335200    300.29743   -1166.3172     6506.196    11755.273    1888.9124 
  335300    300.59156     -1170.37    6504.0426     11755.35    1928.8854 
  335400    301.12396   -1172.8538    6495.2059    11755.404    1961.1727 
  335500    301.17877   -1167.3584    6488.5279    11755.392    1951.6539 
  335600    304.00151   -1169.3874    6430.1599    11755.298    1945.9352 
  335700     303.9898    -1168.035    6429.0352    11755.276    1962.3651 
  335800    301.72924   -1166.5824    6475.9731    11755.373    1943.8199 
  335900    301.35738   -1160.4412    6477.6668    11755.264    1920.0156 
  336000    304.52213   -1163.7253    6413.2742    11755.197    1943.5877 
  336100    299.40731   -1156.5259    6515.3698    11755.222    1963.2557 
  336200    305.17405   -1156.5804    6392.1263    11755.121    1938.0628 
  336300    300.71145   -1164.3251     6495.232    11755.146    1952.0484 
  336400    302.00618   -1159.2181    6462.4431    11755.124    1930.7494 
  336500    301.50762   -1160.4011    6474.2725    11755.119    1871.5532 
  336600    301.16509   -1163.6298    6484.7821    11755.082    1864.6466 
  336700    302.05477   -1162.2016    6464.3128    11755.048    1876.9809 
  336800    299.98208   -1159.8244    6506.2174     11755.05    1916.8954 
  336900    300.43306   -1159.4609    6496.1337    11754.964    1859.8344 
  337000    302.53555   -1155.7914    6447.5369    11754.953    1924.2129 
  337100    303.78142   -1156.9434    6422.1466    11755.027    1885.4271 
  337200    301.56296   -1157.8034    6470.3345    11754.961    1920.4579 
  337300    301.52768   -1158.7808    6472.0824    11754.978    1852.8623 
  337400    300.86167   -1161.6764    6489.2869    11755.058    1835.6678 
  337500    301.01714   -1155.9501    6480.2691    11755.088    1851.5337 
  337600    300.00194   -1160.1998    6506.2681    11755.149    1984.0392 
  337700    304.02911   -1163.3917    6423.2896    11755.013    1930.6022 
  337800    301.00036   -1158.2928    6482.9681    11755.086    1868.4761 
  337900    302.08909    -1161.197    6462.7284    11755.201    1961.5058 
  338000    301.49288   -1150.5739    6464.7083    11755.067    1943.0955 
  338100    301.90552   -1158.8474    6464.2501    11755.151    1967.8896 
  338200    303.51306   -1165.9719    6437.0766    11755.195    1964.6651 
  338300    304.30984   -1167.7247    6421.7589    11755.147    1924.5646 
  338400    300.77677    -1170.137    6499.6751    11755.172    1886.6894 
  338500    299.84377   -1163.5066    6513.0372    11755.233    1890.4948 
  338600    302.80606   -1168.0283    6454.3981    11755.357    1920.1419 
  338700    302.68727   -1163.9429    6452.6872    11755.193    1933.6062 
  338800    302.46668   -1160.3408    6453.7848    11755.181    1930.3809 
  338900    299.23342   -1160.7229    6523.3011    11755.241    2004.5014 
  339000    304.58862   -1162.2917    6410.3921    11755.169    1949.0007 
  339100    299.65489   -1167.3187    6520.9076    11755.256    1950.6987 
  339200    300.13208   -1161.1867    6504.4971    11755.172    1866.9127 
  339300    301.70087   -1162.9987    6472.8752    11755.253    1898.6353 
  339400    302.17957   -1169.1559    6468.8331     11755.28    1910.9619 
  339500    299.96794    -1164.884    6511.7402    11755.211    1928.8634 
  339600     303.2642    -1166.265    6442.7462    11755.256    1917.6616 
  339700    299.75524   -1166.5901    6517.9841    11755.205    2002.5772 
  339800    302.45814   -1154.4769    6448.0022    11755.079    1945.0062 
  339900     303.9718    -1160.107    6421.4158      11755.2    1942.0278 
  340000    299.29687   -1151.2014    6512.3023    11755.119    1941.8396 
  340100     303.7337    -1162.469    6428.8198    11755.155    1937.7912 
  340200    302.45609   -1160.2388     6453.772    11755.043    1899.9659 
  340300    304.40864   -1165.2403    6417.1805    11755.164    1897.8051 
  340400    298.38406   -1162.9868     6543.617    11755.148    1933.5718 
  340500    303.39822   -1163.7212    6437.0979    11755.014    1906.0648 
  340600    299.91442   -1163.1955    6511.1097    11755.126    1949.5579 
  340700    301.59672   -1160.5074    6472.4677    11755.112    1905.8527 
  340800    302.49751    -1158.789    6451.4536     11755.06    1881.9552 
  340900    303.90949     -1159.82    6422.3927    11755.133     1838.043 
  341000    299.37264   -1160.5015    6519.9799    11755.115    1995.3634 
  341100    303.84732   -1160.4197     6424.306    11755.118    1947.6145 
  341200    300.83862   -1161.8135    6489.9347    11755.077    1898.1663 
  341300    298.85094   -1163.3527    6534.0019    11755.141    1932.6991 
  341400    302.44455   -1167.9801    6461.8471    11755.131    1992.5872 
  341500    303.29928   -1163.4483    6439.0601    11755.136    1910.6516 
  341600    300.89677   -1168.3209    6495.3265    11755.203    1905.2118 
  341700    301.89642   -1166.6072    6472.2851    11755.232    1903.5353 
  341800    302.79487   -1161.1882    6447.5969    11755.157    1958.6756 
  341900    303.64482   -1165.1889    6433.3661    11755.083     1938.453 
  342000    298.52372   -1161.8177    6539.4954    11755.179    1915.4216 
  342100    301.61502   -1165.9433    6477.6001    11755.199    1908.2849 
  342200    303.93556   -1161.4515    6423.4822    11755.148    1929.1659 
  342300    297.97072   -1163.5539    6553.0088    11755.142    1932.7204 
  342400    306.06495   -1165.7716    6382.2928    11755.129    1902.4083 
  342500    300.78001   -1163.1987    6492.6788    11755.183    1939.7604 
  342600    300.20778   -1163.4985    6505.1651    11755.145    1906.1081 
  342700    299.77749   -1170.9843    6521.8766    11755.178     1917.401 
  342800    302.72917   -1167.1128    6454.9674    11755.199    1979.4293 
  342900    302.00704   -1163.5176     6466.712    11755.111    1933.8537 
  343000    301.91348    -1163.009    6468.2301    11755.139    1891.2589 
  343100    298.27783   -1158.8167    6541.7647    11755.196    1970.4338 
  343200    302.51894   -1166.5172    6458.8134    11755.149     1923.656 
  343300    304.94186   -1163.0781    6403.6117    11755.149    1872.4018 
  343400    299.60783   -1166.9744    6521.4313    11755.119    1967.5725 
  343500    299.80176    -1165.497     6515.846    11755.154    1958.4715 
  343600    302.03677   -1157.8594    6460.4812    11755.174    1894.8776 
  343700    304.33436   -1164.5016    6418.0927    11755.228    1938.1643 
  343800    301.41244    -1162.836    6478.8765    11755.255    1969.5687 
  343900    301.24796   -1162.3464    6481.9114    11755.265    1950.0743 
  344000     303.0001   -1166.2847    6448.3495    11755.197    1961.4685 
  344100    300.27166   -1163.6507    6504.0432    11755.236    2011.8227 
  344200    304.22568   -1159.7326    6415.7075     11755.29    1967.1772 
  344300    301.10897   -1165.5452    6488.0075    11755.194    1957.6802 
  344400    303.24729    -1166.184    6443.0413     11755.27    1961.7039 
  344500    298.66813   -1160.9146    6535.5777    11755.249    2013.6945 
  344600    306.13697    -1163.088    6378.0774    11755.136    1931.2171 
  344700    301.52404   -1165.1672    6478.7946    11755.226    2041.2758 
  344800    303.52927   -1167.8975    6438.7684    11755.308    1958.0219 
  344900    301.67226   -1164.6423    6475.0587    11755.181    1968.9307 
  345000    304.77882   -1165.1063    6409.1379    11755.164    1995.1676 
  345100    302.88791   -1160.2272    6444.7757    11755.284    1960.1699 
  345200    300.19923   -1162.5158    6504.4773    11755.257    1937.3027 
  345300    302.73555   -1160.6511     6448.342    11755.172    1870.6659 
  345400    305.08564   -1165.4915    6402.9673    11755.162    1942.5084 
  345500     301.0632   -1166.0193    6489.4145    11755.149    1936.2371 
  345600    303.93312   -1169.3594    6431.4552     11755.16    1911.4304 
  345700    301.71529   -1161.9791    6471.3721    11755.077    1959.6843 
  345800    300.29996   -1161.4523    6501.1095    11755.105    1958.2369 
  345900    302.21775   -1161.8929    6460.6209    11755.147    1903.3084 
  346000     302.7828   -1157.3456    6444.0246    11755.169    1950.7802 
  346100    302.50641   -1159.4897    6452.0042      11755.1    1978.3321 
  346200    298.89229   -1163.8744    6533.6543    11755.155    1942.6597 
  346300    300.82321   -1160.2379     6488.749    11755.137    1943.2679 
  346400    304.14648   -1158.0161    6415.5488    11755.156    1941.2023 
  346500    299.69081   -1160.7685     6513.462    11755.128    1923.9709 
  346600    303.55062    -1158.554    6428.7866    11755.126    1885.6189 
  346700    300.95567    -1158.297    6484.0061    11755.165    1966.6454 
  346800    305.40836   -1158.7313    6389.1951    11755.045    1893.8315 
  346900    301.37392   -1160.1694    6476.9092    11755.131    1939.3585 
  347000    303.12257   -1161.5114    6440.9836    11755.221    1931.2897 
  347100    299.60823   -1163.5454    6517.9885    11755.113    1895.1759 
  347200    304.63607    -1163.872    6410.8748    11755.085    1907.4652 
  347300     302.8424   -1162.6017    6447.9862    11755.148    1972.3878 
  347400    301.83556   -1170.1776    6477.1719    11755.248    1954.9164 
  347500    304.73149   -1161.4692    6406.5508    11755.202    1874.6109 
  347600    298.56702   -1160.4363     6537.228    11755.218    1993.3758 
  347700    306.76002   -1165.8704    6367.5657    11755.152    1917.8539 
  347800    304.38929   -1157.7108    6410.0965    11755.196    1896.9657 
  347900    300.11772   -1163.3669    6506.9603    11755.148    1843.0893 
  348000    302.92028   -1166.6564    6450.4516    11755.222    1849.8284 
  348100     303.3629   -1169.9937    6444.3786    11755.268    1876.6434 
  348200    302.45674   -1167.4997    6461.2061    11755.231    1910.8849 
  348300    302.47822    -1162.083    6455.3808    11755.281    1939.6849 
  348400    303.87524    -1162.856    6426.2873     11755.26    1932.4184 
  348500    298.66481   -1163.3257    6537.9791    11755.169     2005.335 
  348600    302.68668   -1162.6658    6451.3352    11755.106    1946.4816 
  348700    297.92838   -1153.4051    6543.6781    11755.056    1903.9619 
  348800     301.5304   -1161.9314    6475.2902    11755.093    1909.0697 
  348900    302.60949   -1169.5786    6460.0614     11755.27    1885.1662 
  349000    300.90722   -1168.6223    6495.4751    11755.274     1915.982 
  349100    304.91756   -1166.3715    6407.4098    11755.134    1970.2344 
  349200    302.84215   -1165.0181    6450.3895    11755.129    1950.7383 
  349300    301.10886   -1160.9291    6483.3628    11755.163    1937.1698 
  349400    300.35127   -1159.4087    6497.9304    11755.066    1918.2156 
  349500    303.39035   -1156.0425    6429.6362    11755.063    1906.5269 
  349600    301.28056   -1159.3059    6478.0547    11755.146    1924.3424 
  349700    304.96836   -1164.4196     6404.433    11755.194    2011.7038 
  349800    299.15554   -1161.7489    6525.8947    11755.145     1999.566 
  349900    302.05001    -1163.373    6465.6568    11755.119    1896.4786 
  350000    301.94206   -1167.0102    6471.6783    11755.197    1850.8675 
  350100    298.10791    -1167.265     6553.932    11755.285    1870.2658 
  350200     301.6351   -1166.8765    6478.0925    11755.187    1828.4688 
  350300    305.10945   -1159.3131    6396.2794    11755.162    1928.4465 
  350400    300.68814   -1161.4189    6492.8355    11755.157    1951.8934 
  350500    301.21104   -1154.4638    6474.7434    11755.191    1939.3835 
  350600    301.82891   -1160.6613    6467.7208    11755.171    1924.8583 
  350700    300.66594   -1166.3823    6498.3789    11755.263    1930.1831 
  350800    302.61482   -1167.7512    6458.1512    11755.301    1949.6359 
  350900    300.84092   -1169.9151    6498.2254    11755.315    1949.5187 
  351000    298.25246   -1166.8616    6550.4795    11755.324    2001.1046 
  351100    302.72066   -1165.1263    6453.2218    11755.258    1869.6492 
  351200     301.9433   -1166.2252    6470.9165    11755.247    2010.7809 
  351300    307.72277   -1165.4279    6346.6015    11755.198    1990.8985 
  351400    300.40764   -1155.3327    6492.8151    11755.231    1962.4779 
  351500    299.16972   -1155.8375    6519.7527    11755.217    1948.0285 
  351600    306.70781   -1160.6488     6363.567     11755.26    1901.7536 
  351700    300.93332    -1162.017    6488.2564    11755.218    1936.3252 
  351800    301.41718   -1163.1134    6478.9405    11755.143    1988.9892 
  351900      300.066   -1161.9372    6506.6558    11755.168    1913.8102 
  352000    301.95315    -1162.715    6467.1741    11755.225     1825.093 
  352100    299.38318   -1163.6776    6522.9515    11755.136    1939.8235 
  352200    303.43083   -1162.7457    6435.4913     11755.08    1952.0105 
  352300    301.30537   -1154.5138    6472.6537    11755.067    1906.2653 
  352400    299.07328   -1156.2838    6522.0842    11755.042     1951.611 
  352500    303.59704   -1153.0345    6422.2109    11755.061    1851.8192 
  352600    306.42602    -1156.697    6365.3266    11754.951    1879.9606 
  352700    300.59114   -1154.7523     6488.053    11754.969    1925.2544 
  352800    302.92635   -1155.5065    6438.9631    11755.013    1863.0357 
  352900    305.60097   -1162.6716    6388.9894    11755.014    1857.8366 
  353000    300.20616   -1161.6828     6503.328    11755.089    1862.6068 
  353100    296.22539   -1159.0193    6585.6622    11755.044    1909.3675 
  353200    303.73535   -1156.5525    6422.8393    11755.126    1930.5181 
  353300    301.93633   -1160.2683    6464.9644    11755.103    1965.2311 
  353400    306.47815    -1157.876    6365.6543    11755.214    1884.3778 
  353500    298.30159   -1159.7046    6542.1141    11755.165    1932.8146 
  353600    303.95311   -1163.5624    6425.3525    11755.282    1928.5171 
  353700    300.19214   -1162.9578     6504.983     11755.17    1919.2356 
  353800    305.48382   -1163.3696    6392.3731    11755.197    1924.6417 
  353900    301.96979   -1159.4307    6463.6208    11755.311    1927.5529 
  354000    300.52925   -1163.4336    6498.4408    11755.353    1898.5133 
  354100    302.44771   -1160.5682    6454.4646    11755.228    1910.7707 
  354200    301.97608   -1166.7093       6470.7    11755.246    1917.8005 
  354300    302.75259    -1169.467    6456.9006    11755.278    1926.3741 
  354400    298.17721    -1170.275    6555.4857    11755.309    1947.4263 
  354500     302.5437   -1166.8151    6458.6622    11755.229     1932.184 
  354600    306.23845   -1168.9933    6381.9098    11755.231    1912.8298 
  354700     299.4175   -1168.4453    6527.0686    11755.219    1950.6478 
  354800    303.90114   -1167.7882    6430.7214    11755.315     1888.618 
  354900    305.20254   -1159.2792    6394.2354     11755.14    1830.0552 
  355000    300.10433   -1160.6591    6504.6059    11755.215    1908.9022 
  355100    305.00403     -1163.75    6403.0288    11755.222    1892.8165 
  355200    298.74651   -1166.8173    6539.7481    11755.192    1908.9628 
  355300    301.68947   -1162.2458    6472.3102    11755.197    1944.2132 
  355400    303.73731   -1163.7038    6430.0133    11755.191    1915.4117 
  355500    299.31332   -1159.4677    6520.3714    11755.273    1903.8262 
  355600    303.06776   -1163.9268    6444.4807    11755.132     1947.882 
  355700    300.22341   -1156.0082    6497.3625    11755.167    1977.6008 
  355800    303.07559   -1151.4906    6431.8298    11755.084    1879.5845 
  355900    303.02048   -1152.6641    6434.0989    11755.002    1825.1169 
  356000    299.23377   -1151.6473    6514.0653    11755.088    1883.0151 
  356100    303.59627   -1154.3088     6423.489    11755.049    1916.5992 
  356200    302.55415   -1154.4685    6445.8932     11755.03    1848.6481 
  356300    302.86044   -1160.0163    6444.8735    11755.006     1874.754 
  356400    297.58005   -1159.8577    6557.5371    11755.021     1882.302 
  356500    303.05838   -1159.6098    6440.2402    11755.008    1883.7892 
  356600    301.02597   -1160.4572    6484.6595     11755.16    1895.7609 
  356700    298.45092   -1159.5265    6538.7299    11755.149    1867.3654 
  356800    303.47565   -1157.8933     6429.626    11755.024    1848.9972 
  356900    302.86174   -1153.1536    6438.0341    11755.057    1935.3434 
  357000    301.62688   -1153.9802    6465.2228    11755.038    1919.5487 
  357100    302.03751   -1155.8902    6458.3609    11755.039    1858.2406 
  357200    301.25435   -1158.3423    6477.5583    11755.053    1872.8716 
  357300    303.85583   -1164.8835    6428.6983    11755.228    1901.0561 
  357400    299.97935   -1166.7663    6513.3125    11755.145    1888.7151 
  357500    301.10694   -1168.7396     6491.248    11755.196    1855.7839 
  357600    299.56158   -1165.9196    6521.5482    11755.302    1894.1062 
  357700    307.27166   -1172.5039    6363.3072    11755.191    1913.8376 
  357800    303.98201   -1167.5923     6428.751    11755.268    1926.6184 
  357900    302.33144   -1156.5718    6452.9328    11755.208     1930.776 
  358000    301.59154   -1160.6561    6472.8487    11755.233     1956.153 
  358100     301.8822   -1162.6679    6468.6849    11755.267    1917.1978 
  358200    303.13348   -1171.9504    6451.2302    11755.261    1962.1054 
  358300    302.95923   -1165.1736    6448.2728    11755.358    1962.5998 
  358400    304.10264   -1170.5614    6429.1934    11755.318     1903.685 
  358500    297.73125   -1163.3233    6558.0534    11755.302    1927.3335 
  358600    303.31782   -1164.7071    6440.0506    11755.263    1878.2676 
  358700    302.71923   -1169.6169     6457.773    11755.288    1891.1696 
  358800      304.252   -1159.6757    6415.0464    11755.248    1926.9206 
  358900    300.30564   -1155.9136    6495.5037    11755.159    1934.9525 
  359000    302.72872   -1156.9958    6444.8585    11755.197    1934.5343 
  359100    302.81971   -1158.2542    6444.0096    11755.034    1884.4583 
  359200    299.30098    -1158.573    6519.5462    11755.079    1915.5515 
  359300    303.72631   -1158.9263    6425.3455    11755.066     1894.448 
  359400    301.24666   -1165.5649    6484.9625     11755.07    1852.3432 
  359500    297.64887   -1162.2867    6558.6155     11755.14    1875.4626 
  359600    302.92709   -1162.5764    6446.1324    11755.129    1937.3359 
  359700    299.29111   -1160.3629    6521.4868    11755.019    1895.7722 
  359800    303.19346   -1153.2264    6430.9634        11755    1924.7732 
  359900    302.51823   -1156.3318    6448.5753    11755.081    1969.5631 
  360000    299.21864   -1154.4928    6517.2587    11755.113    1978.6382 
  360100    303.55337    -1157.908    6427.9112    11754.955     1869.399 
  360200    303.39233   -1152.2318    6425.7827    11755.063    1907.9767 
  360300    300.52744   -1159.9034    6494.7833    11755.188    1896.3556 
  360400     303.8311   -1166.1317    6430.3477    11755.101    1849.1674 
  360500    303.23047    -1164.492    6441.5189    11755.081    1954.4677 
  360600    300.35118   -1162.9011    6501.5993     11755.24    1973.1541 
  360700    304.21112   -1156.9204    6413.0378    11755.121    1961.2115 
  360800    302.22156   -1156.3832     6455.112    11755.229    1961.9379 
  360900      300.331    -1158.885    6498.0805    11755.307    2003.8738 
  361000    303.04845   -1163.2464    6444.3945    11755.313    1940.0776 
  361100    302.32757   -1161.5286    6458.0432    11755.279      1944.19 
  361200    300.44016   -1169.1538    6506.0004     11755.29    2066.2653 
  361300    303.63447   -1170.3531    6438.9666    11755.298     1943.685 
  361400    298.70924   -1169.0628     6542.984    11755.386    1878.7674 
  361500    301.56727    -1166.693    6479.4076    11755.237    1926.0086 
  361600    304.95791    -1163.539     6403.803    11755.222    1942.4595 
  361700    299.14878   -1157.7816     6522.167     11755.24    1912.2379 
  361800    301.51422   -1153.8013    6467.6631    11755.251    2023.6075 
  361900    306.64193   -1164.6133    6368.8714    11755.192    1969.2693 
  362000    302.06121   -1161.4309    6463.6238    11755.267    1887.9758 
  362100    300.64626   -1164.2981    6496.7157    11755.264    1911.2667 
  362200    297.53914   -1166.0395    6564.8072    11755.235    1944.7627 
  362300    306.34968   -1169.9187    6380.4148    11755.187    1839.2154 
  362400    300.90308   -1164.9128    6491.7475    11755.167    1918.5142 
  362500    303.08123   -1165.9259    6446.2069    11755.147    1889.6836 
  362600    299.34698   -1161.1648    6521.2266    11755.151    1879.8154 
  362700    304.91685   -1156.1119    6397.1918     11755.16    1888.5578 
  362800    298.82124   -1155.3534    6526.6504    11755.154    1951.8882 
  362900    302.88485   -1157.1675    6441.6607    11755.163     1899.075 
  363000    304.75622   -1157.3056    6401.8548    11755.198    1872.4278 
  363100    301.48749   -1160.2954    6474.7161    11755.238     1915.786 
  363200     301.1637   -1160.3395    6481.6062    11755.167    1860.2135 
  363300    299.83227   -1161.7439    6511.4407    11755.153    1861.8438 
  363400    304.63755   -1164.7999    6411.8959     11755.21    1953.6055 
  363500    299.97196   -1154.6372    6501.3963      11755.2    1936.2359 
  363600    301.18737   -1162.3465     6483.064    11755.123    1870.4231 
  363700    301.50132   -1156.6347    6470.7765    11755.255    1885.5071 
  363800    301.29164   -1154.7884    6473.3365    11755.182     1922.846 
  363900    305.76878    -1156.666     6379.558    11755.173    1895.5196 
  364000    301.75135    -1158.388    6467.0645    11755.131    1862.1493 
  364100    300.68618   -1163.6875    6495.1952    11755.207    1853.1682 
  364200    300.59863   -1162.7796     6496.146    11755.195    1880.5585 
  364300    303.27507   -1161.1248    6437.3524    11755.234    1956.6851 
  364400     304.4038   -1159.7746    6411.8637    11755.209    1940.8713 
  364500    304.47324   -1163.4825    6414.1056    11755.227    1922.7885 
  364600    298.13271   -1160.8767    6546.9076    11755.179    1906.9648 
  364700    304.85116   -1164.7795     6407.307    11755.205    1911.4951 
  364800    299.63925   -1160.6411    6514.5072    11755.199    1937.9923 
  364900     301.7771   -1162.4081    6470.5786    11755.175    1938.8397 
  365000    301.56365   -1162.4159    6475.1368    11755.166    1929.9636 
  365100    299.34298   -1165.5443    6525.7896    11755.249    1895.5979 
  365200    299.12603   -1162.8665    6527.7258    11755.228    1908.6725 
  365300    302.39552   -1167.2112    6462.1656    11755.171    1873.1035 
  365400      302.998   -1161.8881    6443.9595    11755.159    1818.8167 
  365500    298.16531   -1165.3971     6550.683     11755.13    1881.7552 
  365600    303.92396    -1163.438    6425.7434    11755.175    1886.3522 
  365700     300.9914   -1152.7488    6477.6474    11755.118    1943.7811 
  365800    304.21223   -1156.4806    6412.5378    11755.085    1900.0349 
  365900    299.81738   -1159.9313    6509.9554    11755.162    1944.1933 
  366000    300.19238   -1162.8151    6504.6959     11755.03    1884.8628 
  366100    304.10155   -1164.3269     6422.794     11755.13    1943.5789 
  366200    299.56239   -1158.9462    6514.4272    11755.172    1920.3975 
  366300    303.14436   -1157.9714    6436.8997    11755.142     1858.117 
  366400    299.55892   -1164.2854    6519.8163    11755.148    2007.7845 
  366500    303.12118   -1164.3923    6443.7505    11755.077    1988.2542 
  366600    302.47229   -1163.8908    6457.1657    11755.131    1928.0028 
  366700    298.82155   -1160.4437    6531.7287    11755.149     1932.863 
  366800    300.15683   -1159.3806    6502.0382    11755.048    1886.4765 
  366900    305.88714   -1159.0231    6379.3649    11755.151    1843.4745 
  367000     303.4288     -1158.74    6431.6425    11755.193    1949.0498 
  367100     305.2558     -1152.79    6386.5707    11755.102     1946.984 
  367200    299.34756   -1158.2787    6518.3156    11755.138    1901.8784 
  367300     300.6175   -1159.7288    6492.6818    11755.185    1877.9015 
  367400    300.17208   -1161.8116     6504.319    11755.223     1902.739 
  367500    306.24745   -1169.6297    6382.3386    11755.216    1886.7327 
  367600    301.31971   -1162.8467    6480.8835     11755.27    1912.5704 
  367700    301.40692   -1163.0812     6479.221    11755.236    1882.2268 
  367800    299.67395   -1166.2417    6519.3873     11755.22    1894.8665 
  367900    302.61704   -1159.6925    6449.9551    11755.211    1937.2457 
  368000    303.55531   -1159.0419    6429.2685     11755.22    1923.8011 
  368100    301.56451   -1161.2332     6473.963    11755.193    1931.0591 
  368200    301.72181   -1160.5115    6469.8903    11755.202    1933.4957 
  368300    301.17992   -1152.4667    6473.3024    11755.083    1905.0384 
  368400    302.46402   -1158.3323     6451.835    11755.182    1889.5203 
  368500    299.95373   -1159.6952    6506.8283    11755.184    1909.9984 
  368600    302.31561   -1163.3351    6459.8771    11755.051    1941.1823 
  368700    302.57918   -1165.0919    6456.1157    11755.164    1936.6548 
  368800     301.3314   -1158.8435    6476.5375    11755.177    1878.3204 
  368900    301.27833   -1164.5374    6483.3086     11755.12    1914.6084 
  369000     298.5446   -1156.3947    6533.5463    11755.099    2005.1696 
  369100    304.56878   -1155.3905    6403.8321    11755.086    1998.7605 
  369200    299.85498   -1149.3089    6498.5201    11755.153    2011.4519 
  369300    301.29533    -1154.605    6472.9878    11755.095    1919.2363 
  369400    303.66753   -1157.1025     6424.831    11755.119    1891.9109 
  369500    302.44263   -1156.3431    6450.2568    11755.136    1896.5661 
  369600    298.12759   -1160.2613    6546.2603    11755.037    1927.9949 
  369700    302.93542   -1159.0782     6442.359    11755.031     1928.192 
  369800    297.54656   -1163.9119    6562.3985    11755.112     2009.326 
  369900    305.21478   -1154.0153    6388.7199     11755.15    1925.0138 
  370000    301.09319   -1155.3901    6478.0834    11755.087    1910.3108 
  370100    302.79656   -1158.5776    6444.8938      11755.1    1858.4806 
  370200     301.4973   -1156.1879    6470.2052    11755.044    1962.4235 
  370300    305.88565   -1157.1498    6377.4256    11755.053    1838.8317 
  370400    300.39164   -1156.0425    6493.7556    11755.119    1932.8519 
  370500    301.23326   -1165.4579    6485.2428    11755.171    1964.3867 
  370600    302.51175   -1164.0008    6456.4605    11755.159    1909.7139 
  370700    305.26684   -1168.9638    6402.5757    11755.169    1914.9917 
  370800    301.06833   -1169.9143    6493.2731    11755.222    1985.7843 
  370900    303.98859   -1167.2652    6428.1842    11755.169    1853.5395 
  371000    299.17413   -1165.5242    6529.3982     11755.27    1951.6172 
  371100    305.32925   -1162.4936    6394.8361    11755.234    1927.8567 
  371200    300.70388   -1166.3912     6497.576    11755.262    1987.0522 
  371300    301.92388    -1156.974     6461.964    11755.131    1914.1846 
  371400    303.49263   -1165.3099    6436.9427    11755.287    1923.8764 
  371500    302.51734   -1162.3651    6454.8413    11755.295    1986.1066 
  371600    305.39187   -1166.6478    6397.6898    11755.271     1963.472 
  371700    300.31843   -1172.1981    6511.6586    11755.303    1953.5416 
  371800    300.69692   -1167.0984      6498.51     11755.34    1917.6495 
  371900    301.65637   -1166.2419    6477.0222    11755.206    1939.6087 
  372000    303.42252   -1167.9651    6441.0256    11755.217    1931.7593 
  372100    300.00255   -1160.6669    6506.7456    11755.173    1966.9256 
  372200     302.8206   -1161.5968    6447.4361    11755.137    1957.4881 
  372300    303.32562   -1157.3539    6432.3644    11755.097     1939.738 
  372400    304.80383   -1159.0343    6402.4651    11755.097    1936.6727 
  372500    300.04419   -1164.0521    6509.2291    11755.161    1993.3327 
  372600     297.5911   -1158.0959    6555.6333    11755.115    1962.4833 
  372700    304.17255   -1155.6504    6412.5064    11755.036    1962.3159 
  372800    297.36934   -1157.4712    6559.5801    11754.948     2005.379 
  372900    308.23619   -1160.9051    6330.8702    11754.958    1955.2501 
  373000    296.84816   -1159.8851    6573.2147    11755.035    1985.0582 
  373100     300.8324   -1160.8021    6488.9644    11754.985    1870.4044 
  373200    299.56787   -1158.9609    6514.2233     11755.07    1907.1973 
  373300    305.00645   -1157.4212    6396.4936    11755.067    1900.9788 
  373400    299.96491   -1153.5744    6500.3898    11755.105    1910.5635 
  373500     303.4355   -1161.0591    6433.7498    11755.125    1909.1646 
  373600    303.92045   -1162.0566    6424.3774    11755.115    1917.9049 
  373700     299.8342   -1159.9903    6509.6834    11755.191    1937.8674 
  373800    303.39264   -1161.8005    6435.4944    11755.212     1927.966 
  373900    303.71469   -1166.5149    6433.3296    11755.213    1870.9646 
  374000     301.4399   -1161.9424    6477.3788    11755.237    1895.3678 
  374100    302.20811   -1163.2331    6462.3003     11755.28    1907.9115 
  374200    300.59971   -1163.7845    6497.2306    11755.298    1836.9427 
  374300     302.4871   -1168.5993    6461.7248    11755.298    1913.5385 
  374400    305.02136   -1167.8404    6406.8164    11755.289    1970.8561 
  374500    303.49309   -1169.4696    6441.0229    11755.217    1809.0374 
  374600    298.39971   -1167.1261     6547.598    11755.324    1843.6533 
  374700    301.49337   -1168.2979    6482.7353    11755.381    1971.6561 
  374800     307.6615    -1170.073     6352.675    11755.318    1956.7972 
  374900    300.67139   -1166.7513    6498.6658    11755.297    1946.5745 
  375000    301.78732   -1165.0631    6473.1946    11755.354    1962.8999 
  375100    301.76146   -1165.1674    6473.7644    11755.268    1940.1326 
  375200    304.67539   -1161.2106    6407.5158    11755.227    1909.8846 
  375300    304.23286   -1163.4357    6419.2116    11755.244    2013.3886 
  375400    300.93603   -1160.1335    6486.2635    11755.167    1963.9842 
  375500    300.95616   -1153.7503    6479.4548    11755.171    1957.4122 
  375600    302.19124   -1159.0501    6458.3305    11755.132    1907.9036 
  375700    301.42856   -1163.0519    6478.6252    11755.132    1881.2682 
  375800    300.37248   -1157.4072    6495.4734    11755.063    1948.5943 
  375900     305.1747   -1159.5048    6394.8841    11754.968    1963.0869 
  376000    300.86548   -1160.8915    6488.4308    11755.069    2009.9118 
  376100    302.64711   -1153.7312    6443.1638    11755.024    1930.2111 
  376200    301.95788   -1153.2634    6457.4185    11755.022    1911.2703 
  376300    298.47644   -1157.2153    6535.7268    11755.003    1910.8154 
  376400    301.93897    -1154.549    6459.0822    11754.996    1903.0537 
  376500    301.68539   -1151.7696     6461.631    11754.907    1918.5234 
  376600     301.5595   -1151.8496     6464.485    11754.991    1896.5082 
  376700    301.81105   -1155.0459    6462.3955     11755.08    1880.3572 
  376800    304.11572   -1157.2094    6415.2785    11755.035    1800.5612 
  376900    298.03839   -1155.3108    6543.2596    11755.082    1888.4073 
  377000    302.45518   -1159.2467    6452.8685    11755.113    1902.2696 
  377100    307.93954   -1160.5071    6336.9802    11755.129    1844.7934 
  377200    302.68501   -1154.2656    6442.9915    11755.127    1831.4936 
  377300     296.6451   -1157.8539    6575.6511    11755.164    1892.2541 
  377400    307.65767   -1162.6425    6345.1952    11755.187    1868.2191 
  377500    300.96846   -1159.0469    6484.4723    11755.155    2009.3194 
  377600    304.19148   -1158.1288    6414.7255    11755.181    1987.5282 
  377700    298.93697   -1160.2996    6529.2496     11755.28    1938.0185 
  377800    299.57788   -1161.0897    6516.3657    11755.298    1892.3176 
  377900    301.73911   -1165.1519     6474.165    11755.206    1945.1952 
  378000    305.76871   -1168.9788     6391.887    11755.188    1887.6342 
  378100    303.73348   -1161.8926     6428.319    11755.226    1930.6751 
  378200    300.64895    -1164.304    6496.6373    11755.237    1987.1465 
  378300    299.96864   -1165.5435    6512.4738      11755.3    1922.1386 
  378400    302.75445     -1155.15     6442.431    11755.165     1861.956 
  378500    304.99487   -1158.7411    6398.1888    11755.195     1891.894 
  378600    297.26628    -1166.057    6570.6708    11755.252    1942.5408 
  378700    304.45386   -1160.5629     6411.557    11755.184    1848.1585 
  378800    303.95414   -1162.3831    6424.0546    11755.185    1874.2347 
  378900    301.95098   -1163.2769    6467.7749    11755.217     1964.539 
  379000     300.5999   -1162.0044    6495.3488      11755.2    1921.5724 
  379100    302.82502   -1158.7436    6444.4647    11755.113    1882.7054 
  379200     300.6232   -1153.9592    6486.7276    11755.122    1975.5199 
  379300    302.79391     -1159.04    6445.3879    11755.075    1916.7609 
  379400    300.61004    -1153.144    6486.0984    11755.027    1846.0333 
  379500    303.96316   -1151.9866    6413.2229    11754.943    1927.6801 
  379600    304.65562    -1157.475    6403.9795    11755.004    1897.1287 
  379700    298.72707   -1156.8019    6529.9859     11755.03    1817.6134 
  379800    303.68387   -1159.7893    6427.0828    11755.034    1827.4419 
  379900     300.5916   -1158.9694    6492.3295    11755.038    1925.8511 
  380000    304.64012   -1157.8486     6404.557    11754.877    1808.4008 
  380100    298.94477    -1157.334    6525.8733    11755.035    1873.9692 
  380200    300.44706   -1157.8549     6494.314     11755.05    1884.5165 
  380300    304.17119   -1157.8338    6414.7237    11755.041    1910.7414 
  380400     304.4971   -1156.0812    6406.0206    11755.053    1862.6366 
  380500    300.29498   -1154.5445    6494.3032      11755.1    1958.1927 
  380600     304.8955   -1162.5852    6404.1291    11755.169    1950.7138 
  380700    299.90579   -1160.0102    6508.1822    11755.199    1892.4001 
  380800    300.52302   -1162.7049    6497.6758    11755.184    1944.0198 
  380900    302.55807   -1165.3069    6456.8925    11755.274    1932.0693 
  381000    303.14495   -1166.9695    6446.0118    11755.269    1860.6966 
  381100    300.96346    -1163.541    6489.1971    11755.279    1862.8778 
  381200    302.14322   -1162.0018    6462.4711    11755.296     1987.679 
  381300    302.72222   -1162.5444    6450.7136    11755.365    1921.6702 
  381400    299.92682   -1163.4907    6511.3134    11755.299     1932.117 
  381500    304.13736   -1164.7375    6422.6247    11755.315    1985.5296 
  381600    298.17115   -1169.2384    6554.5951    11755.326      1950.42 
  381700    302.33156   -1167.1636    6463.5551    11755.241    1880.4269 
  381800    302.15328   -1166.3879    6466.5953    11755.249    1973.4003 
  381900    303.96813   -1168.6381    6430.0908    11755.265    1921.5827 
  382000    301.71907   -1167.4462    6476.9068    11755.226    1904.7041 
  382100    303.10948   -1166.5191    6446.2745    11755.224    1950.3373 
  382200    302.40668   -1157.4815    6452.1648    11755.138    1902.8909 
  382300    300.17044   -1156.7245    6499.1615    11755.118    1803.6766 
  382400    301.28054   -1157.5332    6476.3093    11755.173     1901.943 
  382500    305.24315   -1156.4323    6390.4326    11755.052    1879.6946 
  382600    301.50147   -1154.7771    6468.7087    11755.048    1821.1861 
  382700    302.13118    -1162.489    6462.9889    11755.069    1834.7968 
  382800    302.75398   -1160.3295    6447.5188    11755.064    1865.4435 
  382900    299.40003   -1150.8659    6509.6315    11754.988    1799.0894 
  383000     302.2263   -1154.4184    6452.7701    11754.953    1822.1868 
  383100    303.24332   -1158.3723    6434.9809    11754.937    1937.7037 
  383200    303.13384   -1153.1336    6432.0425    11754.898     1853.144 
  383300    297.27738   -1151.3863    6555.4844    11754.973    1898.9415 
  383400    304.80071   -1148.7348     6392.035      11754.9    1815.9778 
  383500    303.55453   -1154.9849    6424.9996    11754.991    1901.2971 
  383600     305.3701   -1154.4685    6385.6577    11754.953    1914.8192 
  383700    297.53149   -1150.8914    6549.5599    11754.972    1938.7611 
  383800    301.37169    -1156.486    6473.1513    11755.009     1816.196 
  383900    302.61668   -1151.1377    6441.1771     11754.98    1850.8044 
  384000    303.38071   -1162.1094    6435.8687    11755.023    1915.9137 
  384100    303.82681   -1154.0399     6418.287    11755.041    1906.0504 
  384200    303.70345   -1160.8967    6427.7576    11755.019    1925.4141 
  384300    300.99053   -1158.3296    6483.1929    11755.064     1915.143 
  384400    301.32405   -1159.4577      6477.24    11755.108    1868.9252 
  384500    302.26894   -1158.7912    6456.3514    11755.072     1908.909 
  384600     302.0782   -1163.3109    6465.0201    11755.146    1942.9615 
  384700    304.47805   -1167.4815    6417.9138    11755.139    1892.4893 
  384800    302.47651   -1167.0464    6460.2872    11755.187    1835.4356 
  384900     299.2605     -1162.46    6524.4077    11755.189    1854.4732 
  385000    302.85977   -1165.2894    6450.3737    11755.218    1882.1379 
  385100    300.65728   -1160.6958    6492.7749    11755.161    1880.0671 
  385200    302.25491   -1167.3164    6465.4378    11755.334     1932.953 
  385300    299.77668   -1157.2421     6508.175    11755.202    1972.7677 
  385400    304.01293   -1158.9142     6419.271    11755.127    1843.7155 
  385500    302.15138   -1161.8489    6462.0009    11755.153    1864.2751 
  385600    304.93987   -1165.5295    6406.1129    11755.156    1929.3047 
  385700    299.96088   -1162.0596     6509.072    11755.216    1886.7348 
  385800    298.86554   -1164.8089    6535.1681    11755.163    1878.1825 
  385900    305.69261   -1170.2025    6394.6828    11755.134    1911.9417 
  386000    303.29211     -1163.48    6439.2393     11755.13    1927.6259 
  386100    302.85008   -1161.3521    6446.5767    11755.152    1892.2842 
  386200    296.68227   -1161.5041    6578.4775    11755.135    1905.9315 
  386300    303.94232   -1159.4891    6421.3437    11755.116    1928.2024 
  386400     303.7563     -1162.96    6428.6529     11754.98    1943.6989 
  386500    300.34626    -1161.685    6500.2887    11755.041    1952.7475 
  386600     299.2369    -1161.092    6523.3715    11755.017    1921.4581 
  386700    301.61139   -1164.0069    6475.6077    11755.065    1962.9448 
  386800    301.67491   -1162.1021    6472.3595    11755.079    1940.9751 
  386900    303.09011   -1159.3901    6439.4637    11755.129    1925.1178 
  387000     296.5748   -1165.5561    6584.8025    11755.112     1990.666 
  387100    301.42411   -1163.8743    6479.5877    11755.177     1933.349 
  387200     302.6781   -1169.0201    6458.0115    11755.245    1954.4187 
  387300    303.41705   -1168.5226    6441.6614    11755.179    1971.0314 
  387400    301.48549   -1161.5073      6475.92    11755.188    1917.0958 
  387500    302.82641    -1168.086    6453.8922    11755.228    1938.4396 
  387600    305.43777   -1161.4816    6391.4738    11755.202     2009.503 
  387700    301.77166   -1152.4005    6460.7099    11755.198    1948.3738 
  387800     302.8184    -1167.457     6453.393    11755.186     1911.866 
  387900    299.67386    -1170.699    6523.9332    11755.306    2008.9757 
  388000    303.20947   -1171.5478    6449.2255    11755.283    1922.9514 
  388100    299.90161    -1165.913    6514.2096    11755.234    1944.0805 
  388200    301.98496   -1168.7124    6472.5808    11755.314    1943.5843 
  388300    300.44601   -1166.5689    6503.2799    11755.279    1949.4632 
  388400    302.64155   -1168.6564    6458.3757    11755.192    1972.5665 
  388500    303.07889   -1160.7091    6441.0992    11755.205    1978.6244 
  388600    298.18398   -1162.7711    6547.6824    11755.154    1951.6965 
  388700    305.06922   -1165.7755    6403.5744    11755.135    1863.1113 
  388800    302.31521   -1161.2153    6457.8658    11755.151    1953.0693 
  388900    303.73189   -1164.7896     6431.237    11755.213    1899.5813 
  389000    301.00079   -1161.5997    6486.2932    11755.114     1809.717 
  389100    300.43721   -1162.1092    6498.9875    11755.258    1968.8789 
  389200    305.63034   -1164.7482    6390.5951     11755.17    1940.0144 
  389300     299.5893   -1160.6893    6515.6096    11755.186    1915.2843 
  389400       304.07   -1159.0769    6418.1998    11755.112    1885.5112 
  389500     299.9468   -1160.3332    6507.5158    11755.086    1958.4811 
  389600    301.16766   -1156.5867    6477.6685    11755.067     1937.252 
  389700    298.72464   -1151.8699       6525.1    11755.024    1943.6196 
  389800    304.35715   -1155.0652    6407.9782    11755.037    1904.5347 
  389900     302.1207   -1160.0783    6460.8424    11755.109    1926.3275 
  390000    303.31229    -1159.821    6435.1576    11755.138    1887.3102 
  390100    301.63086   -1158.6698    6469.9257    11755.136    1938.4503 
  390200    301.31809   -1160.4375    6478.3591     11755.12    1896.6621 
  390300    301.95516   -1165.4441    6469.7601    11755.125     1913.068 
  390400    306.95666   -1165.5563    6362.9636    11755.065    1905.9593 
  390500    298.92981   -1154.4157     6523.334    11755.095     1907.847 
  390600    301.80535   -1158.4913    6465.9874    11755.104    1861.6227 
  390700    304.25197   -1162.9961    6418.2804    11755.161    1913.5092 
  390800    303.34895   -1163.6927    6438.3759    11755.268    1943.8893 
  390900    301.78547   -1166.0785     6474.169    11755.274    1888.5452 
  391000    299.67163   -1168.9418    6522.0912    11755.174    1853.8144 
  391100     301.6984   -1163.2078    6473.1755    11755.291    1946.2843 
  391200     300.8657    -1165.475     6493.164    11755.223    1928.6667 
  391300    301.94723   -1159.2415    6463.7874    11755.185    1866.7433 
  391400    302.79001    -1163.557     6450.143     11755.23    1960.4265 
  391500    301.97066   -1166.2218    6470.2488    11755.167    1913.2347 
  391600    299.76515   -1169.2635    6520.3841    11755.143     1841.405 
  391700    304.38888   -1172.8107     6425.269     11755.26    1937.2483 
  391800    299.33046   -1170.0258    6530.5977    11755.308    1965.7738 
  391900    302.15962   -1163.3341    6463.3812    11755.224    1906.7014 
  392000    302.66531   -1162.7378    6451.9851    11755.227    1934.0827 
  392100    299.44879   -1163.8402    6521.7696    11755.193      1984.49 
  392200    302.98562   -1163.2585     6445.605    11755.169    1948.6343 
  392300    303.67785   -1159.1765    6426.6657      11755.1    1937.6177 
  392400    304.35721   -1160.6773    6413.6312    11755.079    1928.2681 
  392500    299.09477   -1162.3335    6527.7408    11755.108    2003.2614 
  392600    303.59437     -1165.51    6434.8488    11755.167    1934.0677 
  392700    299.76399   -1159.0647    6510.2154    11755.148    1937.6034 
  392800    302.64674   -1166.1585    6455.7604    11755.185    2044.0292 
  392900    300.82437   -1165.5989    6494.0982     11755.15    2013.0995 
  393000    302.49016   -1154.3885    6447.2181    11755.068    1905.2652 
  393100    298.57687   -1157.6844    6534.1571    11755.109    1938.9904 
  393200    301.61489   -1155.8395    6467.3851    11755.085    1958.1659 
  393300    302.77736   -1154.7835    6441.5121    11755.102    1942.5566 
  393400    298.47158   -1158.0432    6536.8109    11755.155    2038.9701 
  393500    300.66308    -1161.052    6493.0082    11755.162    1994.9743 
  393600    302.09449   -1165.9199    6467.3412    11755.207    1897.2816 
  393700    303.96205   -1168.8442    6430.4002    11755.239    1844.8592 
  393800    300.49896   -1167.6911    6503.2163    11755.224    1899.7151 
  393900    303.92542   -1161.5704    6423.8093    11755.139    1941.6127 
  394000    299.84201   -1156.0405    6505.4246    11755.048    1939.1494 
  394100    304.52868    -1155.507    6404.7922    11755.073    1960.4238 
  394200    302.15508   -1157.3271    6457.4924    11755.245    1969.6994 
  394300    298.23309   -1161.7942    6545.7706    11755.269    1927.1228 
  394400    304.63984   -1165.2879     6412.344    11755.219     1910.938 
  394500    301.12739   -1170.3478    6492.5014    11755.278    1921.9457 
  394600     297.6471   -1166.9135    6563.4809    11755.341    1909.9672 
  394700    303.24347   -1172.5052    6449.4286    11755.255    1899.6256 
  394800     301.2237   -1160.9928    6481.0601     11755.25    1902.7126 
  394900    302.87097    -1157.039    6441.8606    11755.195    1962.1586 
  395000    303.06369   -1167.6747    6448.3904    11755.206    1982.5639 
  395100    299.95238   -1159.5605    6506.7104    11755.172    1978.2182 
  395200    305.53396   -1164.1513    6392.0024    11755.115    1923.9289 
  395300    300.55349   -1165.0402    6499.3418    11755.166    1925.1332 
  395400    303.02302   -1164.7692    6446.4077     11755.26    1891.9728 
  395500    302.33429   -1169.0545    6465.3472    11755.201    1894.5539 
  395600    300.56227   -1168.1167    6502.2376    11755.173    1952.0481 
  395700    304.92004   -1166.4171    6407.5323    11755.264    1927.7132 
  395800    301.65895   -1166.5246    6477.2518    11755.208    1935.1472 
  395900    300.80531   -1161.5461    6490.4298    11755.128    1919.3125 
  396000    300.40194    -1162.398    6499.9522    11755.181     1957.081 
  396100    302.45111   -1159.3751    6453.1447    11755.173    1896.4993 
  396200    302.22937   -1162.5776    6461.1393    11755.228    1977.1915 
  396300    300.12006   -1158.9926     6502.516    11755.128    1902.6728 
  396400    303.10123   -1161.3596    6441.2498    11755.183    1908.4703 
  396500    302.21547   -1160.6666    6459.4616    11755.165    1890.3831 
  396600    301.93566   -1160.3156     6465.071    11755.148    1900.4029 
  396700    304.47736    -1160.542    6410.9456    11755.095    1851.7356 
  396800    299.50873   -1164.5251    6521.1835    11755.203    1840.5956 
  396900    304.48438   -1165.8825    6416.1939    11755.153    1875.4456 
  397000    300.00283   -1166.4136    6512.3762    11755.063    1926.3329 
  397100    300.27133   -1162.0725    6502.3641    11755.128    1947.2539 
  397200    307.31969   -1157.6277    6347.3511    11755.137    1900.8046 
  397300    303.19475   -1155.6147    6433.3511    11755.027    1926.5808 
  397400     300.7225    -1155.501    6486.1595    11755.133    1888.3742 
  397500     304.4499   -1161.3686    6412.3787    11755.115    1888.7341 
  397600    299.05921   -1166.3075    6532.4983    11755.132    1929.1205 
  397700    303.83094   -1164.9703    6429.2185     11755.13    1838.6681 
  397800    303.58855   -1162.3132    6431.7292     11755.12    1891.6412 
  397900    297.79821   -1167.9691    6561.1923    11755.225    1977.7746 
  398000    301.34554   -1166.4091    6483.7685    11755.145    1939.4501 
  398100    301.13824   -1158.7963    6480.6029    11755.163    1928.9882 
  398200    302.68411   -1162.8181     6451.598    11755.161    1973.3648 
  398300    301.08479   -1161.5729    6484.5022    11755.144    2014.4955 
  398400    304.26129   -1166.2085    6421.2721    11755.139    2000.4006 
  398500    299.97605   -1163.1547     6509.836    11755.209    2009.2417 
  398600    303.97085   -1163.5366    6424.8849    11755.219    1921.3342 
  398700    299.43986   -1163.4253    6521.5806    11755.228    1901.0142 
  398800    300.72411   -1164.5565    6495.3657    11755.318     1913.246 
  398900    300.25682   -1168.4295    6509.2373    11755.334    1949.9553 
  399000    300.41929   -1164.7112    6501.9176    11755.204    1979.2188 
  399100    300.14703   -1155.1098    6498.1254    11755.196    1974.6035 
  399200      304.408   -1165.9615    6417.9353    11755.184    1949.8063 
  399300    299.03017   -1169.1982    6536.1279     11755.25    1971.7934 
  399400    301.48004   -1160.5518    6475.2039    11755.311    1972.7561 
  399500    303.42149   -1158.9378    6431.9695    11755.166    1953.2418 
  399600    302.86352   -1165.3412     6450.292    11755.165    1957.7892 
  399700    301.44904   -1167.0126    6482.1755    11755.159    1954.6982 
  399800     301.6277    -1164.285    6475.6949    11755.223    1922.0182 
  399900    301.27037   -1164.4958     6483.446    11755.129    1946.2424 
  400000    301.07941   -1167.3955    6490.4395    11755.144    1929.1995 
  400100    302.09266   -1167.6164    6469.0103     11755.14    1947.4289 
  400200    302.18366   -1159.7536      6459.23    11755.167     1944.493 
  400300    303.32236   -1157.4574     6432.575    11755.134    1939.0981 
  400400    300.12525   -1161.0571    6504.4879    11755.146    1953.3403 
  400500    304.88172   -1156.4949      6398.22    11755.055    1919.5908 
  400600    300.92238   -1158.6303    6485.0554     11755.17    1980.5061 
  400700    304.66953   -1161.1413    6407.4287    11755.085    1892.8695 
  400800    298.33414   -1156.5561    6538.2121    11755.107    1869.8665 
  400900     302.2566   -1156.6574     6454.555    11755.146    1878.1064 
  401000    303.82127   -1162.3842    6426.7404    11755.031    1868.0437 
  401100    297.27233   -1162.1475    6566.5597    11755.179    1890.5115 
  401200    303.78921   -1159.9205    6424.8686    11754.938    1779.7052 
  401300    303.68613   -1159.8995    6427.2425    11755.131    1854.4432 
  401400    303.19056   -1159.0564    6436.9606    11755.105    1894.6275 
  401500    299.10968    -1158.472     6523.562    11755.109    1901.2593 
  401600    302.69178   -1161.7551    6450.3225    11755.113    1859.0827 
  401700    302.84492   -1157.4596    6442.7893    11755.147    1862.5623 
  401800    301.95966   -1160.1102    6464.3289    11755.124    1870.6972 
  401900    303.35983   -1160.5551    6434.8317    11755.094    1882.0125 
  402000    303.34227   -1157.9564    6432.6576    11755.143    1923.6832 
  402100    299.71016     -1161.11    6513.4327     11755.17    1876.2479 
  402200    301.93225   -1159.8052    6464.6822    11755.196    1854.4103 
  402300    302.44557   -1163.5208    6457.3984    11755.163    1845.8662 
  402400    298.61098   -1156.2923    6532.0829    11755.156      1822.46 
  402500    304.11357   -1158.0099      6416.37     11755.28    1821.3455 
  402600    297.65589   -1157.5006    6553.7829    11755.244    1923.9409 
  402700    304.24677   -1160.6798    6416.1295    11755.215    1867.9599 
  402800    305.02628   -1161.9278    6400.6479    11755.138    1874.4252 
  402900    301.65179   -1159.2717    6470.1651    11755.221     1934.937 
  403000    301.10986   -1160.0038    6482.4435     11755.19    1928.4814 
  403100    300.73819   -1158.0178    6488.4261    11755.218    1949.4337 
  403200    299.11355   -1160.0915    6525.3003    11755.311    1906.2515 
  403300    301.29598   -1168.3363    6486.8499     11755.24    1898.5536 
  403400    304.89787    -1162.234    6403.6606    11755.102    1874.3147 
  403500    300.54545   -1165.3879     6499.882    11755.187    1933.6323 
  403600    301.73169    -1159.941    6469.0989    11755.192    1896.7193 
  403700    300.79397   -1164.8155    6493.9775    11755.164    1810.3421 
  403800    300.59646   -1159.8372    6493.1754     11755.12    1920.0334 
  403900    300.12125   -1157.5064     6500.978    11755.102    1945.2936 
  404000    302.34081   -1161.4894    6457.5756    11755.134    1947.7247 
  404100    302.21327   -1159.2927    6458.0486    11755.079    1930.7511 
  404200    299.65293    -1161.681    6515.2304    11755.174    1919.4979 
  404300     304.5539    -1164.797    6413.5764    11755.106    1880.0465 
  404400    299.96264   -1157.0836    6504.0191    11755.177    1890.8091 
  404500    302.27511   -1166.9644    6464.4958    11755.175    1888.7981 
  404600    302.81203   -1166.2638    6452.3001    11755.151    1928.6051 
  404700    301.20433   -1160.6215     6480.982    11755.129    1884.8384 
  404800    307.61394   -1165.9282    6349.2868    11755.058    1921.4924 
  404900    297.05565   -1158.9754    6568.0361    11755.199    1967.8351 
  405000    305.50302   -1166.3417    6394.9027    11755.164    1901.8763 
  405100    300.73347   -1170.0074    6500.5181     11755.22    1961.0795 
  405200    300.02628   -1159.8363    6505.4025    11755.167    2007.7319 
  405300    303.84325   -1164.3087    6428.3488    11755.185    1899.2359 
  405400    300.22762    -1166.203    6507.4928    11755.192     1983.593 
  405500    302.46597   -1165.3039    6458.8138    11755.231    1975.1035 
  405600    301.57925   -1167.8478    6480.3492    11755.279    1993.4312 
  405700    302.52663   -1167.7648    6459.9734    11755.226    1975.8565 
  405800    301.63275   -1169.0696    6480.4529    11755.304    1979.7291 
  405900     301.1395   -1171.0699    6493.0114    11755.325    1960.7871 
  406000    298.70548   -1165.3915    6539.3115    11755.304    1970.3965 
  406100    306.35104   -1161.2267    6371.8762    11755.369    1963.1435 
  406200    301.28976   -1166.6568    6485.3821    11755.319    1961.2887 
  406300    299.97055   -1162.4654    6509.3394    11755.285    1872.1938 
  406400    302.35964   -1168.6086    6464.3825    11755.224    1961.4918 
  406500    303.81027   -1164.3849    6429.2484    11755.304    1929.5435 
  406600    300.21427   -1159.6631    6501.3259     11755.28    1919.4269 
  406700    301.33394   -1167.0231    6484.6704    11755.184    1954.7465 
  406800    304.48142   -1165.9733    6416.3643    11755.169    1913.3096 
  406900    301.85976   -1163.9677    6470.3656    11755.168    1933.1521 
  407000    300.85519   -1166.3175    6494.1377     11755.13    1884.3702 
  407100    301.36406   -1160.5289    6477.3877     11755.04     1926.033 
  407200    303.75338   -1161.4316    6427.2918    11755.085    1917.2199 
  407300    303.21263   -1152.0188    6429.2899    11754.944    1886.4584 
  407400    302.76927   -1154.9073    6441.6772    11754.971    1917.9104 
  407500    300.40574   -1154.9591    6492.3008    11755.049    1912.4639 
  407600    301.47672   -1156.7905    6471.2649    11755.062    1937.4828 
  407700     302.7019   -1152.9906     6441.242    11755.013    1952.1166 
  407800    300.06698   -1160.5358      6505.07    11755.005    1870.1086 
  407900     301.2223   -1160.9215    6480.8708    11755.101    1929.2983 
  408000    299.50461   -1159.3863    6516.0022    11755.072    1966.6026 
  408100    304.66646   -1158.6009     6404.841    11754.972    1960.4557 
  408200    300.76892    -1155.654    6485.1427    11754.955    1924.2081 
  408300    300.52901    -1153.514    6488.2231     11755.05    1911.4433 
  408400    301.29348   -1158.8426    6477.2368    11755.067     1920.841 
  408500    303.43064   -1158.8814    6431.6911     11755.14    1961.7554 
  408600    303.24692   -1157.9458    6434.6867    11755.146    1970.9701 
  408700    302.20166   -1163.0458    6462.1693    11755.198    1916.1591 
  408800    303.17871   -1161.1147    6439.4102    11755.244    1833.8957 
  408900    299.30326   -1156.8654    6517.9669    11755.256    1936.4347 
  409000    306.92439    -1168.348    6366.6686    11755.289    1925.8423 
  409100     300.9183   -1161.8248    6488.4066     11755.24    1966.2327 
  409200    301.76931   -1161.8769    6470.3587     11755.32    1950.4142 
  409300    306.17538   -1163.6433    6377.9932    11755.317    1873.7378 
  409400    300.02205   -1160.3332     6506.126    11755.304     1941.646 
  409500    301.84695   -1166.4843    6473.3448    11755.357    1966.4845 
  409600    304.34488   -1167.6228    6421.1189    11755.358    1906.0484 
  409700    301.72828   -1163.4738    6472.8269    11755.315    1885.6403 
  409800    303.18706   -1167.7614    6445.8759    11755.241    1945.2307 
  409900    301.79255   -1164.6791    6472.6976    11755.353    1938.2396 
  410000      304.047   -1161.1212    6420.9267    11755.303    1901.2957 
  410100    300.09329   -1166.5271    6510.7531    11755.259    1971.2872 
  410200    300.86232   -1160.8527    6488.6145    11755.224    1886.5794 
  410300    305.25063   -1164.4668    6398.5006    11755.245    1947.7056 
  410400    300.72044   -1163.9572    6494.8087    11755.282    2038.8916 
  410500    302.24536   -1159.0549    6457.2111    11755.164    1893.3351 
  410600    299.67999   -1160.1751    6513.0472    11755.075    1936.4362 
  410700    302.75281   -1164.0096    6451.2296    11755.069     1920.671 
  410800    302.54222   -1163.1964    6454.8666     11755.02    1933.8728 
  410900    302.87581   -1154.7479    6439.3159    11755.045    1868.9561 
  411000    302.61428   -1160.0008    6450.1716    11755.061    1853.1491 
  411100    301.50981   -1160.4494    6474.2159    11755.061    1842.7297 
  411200    303.02249   -1155.1149    6436.5813    11755.077    1875.8914 
  411300    302.83816   -1157.2838    6442.6194    11755.008    1978.1906 
  411400    304.50737   -1155.1118    6404.8588     11755.08    1986.7469 
  411500    301.29698   -1156.6052    6474.9159    11755.058     1934.925 
  411600    300.49085   -1153.8536    6489.4075     11755.08    1900.2617 
  411700    300.54658   -1158.1181    6492.4737    11755.072    1949.9833 
  411800    299.71386   -1158.4467    6510.5691    11755.049    1945.7439 
  411900     304.0544   -1158.5717    6418.0109    11755.095    1902.4046 
  412000    302.74952   -1156.4833    6443.8557    11755.151    1889.1626 
  412100    301.64645    -1152.878    6463.7327    11755.068    1854.0369 
  412200    299.53725   -1160.8046    6516.7194    11755.069    1874.5508 
  412300    304.95036   -1161.1973    6401.5404     11755.14    1839.5106 
  412400    304.03685   -1164.6937    6424.5674    11755.155    1920.8931 
  412500     300.1879   -1163.4834    6505.7372    11755.308    1965.8488 
  412600    302.87314   -1166.9838    6451.8727    11755.309    1905.0072 
  412700    301.79292    -1164.721     6472.677    11755.299    1891.3514 
  412800    300.65734   -1164.6617    6496.8183    11755.239    1903.4241 
  412900    305.75918   -1165.8525    6389.0451    11755.268    1944.3448 
  413000    302.64672   -1166.3579    6456.0251     11755.25    1948.4205 
  413100     302.9943   -1164.6367    6446.8989     11755.27    1894.9582 
  413200    298.60371   -1165.6023    6541.6594    11755.267    1905.5577 
  413300    303.90646   -1165.8668    6428.7266    11755.355    1880.0591 
  413400    299.28365   -1170.0226     6531.606    11755.319     1934.415 
  413500    304.13047   -1165.9954    6424.0359    11755.321    1926.4575 
  413600     300.9787   -1167.3364     6492.753    11755.365    1983.3099 
  413700     306.0998    -1162.773    6378.6337    11755.213    1858.2548 
  413800    299.83282   -1164.2317    6514.1095    11755.346    1960.0388 
  413900    303.07643    -1162.895    6443.4099    11755.278    1977.7864 
  414000    300.64285      -1161.4    6493.8067     11755.18    1961.5628 
  414100    298.83741   -1166.0688    6537.0663      11755.2     2006.139 
  414200    306.18559   -1167.3707    6381.4435    11755.258    1982.2336 
  414300      302.676   -1157.4926    6446.3634    11755.079    1915.8199 
  414400    301.86642   -1156.3914    6462.6377    11755.159    1924.5606 
  414500    301.57953    -1161.235    6473.5556    11755.104    1932.3879 
  414600    300.59383   -1155.3414    6488.7659     11755.15    1916.7469 
  414700     303.5172   -1159.9739    6430.8854    11755.091    1903.7505 
  414800    302.44544   -1158.1871    6451.8363    11754.932    1898.5244 
  414900    300.20069   -1153.3019    6495.0399    11755.065    1925.2352 
  415000    301.29106   -1151.5531     6469.909    11754.977     1944.368 
  415100     301.6448     -1159.86    6470.7043    11755.023    1991.8734 
  415200    302.56116    -1156.569    6447.8106    11754.996    1914.3289 
  415300    302.25512   -1157.9294    6455.7538    11755.041    1937.0213 
  415400    300.84989   -1159.2966    6487.1453    11755.045    1946.6162 
  415500    303.14641   -1162.1225    6440.9771    11755.113    1938.5805 
  415600    301.38584    -1159.763    6476.1457    11755.029    1905.6317 
  415700    303.07881   -1156.6654    6436.9487    11755.097    1890.6544 
  415800    304.41602   -1160.2967    6412.0853     11755.17    1946.8507 
  415900    300.13671   -1157.7368    6500.8917    11755.115    1913.6357 
  416000    302.84638   -1162.4671    6447.8314    11755.213    1969.6276 
  416100    305.24346   -1166.0008    6400.1627     11755.22    1927.9717 
  416200    303.61068   -1163.1273    6432.2346    11755.284    1838.5895 
  416300    301.09497   -1165.9921    6488.8563    11755.296    1863.3018 
  416400    300.16771   -1166.0788    6508.7653    11755.309     1977.042 
  416500    301.90016   -1159.5095    6465.2152    11755.339    1894.6373 
  416600    301.67529    -1164.625    6475.1454     11755.35    1861.3344 
  416700    301.27988   -1171.3097    6490.2394    11755.312    1921.3761 
  416800    300.86442   -1158.8908    6486.6253    11755.241    1942.4412 
  416900    300.15819   -1163.9541    6506.8367    11755.302    1930.3016 
  417000    304.88898   -1165.6628    6407.4779      11755.3    1906.4769 
  417100    302.44355   -1169.7458    6463.8317    11755.328    1945.7309 
  417200    300.14599   -1156.7893    6499.8907     11755.26    1933.8488 
  417300     300.8246   -1161.6132    6490.1837    11755.226     1885.415 
  417400    302.34794   -1159.9257    6456.0128    11755.287    1909.7365 
  417500    299.42491    -1163.453    6521.7869    11755.088    1884.4582 
  417600    301.22626   -1160.9649     6480.824    11755.096    1886.4266 
  417700     300.5777   -1161.3239    6495.0867    11755.144    1920.2044 
  417800    300.59208    -1155.008    6488.4802    11755.161    1983.2769 
  417900    308.53308   -1157.9714     6321.649    11755.013    1890.0829 
  418000    296.08353   -1153.0383    6582.6997    11755.032    1928.1653 
  418100    304.20116   -1153.9534    6410.1294    11754.967    1865.4455 
  418200    299.31779     -1155.23    6515.7029    11754.938    1933.0944 
  418300    303.47642   -1155.6998    6427.3636    11754.972    1918.5603 
  418400    300.83139    -1151.893    6479.9824     11754.89     1909.685 
  418500    299.65931   -1158.6741    6511.8558    11754.943    1956.8532 
  418600    304.31513   -1158.3759    6412.1294    11754.979    1948.5274 
  418700    299.93062   -1157.5114    6504.8932    11754.939    1917.2639 
  418800    299.81599   -1152.4366    6502.2167    11754.889    1970.8913 
  418900    300.85337   -1158.9153    6486.6988    11755.054     1945.465 
  419000    301.23101   -1157.6272    6477.3349    11755.046    1908.2701 
  419100    302.54936   -1159.7958    6451.3441    11755.051    1942.0476 
  419200      299.532   -1163.4603     6519.594    11755.175    1979.4154 
  419300    302.49907   -1155.4503    6448.1287    11755.107    1859.2677 
  419400    301.38232   -1161.3424     6477.904    11755.132     1949.018 
  419500     302.6345   -1163.1422    6453.0165    11755.196    1862.4154 
  419600    301.54529   -1166.2225     6479.342    11755.172    1866.8982 
  419700    297.99036   -1161.4589    6550.6423     11755.29    1899.1031 
  419800    301.69759    -1161.839    6471.7706    11755.238    1919.7687 
  419900     302.3562   -1167.0035    6462.8811    11755.254    1928.6871 
  420000    301.32521   -1159.4459    6477.3579    11755.263    1930.3282 
  420100    300.81008   -1168.0955    6497.0524    11755.303    1965.1622 
  420200    304.43059   -1165.7669    6417.2918    11755.218    1879.2244 
  420300    304.27161   -1166.9169    6421.8464    11755.226    1911.9612 
  420400    299.59525   -1167.8326    6522.6627    11755.223    1988.3136 
  420500    304.51161   -1157.3272    6407.0938     11755.19    1937.7067 
  420600    299.56496   -1156.6724    6512.0635    11755.137    1905.8826 
  420700    305.89167   -1162.5158    6382.7531    11755.143    1947.5107 
  420800    300.99269    -1159.583     6484.491    11755.155    1950.5825 
  420900    300.95444   -1158.7751    6484.3923    11755.047    1922.3455 
  421000    303.80836   -1156.9817    6421.6902    11755.108    1937.9432 
  421100    303.15352   -1154.1985    6432.9154    11755.127    1907.2963 
  421200    300.25998   -1156.7824     6497.339     11755.15    1860.1792 
  421300    302.06402   -1159.8918    6461.9024    11755.145    1905.6897 
  421400    301.45857   -1161.0199    6475.9729    11755.153    1928.9875 
  421500    302.39727   -1162.6139    6457.4078    11755.048    1858.5802 
  421600    301.39418   -1153.9019    6470.1938    11755.116    1889.9817 
  421700    302.01243   -1159.4858      6462.43    11754.976    1900.0854 
  421800    303.45979   -1160.1753    6432.2805    11755.058     1831.757 
  421900    300.44705   -1157.4607    6493.9847    11755.114    1806.4366 
  422000    304.49743   -1157.8546    6407.9072    11755.173    1877.8591 
  422100    304.74847   -1164.0097    6408.5517    11755.026    1887.3191 
  422200    298.56356   -1160.6759    6537.4537     11755.13    1966.6117 
  422300    304.13945   -1162.4786    6420.2212    11755.215    1917.6114 
  422400    300.33811    -1163.759    6502.7037    11755.207    1893.8674 
  422500     304.0461     -1161.96    6421.6564    11755.175    1887.7891 
  422600    300.51157   -1155.3734    6490.5931    11755.188     1891.096 
  422700    298.65756   -1166.1255     6541.056    11755.291    1941.8033 
  422800    305.47972   -1166.3869    6395.5479    11755.267    1887.1994 
  422900    304.14352   -1162.3305    6419.9094    11755.139    1915.4417 
  423000     301.3332   -1159.5909    6477.2623    11755.193     1968.038 
  423100    302.59143   -1166.2904    6457.0303    11755.141    1914.8869 
  423200    301.88788   -1163.5921    6469.4331    11755.212    1907.5748 
  423300    301.21161   -1163.3082    6483.6252    11755.241    1923.2669 
  423400     305.3484   -1165.6254    6397.5224    11755.197    1868.5256 
  423500    298.90639   -1155.6209    6525.1931    11755.249    1934.4531 
  423600    305.49815   -1160.5048    6389.2006    11755.195    1913.5334 
  423700    300.37829   -1161.9469    6500.0237    11755.198    1924.6784 
  423800    303.42069   -1161.0604    6434.0274    11755.084    1881.8167 
  423900    304.78854   -1162.2005    6406.0563    11755.195    1906.1691 
  424000    302.41456   -1158.0093    6452.5322    11755.146    1892.0862 
  424100    303.42316   -1161.5074    6434.4297    11755.093    1911.8412 
  424200    303.68973   -1157.2089    6424.3766    11755.033    1877.9833 
  424300    301.75353    -1159.123    6467.7173    11755.096    1919.5563 
  424400    297.94867   -1157.5354    6547.4276    11755.108    1924.5355 
  424500     302.8131   -1165.3603    6451.3338    11755.111    1923.6898 
  424600    299.53356   -1152.8764    6508.8437    11755.042    1927.2373 
  424700    304.46935   -1161.9494    6412.6143    11755.186    1920.7019 
  424800     302.8336   -1159.6983    6445.2149    11755.092    1917.6366 
  424900     301.6847   -1161.9942    6472.1127    11755.149    1921.3014 
  425000    300.20439   -1157.7842    6499.3962    11755.018    1994.1836 
  425100     307.1766   -1156.3232    6349.0671    11755.101    1960.9277 
  425200    296.80149   -1157.3108    6571.7269    11755.125    1956.7379 
  425300    303.14932   -1155.5524     6434.346    11755.114    1895.5735 
  425400    301.18476   -1157.5941    6478.4182    11755.174    1935.9153 
  425500    302.53853   -1161.6181    6453.5487    11755.202    1932.8672 
  425600     301.6375   -1170.3627    6481.5694    11755.229    1898.1642 
  425700    302.70161    -1162.747    6451.2576    11755.266    1911.2071 
  425800     303.5619   -1161.5086    6431.5561    11755.182     1960.636 
  425900    302.12115     -1161.78    6462.6068    11755.182    1988.9437 
  426000    302.37374   -1160.8325    6456.3195    11755.238    1933.7158 
  426100    301.45322   -1155.8831    6470.8802    11755.083    1922.0491 
  426200    304.26085   -1160.1467    6415.2266    11755.146    1876.9195 
  426300    300.97084   -1157.6019     6483.047    11755.225    1935.1603 
  426400    298.97044   -1158.6597    6526.7592    11755.144    2031.5724 
  426500    304.81492   -1165.7963    6408.9518    11755.059    1961.0575 
  426600    299.34722    -1164.374    6524.4605    11755.181    1954.1695 
  426700    303.48494   -1164.7793    6436.4502    11755.161    1885.7876 
  426800    302.97966   -1161.2269    6443.5563    11755.025    1915.2655 
  426900    304.21071   -1159.0932     6415.138     11755.04    1895.3562 
  427000    301.31974    -1160.298    6478.1218    11755.058    1885.4478 
  427100    299.89658   -1153.2771    6501.4442    11754.997    1864.1131 
  427200    300.29206   -1152.3063    6491.9512    11754.924    1844.8896 
  427300    301.06721   -1156.1531    6479.4007    11755.087    1882.9502 
  427400    303.45215   -1161.6277    6433.8602    11755.022    1924.2568 
  427500    301.07751   -1161.0152      6483.95    11754.994     1860.963 
  427600    300.13083   -1160.3746    6503.5484    11755.008    1900.8247 
  427700    304.20258   -1164.6668    6420.8902    11755.045    1871.2626 
  427800    299.66191   -1161.4238    6514.7025    11755.096     1860.292 
  427900    301.81898   -1159.5273    6466.7086    11755.081    1897.7535 
  428000    303.20687   -1157.3089    6434.8768    11755.117    1961.7873 
  428100    303.36183   -1152.8519    6427.1045    11755.113    1954.9891 
  428200    301.49543   -1158.3324    6472.4515    11755.106    1940.1639 
  428300    299.87845   -1151.3824    6500.1111    11755.172    1972.3384 
  428400     303.8763   -1164.3835    6427.7544    11755.222    1901.8711 
  428500    301.97642   -1166.8167    6470.9012    11755.347    1888.6479 
  428600    301.38745   -1173.3082     6489.931    11755.303    1906.0409 
  428700     301.3062    -1166.047     6484.489    11755.387    1973.6649 
  428800    305.06782   -1164.0323    6402.0203    11755.294     1932.102 
  428900     304.6733   -1159.2325    6405.6343    11755.279     1883.047 
  429000    299.72876   -1166.2778    6518.3096    11755.277    1992.1782 
  429100    301.67485   -1164.5702    6475.0485    11755.299    1946.1094 
  429200    303.19169   -1167.9897    6446.0722    11755.308    1971.2578 
  429300    305.05706   -1170.2883    6408.5136    11755.301    1988.2892 
  429400    296.33731   -1162.5699    6587.1281     11755.35    1923.0182 
  429500    301.53522   -1168.1736     6481.584    11755.248    1872.6551 
  429600    306.11519   -1167.3856    6382.9702    11755.266    1891.9028 
  429700    300.93826   -1166.5809    6492.7306    11755.234    1908.2728 
  429800    298.86017   -1157.6226    6528.1395    11755.206    1938.7239 
  429900    298.92721   -1159.2537    6528.3193    11755.187    1942.5054 
  430000    305.06054    -1160.488    6398.4355    11755.098    1851.2654 
  430100    300.66126   -1163.1347    6495.1652    11755.197    1919.2197 
  430200    303.08104   -1161.9258    6442.1926    11755.128    1879.2079 
  430300     298.8201   -1156.4064    6527.6081    11755.035    1924.1271 
  430400    300.51268   -1152.8694    6487.9381    11755.061    1897.1519 
  430500    302.65913   -1159.9764    6449.1929    11755.064    1923.5685 
  430600    301.96892   -1155.8288    6459.8158     11755.09    1939.0782 
  430700    298.39658   -1155.7646    6535.9655    11754.986     2015.954 
  430800    303.89424   -1155.9854    6418.7398    11754.988    1963.3989 
  430900    301.41868   -1158.3798    6474.0385    11755.006    1963.9716 
  431000     300.6948   -1156.4078    6487.5693    11755.044    1939.4845 
  431100    299.99518   -1148.3867    6494.4611    11755.011    1984.1044 
  431200    305.08964   -1154.7494    6392.0786    11755.101    1952.2879 
  431300    298.64856    -1159.477     6534.381    11755.072     1967.791 
  431400    304.78714   -1152.0529    6395.7986    11755.055    1919.5675 
  431500    300.43811   -1156.9643    6493.6335    11755.068    1967.4834 
  431600    300.26705   -1154.8384    6495.1955    11755.102    1908.5334 
  431700    301.99599   -1161.5438    6465.0288    11755.166    1935.4319 
  431800    303.72712   -1162.8515    6429.3272     11755.14    1945.7124 
  431900    301.03986   -1161.4665    6485.3554    11755.144    1913.1587 
  432000    301.08417     -1158.99    6481.9495    11755.161    1896.2464 
  432100    301.26372   -1160.8204    6479.9944    11755.211    1943.0488 
  432200      303.011   -1163.4263     6445.259    11755.198    1949.6551 
  432300    301.19965   -1168.4573    6489.0555    11755.266      1933.87 
  432400    302.38997   -1162.6762    6457.8252    11755.247    1905.0946 
  432500    302.39768   -1162.8406    6457.8385     11755.26    1951.7169 
  432600    302.89062   -1161.8021    6446.1922    11755.183    1941.5613 
  432700    301.62031   -1161.9217    6473.4881    11755.222    1960.5492 
  432800    302.54928   -1164.9392    6456.7295    11755.291    1927.8071 
  432900    297.06426   -1163.6743    6572.5673    11755.215    1952.5344 
  433000    304.95452   -1166.0897    6406.3783    11755.174    1920.3908 
  433100    301.84067   -1163.5467    6470.3708    11755.187    1967.5323 
  433200    299.03097   -1158.4878     6525.367    11755.217    1956.1631 
  433300    300.36352   -1158.2112    6496.4502    11755.045    1953.9684 
  433400    303.77173   -1156.3475    6421.7553    11755.025    1978.1362 
  433500    301.67848   -1150.4558    6460.7209    11755.163    1937.3095 
  433600    303.42667   -1160.9855    6433.8576    11755.117    1856.7506 
  433700    302.39116   -1162.1619    6457.2462    11755.208    1931.4936 
  433800    302.86567   -1163.1079    6448.0262    11755.179    1938.0614 
  433900    300.68631   -1161.0534     6492.497    11755.145    1869.3825 
  434000    300.16523   -1163.8628    6506.3701    11755.077    1860.8539 
  434100     304.3716   -1162.7738    6415.4846    11755.143    1920.4375 
  434200    300.86541   -1155.4613     6482.944    11755.011    1900.5505 
  434300     305.7894   -1156.8205    6379.0807    11754.982    1835.4216 
  434400    300.46144   -1154.9927    6491.2085    11755.113    1922.9978 
  434500    303.47115   -1155.6945    6427.5744    11755.075    1862.7363 
  434600    302.98021   -1151.3584    6433.7623    11755.111    1890.1781 
  434700    303.58642   -1161.7281    6431.1945    11755.124    1924.3053 
  434800    301.27765   -1162.6639    6481.4544    11755.125    1875.1129 
  434900    299.49298   -1162.0398    6519.0075    11755.176    1861.2694 
  435000    305.05227   -1166.5797     6404.746     11755.14    1893.4668 
  435100    302.56876    -1162.805    6454.1292    11755.241    1891.3697 
  435200    299.19165   -1160.5494    6523.9866    11755.208    1864.4243 
  435300    304.29586   -1157.5446    6411.8016    11755.071    1893.3199 
  435400    301.54753   -1149.0267    6462.0747    11755.148    1975.0042 
  435500    301.27054   -1155.8248    6474.8153    11755.173    1884.6709 
  435600    306.17127   -1153.3497    6367.5717    11755.101    1883.1483 
  435700    302.47806   -1155.8253    6448.9518    11755.106    1956.4296 
  435800    299.32556   -1161.0351    6521.5953    11755.192    1866.4187 
  435900    302.28879    -1161.294     6458.568     11755.21    1854.2886 
  436000    303.91829   -1167.4068    6429.7852    11755.126    1879.5026 
  436100    303.72642   -1163.0685    6429.5253    11755.106    1876.5119 
  436200    298.69799   -1155.3227    6529.1338    11755.035    1845.8682 
  436300    299.07447   -1157.9606    6523.7344    11755.041    1886.1324 
  436400    302.09273   -1152.8302    6454.0757    11754.993    1969.5936 
  436500    302.58529   -1151.1862    6441.8704    11754.955    1916.9696 
  436600    302.29123   -1153.7954     6450.763    11754.956    1906.0266 
  436700     301.6637   -1159.9007    6470.2825    11754.964    2004.1554 
  436800    300.26695   -1159.8861    6500.1392    11754.996     1902.455 
  436900    301.19379   -1164.1059    6484.6131     11755.05    1895.4469 
  437000    307.35775   -1161.1509    6349.9596    11755.035    1899.3675 
  437100    296.97767   -1162.6323    6573.1902     11755.03    1941.6965 
  437200    304.67784   -1159.4081    6405.4719    11755.038    1914.8852 
  437300    303.37395   -1151.8853    6425.8405    11755.074    1928.9129 
  437400    298.87243   -1154.3668    6524.4281    11755.012    1985.8401 
  437500    303.23024   -1155.9831    6432.9472    11755.013    1877.2734 
  437600    304.74188   -1149.1169    6393.8978    11755.124    1883.1978 
  437700    299.90915   -1160.0661    6508.1516    11755.184    1907.3378 
  437800    306.69785   -1166.8588     6369.919    11755.189    1916.5793 
  437900    301.32244   -1160.8554     6478.833    11755.269    1895.5081 
  438000    296.23262   -1166.0464    6592.7905      11755.3    1947.2753 
  438100    303.40625   -1167.4991    6440.9066    11755.217      1886.75 
  438200    303.71446   -1161.8193    6428.6817    11755.256    1889.8245 
  438300    301.80396   -1160.6433    6468.1993    11755.135    1937.6245 
  438400    302.72416   -1160.5363    6448.5504    11755.251    1963.4876 
  438500    302.93223   -1159.8249    6443.2863    11755.144    1949.4756 
  438600    303.21932   -1161.7535    6439.0647    11755.127    1884.0772 
  438700    300.55001   -1161.1794    6495.5673    11755.178    1886.2995 
  438800      301.555   -1167.5992    6480.5743    11755.235     1927.685 
  438900    304.35838   -1168.8926    6422.0109    11755.268    1921.5681 
  439000    301.90131   -1167.7133    6473.2616    11755.206    1919.9516 
  439100    300.25025   -1162.6145    6503.3836    11755.155    1888.6772 
  439200    301.22639   -1160.7092    6480.6768    11755.207    1926.1231 
  439300    303.82394   -1155.7913    6420.1155    11755.057    1962.0496 
  439400     303.5205   -1160.2664    6431.0166        11755    1926.4308 
  439500    301.53759   -1153.0587    6466.1796    11755.009    1873.0953 
  439600    302.86143   -1154.9357    6439.8555     11755.09    1952.7319 
  439700     304.0513    -1162.198    6421.6494    11755.041    1955.9313 
  439800    304.05048   -1159.5246    6418.9572    11755.005    1881.2293 
  439900    299.02481   -1156.6038    6523.3627    11754.965     1948.099 
  440000    302.72749   -1155.6494    6443.3134    11754.972    1911.0474 
  440100    302.01785   -1156.7977    6459.5451    11754.895    1947.8159 
  440200    302.03357   -1154.1562    6456.5912    11754.919    1910.5861 
  440300    301.66158   -1151.1142    6461.4138    11754.836    1894.5649 
  440400     299.6138    -1156.965    6511.0694    11754.893    1930.9164 
  440500     305.4063   -1154.0051    6384.2773    11754.809    1895.5471 
  440600    303.20319   -1149.7435    6427.1503    11754.878    1983.7754 
  440700    301.25089   -1154.4257    6473.5832    11754.921    1922.8046 
  440800    298.74593   -1155.1511    6527.8522     11754.95    1889.9488 
  440900    301.96207   -1156.9462    6460.9166    11754.927    1935.7889 
  441000    303.94402   -1159.1989    6420.8963    11754.995    1919.0965 
  441100    302.60421    -1152.502    6442.8413    11755.014    1919.5224 
  441200    299.12536   -1160.7018    6525.4616    11755.114    1979.8853 
  441300    305.59504   -1157.5305    6384.1312     11755.17    1925.2865 
  441400    300.08045   -1162.8761    6507.2419    11755.124    1878.3917 
  441500    303.04249   -1162.3693    6443.4218     11755.09    1872.5813 
  441600    298.23522   -1166.5257     6550.413    11755.225    1960.4647 
  441700    302.87436   -1158.7345    6443.5293    11755.241    1984.1407 
  441800    304.46015   -1161.3164     6412.164    11755.172    1964.6688 
  441900    301.65419   -1160.6131    6471.5309    11755.297    1922.2489 
  442000    300.99866   -1162.7703    6487.7044    11755.309    1911.4298 
  442100    304.65461   -1164.9481    6411.8402     11755.37    1949.1316 
  442200    301.61247   -1161.8675    6473.6732    11755.293    1939.0126 
  442300    304.69775   -1171.4568    6417.4687    11755.412    1907.1893 
  442400    304.04055   -1172.6581    6432.6961    11755.398    1920.0679 
  442500    303.47607   -1168.7202    6440.7766    11755.357    1902.7989 
  442600    301.38434   -1157.2284    6473.8873    11755.273    1980.4845 
  442700    306.10987   -1157.2538    6372.9483    11755.262    1952.4277 
  442800    299.84234   -1162.0187    6511.6151    11755.268    2006.2945 
  442900    304.38069   -1162.2157    6414.8547    11755.265    1925.3418 
  443000    300.91076   -1169.0165    6495.7373    11755.217    1909.6272 
  443100    297.17266   -1159.6605    6566.2047    11755.182    1897.3108 
  443200    304.38656    -1165.575    6417.9038     11755.08    1905.9024 
  443300    303.26284   -1161.7892    6438.1242     11755.08    1981.9533 
  443400    302.63141   -1157.9294    6447.8667    11755.193    2002.0616 
  443500    297.94971     -1152.23    6542.0852    11755.093    1960.0483 
  443600    302.02251   -1155.0322    6457.8742     11755.09    1924.7869 
  443700    302.32625   -1160.2664    6456.6735    11755.144     2001.533 
  443800    300.70111   -1157.7844    6488.8377    11755.071    1960.8141 
  443900     300.8725   -1158.7771    6486.1008    11755.003    1856.0337 
  444000    301.33692    -1156.858    6474.3044    11755.047    1923.2334 
  444100    303.62495   -1161.4897      6430.06    11755.052    1927.6355 
  444200    302.12078   -1157.0396    6457.6783    11754.986    1931.6241 
  444300    302.31145   -1160.3864    6456.9446    11754.978    1932.5197 
  444400    300.63912   -1157.1617    6489.4872    11755.019    1947.2282 
  444500    301.87895   -1162.4132    6468.3062    11755.074    1953.3596 
  444600    304.92814   -1152.6955    6393.4039     11755.03    1902.7021 
  444700    300.00358   -1160.2306    6506.2749     11755.16    1967.1939 
  444800    299.09835   -1167.2925    6532.6434    11755.128    1977.7679 
  444900    304.90222   -1170.3321    6411.6487    11755.085    1917.8678 
  445000     301.7485   -1159.4866    6468.2621    11755.169    1928.0062 
  445100    302.11173   -1165.2349    6466.2273    11755.146     1919.907 
  445200    303.10376    -1159.824    6439.6477     11755.17    1956.9525 
  445300    305.59383   -1158.9644    6385.6514     11755.23    1965.8004 
  445400    300.44607   -1165.2536    6501.9442     11755.26    1956.7058 
  445500    304.71101   -1167.6524    6413.2566    11755.287    1900.9655 
  445600    301.22798   -1163.5951    6483.5629    11755.241    1942.6642 
  445700    301.11631   -1164.6787    6487.0848    11755.294    1995.2274 
  445800    304.07594   -1164.4223    6423.6637    11755.357    1924.2523 
  445900    301.79942    -1157.248    6464.9817    11755.215    1900.2891 
  446000    303.15222    -1165.718    6444.4146    11755.079    1937.1656 
  446100    297.96282   -1158.1388    6547.7946    11755.174    1981.7295 
  446200    303.77616   -1160.6802    6426.0908    11755.122    1994.5703 
  446300    301.57652   -1165.2698    6477.6346    11755.085    1971.1592 
  446400    301.08919    -1164.206    6487.0059    11755.108    1866.8245 
  446500     301.1703    -1157.422    6478.4896    11755.109    1874.6824 
  446600    301.77877   -1159.6483    6467.7035    11755.095    1967.7592 
  446700    302.10659   -1160.8173    6461.8295    11755.056    1941.2328 
  446800    302.56869   -1157.2072    6448.2653    11754.974    1934.8743 
  446900    300.78819   -1157.1359    6486.1539    11754.896    1912.3094 
  447000    304.34091   -1158.2915    6411.4667    11754.952     1928.224 
  447100    300.42813   -1153.6669    6490.3376    11754.857    1896.4354 
  447200    306.04314   -1156.3596    6373.1279     11754.91    1883.5096 
  447300    301.83724   -1156.4438    6463.0786    11754.924    1902.5273 
  447400     303.5775   -1157.9823    6427.3923    11754.878    1839.5438 
  447500    301.38922   -1156.8929    6473.1083    11754.934    1924.6725 
  447600    300.81115   -1159.5595    6488.1412     11754.95    1924.5106 
  447700    303.25565   -1154.7089    6431.0502    11754.933    1903.4845 
  447800    302.73701    -1157.042     6444.565    11755.035    1915.2711 
  447900    300.15374   -1159.2502    6502.0047    11755.079    1941.4155 
  448000    303.56534   -1158.0728    6427.9012    11755.036     1877.078 
  448100    302.92482   -1161.1902     6444.765    11755.099    1972.4069 
  448200    299.23069   -1160.0521    6522.5948    11755.147    1941.5491 
  448300    299.06764   -1161.3077    6527.3402    11755.154    1968.8998 
  448400     303.4829   -1164.9931    6436.7353    11755.189    1952.6129 
  448500    300.23158   -1164.7935    6506.0067      11755.2    1907.1076 
  448600    303.38055    -1170.283    6444.1629     11755.14    1900.3219 
  448700    304.73164   -1164.0679    6409.1477    11755.204    1964.4805 
  448800    301.24331   -1158.1007    6477.6417    11755.142    1943.4333 
  448900    301.39814   -1163.0598    6479.2628    11755.112    1979.5836 
  449000     304.9916   -1164.8303    6404.3812    11755.228    1942.2882 
  449100    300.71149    -1165.093    6496.1426    11755.289    1933.1841 
  449200      303.921   -1165.7803     6428.292    11755.318    1936.3847 
  449300    302.23686   -1167.2432    6465.7011    11755.285    1939.3312 
  449400     304.1055   -1165.9448    6424.3762    11755.179    1871.2358 
  449500    301.79678   -1165.5232    6473.2149    11755.117    1927.3919 
  449600    302.17414   -1161.8124     6461.482    11755.156    1968.9303 
  449700    303.74509   -1159.0717    6425.2437     11755.22    1963.9117 
  449800    301.45541   -1160.5493    6475.6276     11755.21    1929.3078 
  449900    301.63755   -1165.0966     6476.235    11755.162    1929.4986 
  450000    300.11968   -1165.4495    6509.0288    11755.176    1956.8902 
  450100    302.82651   -1165.2318    6450.9549    11755.147    1889.3376 
  450200    301.11969   -1165.1883    6487.3447    11755.117    1862.0777 
  450300    304.99843   -1161.3152    6400.5671    11755.075     1901.286 
  450400    298.30703   -1160.7872    6542.9041    11754.989    1934.5414 
  450500    299.95838   -1159.1909    6506.0352    11754.995     1985.506 
  450600    302.22516   -1157.6117    6456.0146     11754.98    1962.9571 
  450700    302.03149   -1154.9856    6457.5396    11754.993    1914.0345 
  450800     298.5589   -1156.8523    6533.6388    11755.039    1921.6214 
  450900     301.7692   -1167.1788    6475.3676    11755.025    1940.2643 
  451000    297.50061   -1162.0231    6561.4152    11755.036    1938.6349 
  451100    299.25907   -1162.1765    6523.9643    11754.999    1942.0916 
  451200      303.101   -1163.5762    6443.2602    11754.972    1973.2298 
  451300    301.41383   -1160.1415    6475.9218    11755.024    2004.6779 
  451400    300.67191   -1155.5141    6487.0917    11754.972    1964.4415 
  451500    303.55174   -1158.1782     6428.285    11755.024    2006.9102 
  451600    299.48007    -1153.154    6510.2981    11755.076    1991.7621 
  451700    299.07614   -1155.4697    6521.2973     11755.13    1975.0912 
  451800    305.70927   -1164.9289    6388.9873    11755.068    1932.9658 
  451900    301.77379   -1166.2974    6474.4867    11755.123    1917.5561 
  452000    301.33275   -1162.4392    6480.0404    11755.113    1881.8649 
  452100    304.83421   -1163.3711    6406.2979    11755.242    1894.4325 
  452200    303.44332   -1163.5816     6436.215    11755.234    1890.1665 
  452300    302.58441   -1161.9445    6452.8218    11755.129    1897.1905 
  452400    302.20668   -1162.8257    6461.7506    11755.107    1912.3937 
  452500    300.17603   -1159.2682    6501.6984    11755.231    2026.9623 
  452600    301.18232   -1161.9002    6482.8265    11755.224    1973.9112 
  452700    303.96886   -1163.8355    6425.1982    11755.191    1871.0158 
  452800    301.48083   -1164.4124    6478.8911    11755.154    1922.5942 
  452900    304.53687   -1170.6538    6419.9914    11755.301    1960.4338 
  453000    303.01839   -1171.0553    6452.7893    11755.257    1908.0011 
  453100     300.3337   -1167.9052    6507.0471    11755.311    1920.3076 
  453200    300.64863   -1164.1063    6496.4395     11755.23    1966.7997 
  453300    302.43212   -1161.1992    6455.4727    11755.272    1898.9545 
  453400    301.17521   -1161.6831    6482.7246    11755.188    1879.5763 
  453500    303.94675   -1161.5961    6423.3506    11755.111    1910.7886 
  453600    299.27907   -1157.1563    6518.6987     11755.18    1981.3886 
  453700    305.67549   -1166.3673    6391.3231    11755.244    1852.3747 
  453800     301.2573   -1161.5403    6480.9254    11755.285    1925.3754 
  453900     302.3636   -1167.4626    6463.0691    11755.141    1929.3841 
  454000    302.18136   -1164.3138    6463.9046    11755.232    1876.7694 
  454100    303.69476     -1169.77     6437.005    11755.208    1889.2469 
  454200    301.59093   -1162.0258    6474.2253    11755.227    1913.0064 
  454300    297.48014   -1160.3157     6560.169     11755.06    1856.6999 
  454400    301.48117   -1155.4275    6469.8598    11755.115    1891.9495 
  454500    304.77847    -1163.156    6407.0853    11755.054    2004.8467 
  454600    298.81304   -1165.4865    6536.8091    11755.005    1936.7382 
  454700    299.48535   -1157.0655    6514.0267    11755.006    1875.6412 
  454800    303.17504   -1162.2932    6440.3902    11754.967    1907.4578 
  454900    303.28669   -1165.4785    6441.2074    11754.984     1882.334 
  455000    302.36993   -1162.2864    6457.6145    11754.998     1866.483 
  455100    300.31498   -1159.0601    6498.3638    11755.072    1928.9594 
  455200    300.46911   -1160.0266    6495.9642    11754.999    1882.2548 
  455300     299.3177   -1157.9413    6518.5192    11755.041     1883.955 
  455400    302.74266   -1157.8069    6445.1949     11755.02    1972.1318 
  455500    302.46548   -1161.5115     6454.853    11755.052    1971.9979 
  455600    297.86339   -1157.2636    6548.9453    11755.076    1925.3739 
  455700    301.19477   -1162.2184    6482.7348    11755.081    1873.8727 
  455800    301.65972   -1162.1189    6472.7399    11755.118    1954.4033 
  455900    304.69424   -1160.6032    6406.3796    11755.101    1905.0274 
  456000    300.28971   -1162.4742    6502.3699    11755.124    1946.4434 
  456100    304.00877   -1159.0634    6419.6296    11755.247    1978.2635 
  456200    301.45103   -1161.3958    6476.5173     11755.16    1940.7855 
  456300    303.14193    -1158.544    6437.5142    11755.132     1859.213 
  456400    300.26898   -1161.8319    6502.2569    11755.211    1955.8005 
  456500    299.66311   -1152.8378    6506.1759    11755.181    1870.2541 
  456600    302.88302   -1164.4351    6449.0693    11755.265    1881.1522 
  456700     303.5823    -1164.775    6434.4374    11755.233    1940.0676 
  456800    301.97675   -1159.6564    6463.5782    11755.192    1877.0968 
  456900    298.39514   -1160.8961    6541.3354    11755.194    1928.6217 
  457000    303.07084   -1159.1097    6439.5882    11755.122    1927.5703 
  457100    306.52049   -1161.1026    6367.8864    11755.124    1974.7757 
  457200    297.96063   -1156.5763    6546.3115    11755.207    1980.9702 
  457300    301.57273   -1163.9372    6476.4568    11755.158    1891.2461 
  457400    301.70306   -1165.3967    6475.1758    11755.202    1967.0506 
  457500    303.63269   -1163.2662    6431.7545    11755.135    1928.0349 
  457600    301.41161   -1159.1624    6475.1445    11755.179    1923.5241 
  457700    302.58888    -1166.487    6457.2888    11755.149    1951.6484 
  457800    301.44057   -1164.3398    6479.6047     11755.08    1920.8996 
  457900    302.51752   -1162.7552    6455.0746    11755.142    1890.6265 
  458000    299.44403   -1154.9485    6512.9417    11755.156    1903.7019 
  458100    300.96493   -1151.9634    6477.3659    11755.056    1889.1103 
  458200     307.8827   -1159.6139    6337.1671    11754.995    1875.4566 
  458300    301.46037    -1160.285    6475.1325    11755.086    1964.7535 
  458400    302.80727   -1159.2422    6445.3647    11755.135    1939.9257 
  458500    301.74269   -1163.0493    6471.8802      11755.1    1888.5945 
  458600    301.44526   -1156.5355    6471.6395     11755.02    1905.9313 
  458700    301.72881   -1161.3137    6470.5521    11755.211    1924.3559 
  458800    300.83558   -1159.6176    6487.9089    11755.182    1963.3877 
  458900    302.69564   -1157.6348    6446.0987    11755.092    2005.3599 
  459000    301.07274   -1158.9579    6482.0298    11755.029    1934.3185 
  459100    299.90366   -1147.6227    6495.6806    11755.039    1947.8098 
  459200    303.36371   -1156.8603    6431.0356    11755.075    1902.9916 
  459300    301.99272   -1155.7427    6459.2422    11755.111    1910.0549 
  459400    305.24108   -1161.4023    6395.4953      11755.1    1910.4054 
  459500    298.55282    -1160.005    6537.0174    11755.135    1842.4739 
  459600    304.16618   -1164.3119    6421.4277    11755.159    1867.8512 
  459700    304.50174   -1160.8437    6410.8095    11755.178    1950.7013 
  459800    301.47115   -1154.3988    6469.0505     11755.12    1936.4791 
  459900    299.30325   -1156.7383    6517.6826    11755.099    1949.9203 
  460000    305.81855   -1156.9807    6378.8312    11755.195    1954.5009 
  460100    302.18447   -1159.0273     6458.511    11755.191    1927.2742 
  460200    301.77197   -1166.3912    6474.6564     11755.16    1885.8479 
  460300    300.46669   -1166.6706    6502.8472    11755.186    1939.6589 
  460400    302.18252   -1162.8566    6462.4764    11755.286     1907.002 
  460500    301.07911   -1163.1944    6486.3308     11755.23      1887.24 
  460600    303.88115   -1162.2886    6425.5648    11755.231    1950.7858 
  460700    299.38619    -1163.633    6523.0087    11755.302    1990.4887 
  460800    299.79773   -1162.6722    6513.1685    11755.215     1901.907 
  460900    306.70884   -1163.8234    6366.6725    11755.213    1952.0957 
  461000    303.45911   -1163.0868     6435.409     11755.26    1998.2386 
  461100    300.10045   -1166.1315    6510.1972    11755.251     1875.466 
  461200    303.21419   -1163.6383    6441.1859    11755.254    1910.0249 
  461300    302.56544   -1168.4307    6459.8972    11755.313    2040.4134 
  461400    301.62892   -1167.5582    6479.0107    11755.292    1974.1204 
  461500    302.31207   -1164.3571    6461.1966    11755.273     1918.657 
  461600    301.12501   -1168.7019     6490.898     11755.27    1945.8526 
  461700    299.73724   -1158.1902    6509.9759    11755.212    1915.5977 
  461800    304.42686   -1158.0434    6409.5224    11755.092    1899.9952 
  461900    304.80584   -1160.1361    6403.5493    11755.122    1884.9137 
  462000    298.75859   -1156.7371    6529.4337    11755.215    1922.7088 
  462100    302.51971   -1159.6745      6451.97    11755.165    1938.4644 
  462200    300.71829   -1161.8046    6492.5879    11755.168    1956.9122 
  462300    302.24208    -1159.933    6458.1682    11755.174    1957.1745 
  462400    299.45863   -1161.0776    6518.7072    11755.104    1922.0597 
  462500    303.82856   -1161.7032    6425.8987    11755.027    1884.0848 
  462600    301.29071   -1162.3305    6480.7974    11755.081    1961.4781 
  462700    302.41802   -1162.5091     6456.855    11755.043    1894.5184 
  462800    300.69409   -1154.0049    6485.2466     11755.11     1896.586 
  462900    300.41843   -1155.2635    6492.3191    11755.034    1948.8259 
  463000    302.45597   -1164.9653    6458.5345    11755.077    1936.5904 
  463100    302.30495   -1165.6502    6462.4725    11755.104    1888.0948 
  463200    299.15278   -1162.2498    6526.4339    11755.124    1979.4471 
  463300    301.90573   -1160.7123    6466.1236    11755.164    1943.0773 
  463400    302.04641   -1166.6549    6469.0558    11755.159    1971.7767 
  463500    306.33608   -1165.9424    6376.7335    11755.191    1980.6416 
  463600    300.97786   -1165.7975    6491.0969     11755.23    1922.2279 
  463700    303.65149   -1164.1275    6432.3422    11755.263     1887.607 
  463800    302.96856    -1169.599    6452.4933    11755.353    1925.5886 
  463900    301.02508   -1172.0664    6496.5108    11755.383    1889.8515 
  464000    300.80658   -1168.4803    6497.5927    11755.383    1877.0129 
  464100    304.46626   -1165.5409     6416.365    11755.279    1913.9936 
  464200    302.05084   -1170.8849    6473.4004    11755.368     1882.241 
  464300    302.16591   -1159.2437    6459.2356    11755.303     1866.723 
  464400    301.38583   -1164.9459    6481.6657    11755.366    1939.3595 
  464500    303.42037   -1168.8313    6442.0088    11755.288    1917.4843 
  464600    304.16517   -1168.5798    6425.9255    11755.368    1919.4972 
  464700    298.53128   -1161.4459    6539.0795    11755.296    1944.5048 
  464800    302.39966   -1167.2575    6462.2193    11755.267    1886.7503 
  464900    299.36816     -1159.82    6519.4488     11755.17    1915.9337 
  465000    301.84908   -1166.1796    6472.7801    11755.143    1960.0825 
  465100    302.46688   -1158.1342    6451.6195    11755.226    1876.9101 
  465200    302.57019   -1155.5614    6446.6662    11755.053    1839.9168 
  465300    303.93765   -1156.1117     6417.902    11754.952    1877.6486 
  465400    300.61279   -1151.9105    6484.8347    11755.055     1889.068 
  465500    299.84467    -1149.079    6498.2526    11754.895     1887.057 
  465600    301.12864   -1149.2684    6470.9792    11754.862    1942.2268 
  465700    304.52752   -1158.6032    6407.7727    11754.933    1899.5806 
  465800     300.6076   -1153.4894    6486.5308    11755.062    1816.8683 
  465900    301.17705   -1151.3228    6472.0185    11754.881    1885.4518 
  466000     300.6964    -1148.292    6479.2539    11754.879    1833.6039 
  466100    297.99166   -1149.9817    6538.7848    11754.938    1892.9291 
  466200    303.71855   -1151.4835    6417.9213    11754.919    1916.2413 
  466300    298.13362   -1153.3264    6539.0391     11754.88    1916.5697 
  466400    300.01086   -1152.3623    6498.0256    11754.935    1841.8293 
  466500    301.41994    -1151.456    6467.0995    11755.018    1879.9921 
  466600    303.30608   -1156.2355    6431.5552    11754.989    1921.9478 
  466700    302.62759   -1158.0095    6447.7931    11754.958    1871.3285 
  466800    298.82016   -1160.6779    6531.9229    11755.079    1914.1855 
  466900    303.33936   -1161.8614    6436.6467    11755.165    1884.6792 
  467000    307.58839   -1168.1371    6352.2855    11755.302     1892.307 
  467100    298.01952    -1165.959    6554.5442    11755.315    1922.2939 
  467200    304.37516   -1164.9692    6417.7772    11755.316    1892.3677 
  467300    298.75395   -1166.2601    6539.2469    11755.407    1961.7174 
  467400    303.79178   -1167.7529     6433.119    11755.411    1914.1619 
  467500    303.26999    -1167.888    6444.3291    11755.339     1932.144 
  467600    299.85366   -1161.6525    6511.2726    11755.533     1942.082 
  467700    304.25315   -1166.9963    6422.6304    11755.536    1928.4393 
  467800    302.51377   -1174.4443     6467.166    11755.464    1895.4539 
  467900    302.09423   -1169.4666    6471.1387    11755.452    1928.1947 
  468000    304.58059   -1168.2273    6416.7478    11755.418    1919.7899 
  468100    300.51751   -1167.5178    6502.8327     11755.41    1857.3607 
  468200    303.17993   -1162.2703    6440.7001    11755.404    1885.9974 
  468300    303.12989   -1162.3234    6441.7354    11755.317    1919.7815 
  468400    302.57725   -1163.2889    6454.4745    11755.284    1884.1525 
  468500    297.75939   -1155.2723     6549.383    11755.283    1855.5209 
  468600    302.73091   -1156.2452     6443.999    11755.135    1878.7635 
  468700    302.00829   -1154.7435    6457.7543    11754.955    1909.5789 
  468800    300.98769   -1155.8636    6480.7499    11755.027    1964.7365 
  468900    303.07665   -1154.9038     6435.068    11754.932    1898.5586 
  469000     300.6307   -1148.6171    6480.9556    11754.852    1841.9235 
  469100     303.8552   -1151.2734     6414.684    11754.811    1806.1037 
  469200    301.63772   -1151.5364    6462.2691     11754.76     1855.329 
  469300    303.05902   -1152.1427    6432.5567    11754.805    1895.6544 
  469400    303.28931   -1149.0227    6424.5518     11754.84    1930.1044 
  469500     301.1424   -1151.0292      6472.34    11754.756    1896.8558 
  469600     299.7782   -1150.2873    6500.8004    11754.814    1909.7083 
  469700    301.98876   -1150.9851    6454.1794    11754.721    1925.4037 
  469800    302.74185   -1146.8913    6434.0108    11754.735    1885.6945 
  469900    300.39914   -1148.4251    6485.7052    11754.847    1886.1187 
  470000    301.55548   -1149.9682    6462.5063    11754.808     1861.216 
  470100    300.19745   -1154.8074    6496.5693     11755.02    1943.0681 
  470200    301.90689   -1157.9512    6463.2032    11755.029    1927.7306 
  470300    301.67474   -1164.1468    6474.3349    11755.006    1945.6903 
  470400     300.2251   -1165.6119    6506.8997    11755.136     1870.351 
  470500    304.27921   -1166.0864    6420.8686    11755.241    1882.7421 
  470600     299.7947   -1165.1882    6515.7068    11755.172    1960.6018 
  470700    299.58875   -1160.7889    6515.7713    11755.236    1932.6252 
  470800    303.63105   -1162.3905    6431.1588     11755.38    1946.5546 
  470900    299.23606   -1158.5161    6521.0951    11755.298    1935.5052 
  471000    304.75737   -1168.0642      6412.68    11755.289    1911.7949 
  471100    301.13156   -1168.1538    6490.1836    11755.244    1950.5588 
  471200    305.20926   -1173.1042    6408.0429    11755.266    1921.8161 
  471300    298.49561   -1171.7893     6550.144    11755.255    1940.8531 
  471400    305.46288   -1173.8504     6403.412    11755.307    1874.9952 
  471500    300.33094    -1165.837    6505.0357    11755.308    1950.7267 
  471600    304.48101   -1161.9239     6412.316    11755.162    1962.0503 
  471700    300.58356    -1165.713    6499.3394    11755.133    1985.5431 
  471800    301.85833    -1161.418    6467.8077     11755.13     1908.895 
  471900    305.52496   -1159.1804    6387.0837    11754.975    1894.1969 
  472000    300.08823   -1162.9184      6507.02    11755.026    1883.6411 
  472100    299.82663    -1159.026    6508.7879    11755.098    1875.5009 
  472200    302.85202   -1160.8651     6445.935    11755.039    1862.0836 
  472300    301.28113    -1160.278    6478.8447    11754.976    1853.0873 
  472400    303.19953   -1156.3792    6433.9724    11754.986    1812.7831 
  472500    300.52465   -1158.2263    6492.9595    11754.981    1866.5717 
  472600    301.91116   -1156.4374    6461.5231    11754.954    1846.2116 
  472700    301.34904   -1157.4011    6474.4977    11754.956    1888.1933 
  472800    301.94574    -1154.822    6459.1648     11754.95    1942.4826 
  472900    298.64441    -1154.163     6529.108    11755.025    1952.3377 
  473000    302.78311    -1159.084    6445.5898    11755.002    1879.4501 
  473100    300.39485   -1155.7745    6493.2923    11754.993    1927.1171 
  473200    304.75137   -1160.8491    6405.2246    11754.921    1896.7289 
  473300      299.777   -1160.6411    6511.4687    11755.103    1898.4499 
  473400    301.76134   -1163.5564    6471.9646    11755.076    1881.8304 
  473500    299.10382   -1159.3094     6524.529    11755.114    1929.7745 
  473600    306.33765   -1161.4371     6372.188    11755.185    1920.3776 
  473700     305.0461   -1164.1621    6402.4416    11755.121    1909.9881 
  473800    302.28077   -1161.4471    6458.8753    11755.193    1926.8212 
  473900    303.59202   -1163.0798    6432.5391    11755.237    1911.6036 
  474000    304.17316    -1165.213    6422.3136    11755.294    1914.8273 
  474100     304.6072   -1167.4225    6415.2299    11755.273    1879.6489 
  474200     301.8995   -1171.5079     6477.177    11755.289     1890.231 
  474300    301.93516   -1167.9806    6472.9819    11755.383     1889.566 
  474400    301.86344   -1166.6388    6473.1646    11755.375    1933.6168 
  474500    302.83763   -1171.2365    6456.9536    11755.378    1916.3863 
  474600    301.59351   -1165.9833    6478.1496    11755.249    1914.6185 
  474700    301.71779   -1162.8884    6472.4161    11755.265    1996.6033 
  474800    304.03701   -1168.1367    6428.0445    11755.192    1990.7492 
  474900    300.87798    -1164.445    6491.8515    11755.203    1987.5758 
  475000    302.05792   -1167.3905    6469.6109    11755.224    1924.4912 
  475100    302.04976   -1167.8113    6470.1679    11755.186    1945.0062 
  475200    301.69221    -1164.935     6474.844      11755.1    1948.2429 
  475300    301.76574   -1159.9434     6468.184    11755.003    1874.5899 
  475400    298.92243    -1161.567    6530.6769    11755.129    1922.1159 
  475500    306.96616   -1159.0356    6356.1534    11754.979    1922.4183 
  475600    296.73527   -1154.5105     6570.313    11755.096    1975.9606 
  475700    302.53764   -1157.1791    6449.0087    11755.082      1961.68 
  475800    301.20067   -1164.0703    6484.4733    11755.093    1995.9588 
  475900    299.75792   -1159.8528    6511.0349     11755.05    1949.1347 
  476000    304.50545   -1161.8579    6411.7111    11755.145    1887.0636 
  476100    302.44152   -1161.6932    6455.5186    11755.024    1877.0366 
  476200    302.01719   -1167.1299    6470.0699    11755.074     1902.972 
  476300    300.78782   -1157.4262    6486.6702    11755.114    1942.4838 
  476400    300.97996   -1157.1125    6482.1103    11754.973    1901.1715 
  476500    302.09885   -1160.5025    6461.6881    11755.064    1840.5558 
  476600    301.74973   -1155.7895    6464.4655    11755.096    1853.3931 
  476700    299.90986   -1158.2615    6506.3477      11755.2    1911.1526 
  476800    305.81321   -1168.1409    6390.0476    11755.137    1922.5079 
  476900    300.11004   -1166.3601    6510.1449    11755.175    1972.4413 
  477000    303.52408   -1169.4238    6440.3086    11755.211    1928.3447 
  477100    298.35632    -1168.833    6550.0943    11755.186    2009.7644 
  477200    303.51259   -1163.9628     6435.072     11755.19    1925.2958 
  477300    303.02672   -1168.1189    6449.5835    11755.166    1860.6189 
  477400    305.52094   -1165.3908    6393.5862    11755.181    1917.8574 
  477500    299.67334   -1161.9766    6515.1464    11755.231    1933.7805 
  477600    307.09424   -1167.1224    6361.7651     11755.24     1905.141 
  477700    296.47621   -1168.2467    6589.7036    11755.216    2002.0654 
  477800    301.74013   -1168.8424    6477.8558    11755.228    1914.4509 
  477900    302.28712   -1167.6574    6464.9982    11755.241    1892.6761 
  478000    303.50267   -1170.8477    6442.2238    11755.245    1931.5805 
  478100    302.21373   -1168.4783    6467.3264    11755.181    1911.2206 
  478200    300.56692   -1162.7658    6496.8204    11755.206    1861.4741 
  478300     303.2428   -1163.7958    6440.7302    11755.252    1939.6454 
  478400    303.13005   -1158.5986    6437.8045    11755.114    1968.9294 
  478500    303.25343   -1156.0505     6432.608    11755.102    1893.2589 
  478600    302.90156   -1161.9714    6446.0249    11755.081    1953.1866 
  478700    302.06027   -1160.9093    6462.9671    11755.112    1992.7617 
  478800    303.20965   -1154.9844    6432.4481    11755.073    1891.0215 
  478900    300.23135    -1156.611    6497.6702    11755.041    1846.7416 
  479000    303.83576   -1163.6084    6427.6491    11755.026    1876.5494 
  479100    301.64543   -1158.2556    6469.1168    11755.053    1891.3337 
  479200    306.72684   -1153.4308    6355.7581    11755.076    1893.4761 
  479300    300.21513   -1152.6977    6494.0801    11755.018    1943.3339 
  479400    303.70478   -1159.5959    6426.4753    11755.066    1936.0323 
  479500     302.9328   -1155.6402    6438.9247    11754.979    1890.2972 
  479600    301.87036    -1153.963    6460.0427    11755.077    1952.8447 
  479700    298.15489    -1156.385    6541.8687    11755.106     1971.417 
  479800    302.57072   -1161.8507    6453.0366    11755.145    1950.5394 
  479900    301.66153   -1161.7592    6472.3266    11755.103     1969.948 
  480000    301.04998    -1159.379     6483.036    11755.128    1941.9066 
  480100    301.41736   -1162.5234    6478.3626    11755.159    1863.9887 
  480200    301.65674   -1162.4132    6473.1889    11755.209    1921.7969 
  480300    299.57697   -1160.7653    6515.9432     11755.18    1953.8529 
  480400    305.83011   -1163.0184    6384.5866    11755.159    1925.1386 
  480500    300.96043   -1158.6037    6484.2487    11755.203    1944.3245 
  480600    303.16578   -1164.7162    6443.2756    11755.231    1999.1114 
  480700    301.82551    -1160.424    6467.6458    11755.261    1956.2694 
  480800    299.18962   -1163.9843    6527.5439    11755.287    1937.3664 
  480900     304.3258   -1169.0937    6422.9279    11755.288    1940.7728 
  481000    300.54833   -1164.3251    6498.9482    11755.377    2016.8499 
  481100    304.62043   -1164.5699    6412.1447    11755.323    1882.7392 
  481200    304.70226   -1165.3146    6411.0936    11755.275    1947.0408 
  481300    299.36566   -1163.3484    6523.1712    11755.311    2023.6151 
  481400    301.68517   -1162.0236    6472.2417    11755.259    1985.0973 
  481500    300.86829   -1162.8819    6490.4856    11755.193    1962.6113 
  481600    302.95683   -1167.7774    6450.7207    11755.151    1981.4128 
  481700    304.30718   -1161.1171    6415.2906    11755.229    1944.1282 
  481800    300.03762   -1169.4336    6514.8526    11755.262    1957.3851 
  481900    304.67807   -1165.6161    6411.7745    11755.138    1937.1451 
  482000     302.9032   -1166.8157    6451.0285    11755.275    1936.1066 
  482100    297.97961   -1162.3867    6551.7147    11755.205    1879.3362 
  482200    303.77003   -1166.0441     6431.591    11755.128    1896.4694 
  482300    300.08602   -1160.7127     6504.935      11755.1    1984.5294 
  482400    302.47101   -1157.5405    6450.8418     11755.13    1929.3855 
  482500    300.47654   -1160.7415     6496.625    11755.104    1913.3546 
  482600    301.96713   -1159.7347    6463.7495    11755.079    1947.9813 
  482700    300.15091   -1154.8019    6497.5816    11755.043    1836.1892 
  482800    301.72405   -1162.1283    6471.3556    11755.099    1852.7133 
  482900    299.72555   -1164.9656    6516.8838    11755.095    1855.5397 
  483000    302.12437   -1159.0548    6459.6761    11755.045    1836.5861 
  483100    301.23552   -1157.9119    6477.4956    11755.018    1891.0938 
  483200    305.15829   -1157.6844    6393.4254     11754.98    1899.1235 
  483300     298.8981   -1155.2469    6524.7909    11755.043    1952.4816 
  483400    304.75759   -1159.4401    6403.7731    11755.011    1890.8032 
  483500    299.89339   -1153.5092    6501.7708    11755.024    1944.4605 
  483600    303.76302   -1159.9742    6425.5744    11755.031    1935.5986 
  483700    300.69673   -1160.8756    6491.9675    11755.016    1841.5897 
  483800    303.76833   -1164.4349    6429.9053    11755.015    1898.0455 
  483900    301.78102   -1160.7711    6468.7267    11755.044    1892.7665 
  484000    299.07424   -1163.1194    6528.8433    11754.986    1899.9945 
  484100    302.54134   -1157.9351    6449.6197    11755.016    1900.1277 
  484200    304.58288   -1163.4734    6411.5008    11754.973    1924.1694 
  484300    299.08364   -1164.2602    6529.7881    11754.991    1973.6085 
  484400    306.03106   -1163.9624    6381.1043    11755.026    1929.5539 
  484500    298.44956   -1164.3923    6543.5509    11755.075    1938.7485 
  484600    303.01325   -1169.3122    6450.9987      11755.1    1900.6999 
  484700    303.54216   -1163.9509    6434.4041    11755.166     1925.006 
  484800    303.03502   -1165.5827    6446.9559    11755.251    1940.5991 
  484900    298.36785    -1170.033    6551.0836    11755.222    1950.7024 
  485000     303.0126   -1169.3265    6451.1221    11755.195    1910.6787 
  485100    301.16661   -1160.7529    6482.0684    11755.278    1896.4067 
  485200    301.15101   -1159.1989    6480.7579    11755.188    1888.7811 
  485300    300.97276   -1164.4653    6489.8786    11755.235    1971.9863 
  485400    304.41892   -1162.2354    6414.0546    11755.262     1899.632 
  485500    305.61395   -1168.2458    6394.5131     11755.24    1868.2354 
  485600     301.2745   -1166.2826    6485.3143    11755.299    1898.0277 
  485700    303.01991   -1166.4895    6448.2074    11755.273    1882.9864 
  485800    305.23519   -1166.8576    6401.2484    11755.272    1893.3609 
  485900    300.95243   -1166.0942    6491.9728    11755.265    1948.0446 
  486000    302.32036   -1163.6696    6460.2963    11755.237    1955.0429 
  486100     301.9157   -1164.5851    6469.8264    11755.207    1898.9565 
  486200    299.51751    -1164.328    6520.8078    11755.212    1909.7777 
  486300     299.7937   -1161.0437    6511.5806    11755.169    1864.3489 
  486400    302.53644    -1162.331    6454.2723    11755.168    1912.1847 
  486500    303.29348   -1163.6985    6439.5659    11755.267    1991.3693 
  486600    302.37752   -1157.3089    6452.5878    11755.111    1963.1585 
  486700    302.31906   -1158.1607    6454.7267    11755.149    1969.0935 
  486800    301.64416   -1166.2467     6477.286    11755.204      2000.79 
  486900    300.54053   -1161.1491    6495.6832    11755.121    1951.8038 
  487000      300.464    -1157.304    6493.5092    11755.157    1917.7444 
  487100    302.28638   -1163.5236    6460.8189     11755.18    1855.5172 
  487200    301.07724   -1164.3871    6487.5157    11755.182    1974.5453 
  487300     303.5067   -1160.4169    6431.6201    11755.158    1942.8122 
  487400    300.21655   -1158.2346     6499.662    11755.093    1865.7581 
  487500    302.20803   -1158.7449    6457.6006    11755.066    1950.9739 
  487600    304.23047   -1154.9486    6410.7125    11755.181    2005.3043 
  487700    301.36012   -1161.6686    6478.7182    11755.146     1988.921 
  487800    301.77588   -1162.4186    6470.6201     11755.18    1897.2349 
  487900    301.93031   -1162.1212     6467.012    11755.168    1926.0352 
  488000    302.04174   -1162.5228    6465.0198    11755.155    1909.5954 
  488100    303.06723     -1165.13    6445.6507    11755.087    1931.1733 
  488200    301.50986   -1160.9719    6474.8364     11755.16    1912.7717 
  488300    305.33188   -1157.3287    6389.6171    11755.235    1908.5357 
  488400    301.39088   -1161.4125    6477.8496    11755.191    1915.9803 
  488500    301.99455   -1168.7974    6472.3456    11755.198     1920.031 
  488600     304.7361   -1161.0096    6406.0327    11755.242    1959.6755 
  488700    302.78988    -1162.158    6448.7514    11755.234    1936.5162 
  488800    302.87744   -1159.3976    6444.0537    11755.168    1906.6598 
  488900    302.52757   -1163.4836    6455.6888    11755.242    1927.6338 
  489000    301.63714   -1162.9658     6474.189    11755.238    1940.9224 
  489100    302.38195   -1164.6171    6459.8551    11755.164    1937.9199 
  489200    298.83091   -1162.6967    6533.7926     11755.16     1959.206 
  489300    304.67132   -1164.2964    6410.6457    11755.185    1961.4022 
  489400    303.65243   -1164.0929    6432.2455    11755.221    1953.8777 
  489500    300.58212   -1163.7673    6497.4682    11755.177     1943.313 
  489600    303.41403   -1169.7287     6443.004     11755.25    1917.6744 
  489700    298.64744   -1160.8658     6535.914    11755.192    1977.8024 
  489800    299.22064    -1163.466    6526.3112    11755.235    1943.7201 
  489900    304.17115   -1166.2552    6423.3485    11755.243    1925.0223 
  490000    299.03926   -1163.7912    6530.4242    11755.148    1978.9162 
  490100    303.65051   -1156.0083    6424.0626    11755.082    1917.0262 
  490200    303.77629   -1159.4212    6424.7881    11755.081    1937.4571 
  490300    303.82905   -1166.2738     6430.591    11755.159    1875.3414 
  490400    301.31389   -1164.0631    6482.1365    11755.182    1916.2281 
  490500    299.94234   -1164.3756    6511.6925    11755.125    2033.0457 
  490600    301.97912   -1162.4294    6466.2522    11755.143    2025.9843 
  490700    301.28634   -1169.4606    6488.0499     11755.11    1959.6458 
  490800    302.68194   -1167.5725    6456.2656    11755.028    1922.6792 
  490900    298.41765   -1160.7983    6540.6296    11755.067    1935.2808 
  491000    303.59767   -1159.3878    6428.5239    11755.035    1978.5088 
  491100    302.02022     -1154.44    6457.2308    11754.989    1965.6077 
  491200    302.59693   -1164.0109     6454.502     11755.01    1958.0052 
  491300    305.30044   -1157.3817    6390.1606    11755.054     1931.747 
  491400     302.7777   -1162.5214    6449.2756    11755.135    1939.9979 
  491500     300.9825   -1164.5723    6489.6829     11755.14    1977.0536 
  491600    303.52068    -1166.228     6437.059    11755.085    1880.6553 
  491700    301.71273   -1162.5669    6472.1072     11755.17    1950.0783 
  491800    302.25525   -1162.3864     6460.366    11755.199    1907.0977 
  491900    303.24673   -1161.0003    6437.7323    11755.133    1923.0236 
  492000    300.44632   -1161.3318    6497.8658    11755.109    1936.0649 
  492100    300.45561   -1161.4804    6497.9615    11755.254      1914.78 
  492200     306.8535   -1165.4633    6365.2148    11755.206    1947.7319 
  492300    300.78532   -1161.0595    6490.3779    11755.135      1953.87 
  492400    294.04739   -1156.6957     6630.028    11755.204    1963.4939 
  492500    305.79712   -1165.4427    6387.7833    11755.227    1940.9798 
  492600    303.04503   -1162.4255    6443.5369    11755.203    1999.1955 
  492700    302.90031   -1162.4204    6446.6813    11755.261    1994.3348 
  492800    298.85087   -1168.4255    6539.1303    11755.195    1925.9595 
  492900    301.83403   -1168.0548    6474.9994    11755.166    1821.7401 
  493000    300.23773   -1159.6365    6500.7138    11755.196     1872.338 
  493100    301.67138   -1167.3811    6477.8248     11755.19     1904.238 
  493200    302.28992   -1163.0999    6460.3461    11755.206      1938.85 
  493300     301.0706   -1161.7981    6485.0932    11755.206    1948.4605 
  493400    302.05669   -1159.1997    6461.4116     11755.19    1938.0305 
  493500    302.48243   -1163.1079    6456.2009    11755.166    1947.0691 
  493600    302.04846   -1161.3421    6463.7748    11755.235     1926.293 
  493700    301.44501   -1159.9123    6475.2411    11755.239    1954.6926 
  493800    299.24736   -1166.1747    6528.4359    11755.222    1962.1307 
  493900    304.06947    -1159.321    6418.6156    11755.272    1942.0656 
  494000    300.15982   -1158.8247    6501.5566    11755.186    1886.8091 
  494100    300.13099   -1154.1179    6497.3707    11755.091    1942.8544 
  494200    304.13002   -1164.4295    6422.2679     11755.11    1889.5748 
  494300     298.8358   -1160.5712    6531.4714    11755.069    1886.3512 
  494400    303.87721   -1166.4496    6429.6227    11755.043    1925.3351 
  494500     299.7796   -1159.4872    6510.2587    11755.103    1941.5103 
  494600    302.27922   -1157.3902    6454.7915    11755.133    1864.5633 
  494700    303.06185   -1162.9557    6443.6272    11755.123    1905.9594 
  494800    301.42808    -1161.447    6476.9769    11755.078    1977.7637 
  494900    297.72618   -1157.3652    6552.1101    11755.208    1979.0015 
  495000    300.51221    -1160.984    6496.1769    11755.175     1966.688 
  495100    303.09553   -1163.9085    6443.8933    11755.156    1943.7559 
  495200    304.66544   -1158.3474    6404.8442    11755.207    1948.2232 
  495300    303.21175   -1154.8824    6432.3747    11755.146    1920.1061 
  495400    300.54336   -1162.4106    6496.9007    11755.138    1966.5319 
  495500    300.01255   -1160.5433    6506.4119    11755.176    2011.4364 
  495600    303.99888   -1162.2503    6422.9405     11755.16    1934.5991 
  495700    303.63904   -1162.5729    6430.9364    11755.146    1905.6975 
  495800    299.58505   -1158.3442    6513.2928    11755.124    1981.9669 
  495900     302.9411    -1164.961    6448.3074    11755.218    1987.6988 
  496000    300.87888   -1163.4418    6490.8972    11755.271    1978.6864 
  496100    299.62574   -1167.0916     6521.316    11755.269    1963.0843 
  496200    303.91848   -1167.0546    6429.4659    11755.163     1939.699 
  496300    301.05787   -1164.5427    6488.1665    11755.263    1920.6444 
  496400    302.02209   -1168.6859    6471.7556    11755.308    1910.5034 
  496500    301.62702   -1167.6965    6479.1534    11755.255    1905.6026 
  496600    299.90849   -1166.7312    6514.9334    11755.287    1863.7159 
  496700    303.92427   -1167.4143    6429.7715    11755.233    1880.6759 
  496800    300.05421   -1159.6428    6504.7257    11755.281      1961.93 
  496900    300.42697   -1162.0059    6499.0934    11755.249    1949.5788 
  497000    304.72486   -1166.4021    6411.7151    11755.292    1934.5208 
  497100    306.02408   -1167.1076    6384.6079    11755.235    1944.6617 
  497200    299.28373   -1172.0548    6533.6527    11755.336    1949.6054 
  497300    303.41032   -1166.5545    6439.9767    11755.318    1838.0441 
  497400    296.70081   -1168.3303    6584.9944    11755.222    1903.8704 
  497500    304.21839   -1170.4024    6426.4735     11755.23    1929.5114 
  497600    300.52119   -1154.6611    6489.6708    11755.184    1884.9059 
  497700    300.80666    -1154.044    6482.9464    11755.175    1949.0126 
  497800    304.35472   -1162.0776    6415.1994    11755.194    1990.3925 
  497900    299.25789   -1158.0373    6520.1153    11755.264    2028.2299 
  498000    302.69679   -1165.7565    6454.3031    11755.199     1964.114 
  498100    302.54801   -1161.4147    6453.1228    11755.182    1996.3876 
  498200    299.21153   -1155.6641    6518.6683    11755.199    1930.8697 
  498300    302.71441   -1162.5319    6450.6804    11755.177    1928.1179 
  498400    299.73924    -1161.832    6513.5751    11755.212    1933.6187 
  498500    303.83876   -1159.3578    6423.4209    11755.112    1944.5273 
  498600    306.61047   -1158.7751    6363.4378    11754.925     1935.028 
  498700    297.12196   -1161.0786     6568.544     11755.02     1955.868 
  498800    304.53781   -1158.9773    6408.0158    11755.021    1906.2882 
  498900    299.45811   -1163.1975     6520.811    11755.076     1865.918 
  499000     303.2792   -1159.6565    6435.6527    11755.091    1876.7167 
  499100    299.62447   -1162.1912    6516.3774    11755.203    1833.2933 
  499200    304.72954   -1164.3808    6409.4886    11755.187    1801.1443 
  499300    301.09904    -1159.888     6482.489     11755.12     1883.891 
  499400    302.81651   -1158.9349    6444.8926    11755.168    1929.4679 
  499500    304.24061   -1167.9613    6423.5669     11755.24    1955.9919 
  499600    301.16733   -1167.6312    6488.8142    11755.161    1960.0091 
  499700    296.76115   -1160.3385    6575.7346    11755.243      1968.35 
  499800    302.78069   -1165.3182    6452.0866    11755.213    1929.0212 
  499900    304.52577   -1163.5432    6413.0745    11755.257    1984.2192 
  500000    303.86565   -1167.2476    6430.8397    11755.215    1928.9163 
  500100    299.96366    -1162.033    6509.0022    11755.233    1923.1577 
  500200    300.60541     -1162.04    6495.3002    11755.234    1904.9355 
  500300    300.40678   -1171.6053    6509.1115    11755.236    1862.5655 
  500400    300.03093   -1165.1819    6510.7937    11755.312    1907.6788 
  500500    304.88534   -1167.6583    6409.4623    11755.211    1934.6627 
  500600    300.91859     -1171.71     6498.351    11755.305       1911.5 
  500700    301.78217   -1166.4335    6474.6189    11755.298     1903.675 
  500800    301.33936   -1165.3598    6482.9776    11755.271    1912.3718 
  500900    299.75583   -1168.9061    6520.3896    11755.307    1911.3618 
  501000    306.98485   -1167.2264    6364.1558     11755.19    1855.1303 
  501100    299.07609   -1165.3113    6531.2059    11755.197    1971.8486 
  501200    303.33224   -1164.0822      6439.02    11755.166    1913.8934 
  501300    303.20066   -1168.2925    6446.0104    11755.135    1896.8958 
  501400    300.74992   -1164.7621    6494.9081    11755.207    1949.9128 
  501500    301.35039    -1164.932    6482.3367    11755.293    1986.8376 
  501600    300.37928   -1165.3001    6503.3335    11755.176      1913.65 
  501700    302.92116   -1166.1939    6449.9151    11755.167     1931.844 
  501800    304.15881   -1158.9964    6416.3244    11755.214    1966.1721 
  501900    300.43347   -1157.0541     6493.935    11755.181    1940.6204 
  502000    299.09388   -1162.7115    6528.2409    11755.211    1965.7111 
  502100    308.09095   -1163.3432    6336.5928     11755.14    1932.4329 
  502200    302.45822   -1155.5127     6449.148    11755.191    1960.4069 
  502300    299.50495   -1165.1811    6521.9487    11755.231    1944.9498 
  502400    303.68371   -1169.1843    6436.6583     11755.21    1966.4954 
  502500    303.87969   -1164.5564    6427.8619    11755.229    2016.6726 
  502600    299.50412   -1163.3071    6520.0675    11755.206    1998.6847 
  502700    302.80442   -1161.3584    6447.6319    11755.225    1962.9965 
  502800    302.10669   -1162.3371    6463.5394    11755.248    1953.9376 
  502900    304.70085   -1160.6333    6406.3452    11755.178    1898.8155 
  503000    299.47082   -1164.5217    6521.9528    11755.166    1970.8305 
  503100    303.17038   -1163.2221      6441.68    11755.228    1977.7326 
  503200    300.48724   -1166.0133    6501.7801    11755.216     1956.751 
  503300    300.92466   -1165.5499     6491.987    11755.231    1905.0235 
  503400    300.18056   -1166.3593    6508.7574    11755.295    1986.7971 
  503500    300.14867   -1170.1075    6513.0901    11755.198    2005.5676 
  503600    302.11841   -1162.7608    6463.7465    11755.282    1946.3965 
  503700    300.83233   -1167.1055    6495.4655    11755.181    1898.4016 
  503800    300.61054   -1167.4603    6500.6904    11755.313    1916.6728 
  503900    298.98006   -1161.4588    6529.4868    11755.278    1926.9493 
  504000    304.39462   -1169.2529    6421.5343    11755.205    1896.9844 
  504100    297.49924   -1161.0077     6560.731    11755.338    1995.5132 
  504200    302.40152   -1163.5987    6458.5869    11755.333    1962.8493 
  504300     301.7355   -1164.4165    6473.6102     11755.31    1942.2308 
  504400    303.81654   -1163.5767    6428.3256    11755.323     1980.082 
  504500    300.45988   -1166.2561     6502.692      11755.3    1894.6108 
  504600    304.50543   -1166.2849    6416.3135     11755.32    1871.7185 
  504700    301.46554   -1159.7821     6474.633      11755.2    1931.9992 
  504800    303.53362   -1162.7245    6433.3966    11755.202    1944.5673 
  504900    301.54344   -1155.9332    6469.1116    11755.191    1924.1713 
  505000     301.7964   -1163.3089    6471.1096    11755.218    1907.3592 
  505100    302.39082   -1160.1355    6455.2076    11755.188    1982.0366 
  505200    300.45811   -1159.4198    6495.7181    11755.125    1898.2812 
  505300    298.67138   -1158.3256    6532.8403     11755.17    1913.4956 
  505400    304.16945   -1161.5292    6418.5509    11755.135    1840.2727 
  505500    302.86349   -1156.0893    6440.9568    11755.081    1902.5956 
  505600    302.54127   -1160.3779    6452.0338    11754.986    1871.1422 
  505700    302.24225   -1165.2018    6463.3439    11755.084    1875.4336 
  505800    301.56799   -1162.4672    6475.0808    11755.151     1894.459 
  505900    301.52904   -1154.7783    6468.1111    11755.038     1870.527 
  506000    299.55033   -1156.0059    6511.6813    11755.109    1890.6701 
  506100    305.00472   -1159.6881    6398.8427    11755.113    1881.1279 
  506200    299.53925   -1158.8829    6514.6849    11754.998    1892.2298 
  506300    301.97825   -1165.2382         6469    11755.064    1885.5367 
  506400    303.01782   -1159.1357    6440.7305    11755.106    1818.5074 
  506500    302.31327    -1164.607    6461.3039    11755.156    1817.6465 
  506600    302.91958   -1167.9847    6451.7515    11755.179    1970.9302 
  506700    302.62247   -1161.9189     6451.954      11755.1    1893.3464 
  506800    301.98343   -1160.7093    6464.5472    11755.251    1947.4075 
  506900    299.89106   -1161.8735    6510.3323    11755.171    1909.2025 
  507000    307.23961   -1154.8283    6346.2413    11755.116     1891.833 
  507100    304.38452   -1153.6425    6406.0646     11755.13    1937.3721 
  507200    306.36293   -1165.5283    6375.7682    11755.214    1922.2761 
  507300    298.48566   -1161.2006    6539.8062    11755.294    1884.3908 
  507400    303.06276   -1168.1166    6448.9478    11755.302    1835.5845 
  507500    304.98472   -1165.2404    6404.8891    11755.179    1873.2905 
  507600     300.3891   -1164.8343    6502.6867    11755.205      1903.95 
  507700    305.05983   -1165.2118    6403.2885    11755.212    1858.2142 
  507800    301.31539   -1160.4899    6478.4853    11755.136    1875.0675 
  507900    298.11428   -1155.3048     6541.705    11755.154    1933.3475 
  508000    303.62975   -1158.8379     6427.398    11755.144     1866.063 
  508100    301.22861   -1154.7952    6474.6007    11755.093    1855.4037 
  508200    302.73472   -1162.0575    6449.7272    11755.132    1872.2735 
  508300    302.12266   -1160.8945    6461.6316    11755.124    1866.7588 
  508400    301.16653   -1163.1782    6484.4478     11755.23    1904.0087 
  508500     298.5839   -1162.4695    6538.8381    11755.156    1959.9239 
  508600    303.52853   -1164.8242    6435.5615    11755.159    1893.8354 
  508700    301.60298   -1161.6628    6473.5395    11755.162    1848.6192 
  508800    300.28501   -1155.3301    6495.2926    11755.091     1854.919 
  508900    302.96703   -1149.1361    6431.7709     11755.06    1885.5247 
  509000    301.64835   -1150.3039    6461.1251    11755.075    1942.5039 
  509100    304.03702   -1155.1433     6414.854    11754.995    1953.2183 
  509200    300.09126   -1156.0187    6500.0507    11755.021    1936.0935 
  509300    301.65516   -1164.8645    6475.5657    11755.101    1948.1431 
  509400    299.84565     -1165.75    6515.1913    11755.184    1908.3788 
  509500    300.43926   -1164.6461    6501.3305    11755.108    1833.5343 
  509600    305.52664   -1162.9733    6391.0056     11755.14    1862.9015 
  509700    301.92763   -1163.9596    6468.8896     11755.15    1950.1882 
  509800    302.61253   -1159.0474    6449.3192    11755.124    1906.6555 
  509900    301.24999   -1153.8992     6473.205     11755.05    1885.9473 
  510000    300.32846   -1155.5906    6494.6763    11755.143    1885.7061 
  510100    302.59257   -1155.7444    6446.4371    11755.119    1940.1426 
  510200    304.71487   -1161.0455    6406.4979    11755.218    1895.9239 
  510300    300.53262   -1165.0645    6499.8343    11755.188     1924.385 
  510400    301.80748   -1164.9661    6472.5111    11755.199    1960.0939 
  510500    304.46485   -1166.9563     6417.786    11755.254    1957.2732 
  510600    302.93628   -1166.6512    6450.0655    11755.183    1866.3761 
  510700    301.43554   -1161.0218    6476.5101    11755.196    1862.3148 
  510800    303.60714   -1161.1898    6430.2657    11755.177      1838.94 
  510900    304.08448   -1158.8946    6417.7396    11755.143    1796.4021 
  511000    302.67576   -1161.0481    6450.0269    11755.182    1800.8994 
  511100    298.77229   -1150.4723    6522.7573    11755.097    1887.8954 
  511200    308.01501   -1163.8379    6338.6653    11755.095    1871.2807 
  511300    299.42367    -1163.778    6522.1882    11755.137    1948.0642 
  511400    301.17011    -1161.345    6482.4591    11755.151    1901.3884 
  511500    301.88336   -1163.1639     6469.019     11755.13    1817.9533 
  511600    300.69745   -1159.9092    6491.0192     11755.05    1818.2518 
  511700     302.4122   -1164.7384     6459.297    11755.131    1858.4954 
  511800     302.2061   -1150.8181    6449.7208    11755.072    1861.1058 
  511900    302.48126   -1159.6509    6452.6593    11755.056    1900.4945 
  512000    299.93493   -1155.2734    6502.7514    11755.128     1899.497 
  512100    302.07509   -1157.2727     6459.015    11755.113    1828.0976 
  512200    301.30081   -1153.5666    6471.8535    11755.116    1837.7757 
  512300    299.97798   -1159.4735    6505.9267    11755.022    1911.5426 
  512400    304.66004   -1159.0336     6405.504    11755.065    1857.4695 
  512500    299.18853   -1161.0799    6524.4737    11755.098    1948.6729 
  512600    300.53395   -1159.0588    6493.6996    11755.087    1946.8822 
  512700    303.89138   -1158.0869    6420.9343     11755.02    1875.9485 
  512800    302.73868   -1157.2148    6444.7244    11755.057    1867.3134 
  512900    301.90304   -1160.9537    6466.2745    11755.016    1909.3204 
  513000     300.4231   -1160.5009    6497.4867    11755.064    1934.2078 
  513100    302.21234   -1156.1888     6454.842    11754.956    1886.0874 
  513200    298.75096   -1158.5382    6531.1611    11754.979    1924.7635 
  513300    304.57181   -1158.2141    6406.4748     11754.97    1824.4125 
  513400    301.65272   -1157.6711    6468.3693    11755.046    1884.0162 
  513500    302.96582    -1165.237    6447.8958    11755.059    1903.1588 
  513600    298.83247    -1165.252    6536.2564    11755.102    1885.9859 
  513700     305.1651   -1161.3197     6397.004    11755.068    1843.7342 
  513800    300.48458   -1164.4473    6500.1069    11755.052    1905.3164 
  513900    305.74464   -1164.1978    6387.5548    11755.122    1933.3507 
  514000    300.84162   -1157.6316     6485.735    11755.123    1914.4399 
  514100    299.66428    -1159.514    6512.7572    11755.111    1893.2437 
  514200    304.91354   -1160.6227    6401.7432     11755.13     1896.191 
  514300    302.78834   -1154.1543    6440.7382    11755.192    1867.7124 
  514400    302.88905   -1158.1687    6442.5418    11755.133    1837.2972 
  514500    302.88615     -1161.91     6446.472     11755.26    1920.1953 
  514600    300.04702   -1165.6439    6510.7769    11755.177    1868.7495 
  514700    302.72877   -1164.9892    6452.8988    11755.245     1882.561 
  514800    304.24414   -1157.5698    6413.1568    11755.296    1929.6216 
  514900    299.96905   -1155.5847    6502.4097    11755.203    1893.4995 
  515000    302.28504   -1159.1866    6456.5222    11755.192     1895.606 
  515100    302.71961   -1157.5795    6445.6217    11755.182    1975.8509 
  515200    302.29848   -1157.7081    6454.6585    11755.094    1942.8823 
  515300    302.92635   -1155.0346    6438.6098    11755.132    1936.8989 
  515400    302.25036   -1159.6305    6457.6074    11755.092     1926.653 
  515500     300.7795   -1159.9779    6489.3768    11755.092    1846.8629 
  515600    304.54423   -1157.9172     6406.948    11755.151     1793.002 
  515700    303.56293   -1157.6774    6427.6304    11755.109    1896.1345 
  515800    304.33238   -1165.0266    6418.6049    11755.173    1914.2369 
  515900    298.04222   -1162.8962    6550.9166    11755.235    1871.6413 
  516000    300.56431   -1157.1328    6491.1882    11755.151     1941.188 
  516100    305.41586   -1160.6887     6390.992    11755.045    1933.8509 
  516200    298.52877   -1162.7956    6540.3098    11755.123    1955.4028 
  516300    298.70263   -1156.7688    6530.5778    11755.132    1956.2503 
  516400    301.11465   -1157.6267    6479.8476    11755.073    1957.7165 
  516500     299.8383   -1157.2681    6506.6406    11754.958    1905.4998 
  516600    305.65648   -1158.7342    6383.9415    11755.089     1926.369 
  516700    301.37334   -1161.9143    6478.7536    11755.218    1943.6593 
  516800    302.01131   -1164.5485    6467.5883    11755.048    1876.3381 
  516900    300.88633   -1164.9659    6492.1322    11755.141    1883.4737 
  517000    301.03924    -1165.541    6489.4656    11755.166    1953.3978 
  517100    303.12461   -1163.0366    6442.2752    11755.031    1916.6586 
  517200    298.33187   -1166.1384    6547.7927    11755.057    1891.7998 
  517300    302.56741   -1162.6437    6453.8014    11755.046     1929.323 
  517400    303.24834    -1161.496    6438.1051    11755.045    1970.6484 
  517500    303.68901   -1160.3963    6427.5545    11755.008    1916.6513 
  517600    297.96931   -1152.3407    6541.7463    11755.063    1850.8128 
  517700    299.78449   -1165.5466    6516.2196    11755.109    1853.6667 
  517800    301.98122   -1169.2417    6472.9779    11755.102    1918.8553 
  517900    307.59047   -1163.9407     6347.839    11755.097    1909.2161 
  518000    303.61278   -1160.2817     6429.185    11755.125    1878.1029 
  518100    297.65965   -1166.5606    6562.7263    11755.208    1912.3343 
  518200    302.04324    -1161.232    6463.7284    11755.187    1916.0269 
  518300    302.31816   -1159.2519    6455.8607    11755.172    1976.2086 
  518400    300.65907   -1164.4991    6496.6245    11755.245    2013.5311 
  518500    303.10174   -1165.6409    6445.5915    11755.254    1969.1248 
  518600    304.24848   -1160.3017    6415.7839    11755.284    1967.3794 
  518700     301.8122   -1167.0779    6474.5981    11755.275    1986.3937 
  518800    299.22836   -1170.9674     6533.716    11755.303     1994.924 
  518900    306.59708   -1169.5411    6374.8564    11755.291    1878.7619 
  519000    300.33728   -1169.7649     6508.798    11755.278    1933.7157 
  519100    307.12643   -1164.5231    6358.5038    11755.266    1932.7007 
  519200    300.77065   -1167.0958     6496.879    11755.287    1974.9826 
  519300    304.18952   -1168.2149    6425.0454    11755.373    1926.2977 
  519400    298.53666    -1157.757    6535.3022    11755.323     1977.097 
  519500    303.05532   -1159.4974      6440.47    11755.284    1972.7768 
  519600    302.29046   -1161.7751    6459.0862    11755.283    1982.4955 
  519700    303.09512   -1166.9448    6447.0488    11755.266    1929.1974 
  519800      301.723   -1161.9956    6471.3923    11755.246    1945.6554 
  519900    300.50994   -1168.3134    6503.6239    11755.244     1930.025 
  520000    301.99848   -1166.8533    6470.3928    11755.273    1852.6385 
  520100    302.00592   -1161.9049    6465.2574    11755.246    1911.8016 
  520200    302.35831   -1163.4036    6459.2016    11755.219    1924.6756 
  520300    301.26773    -1157.207    6476.2442     11755.16     1916.216 
  520400    302.07143    -1156.072    6457.8854    11755.106    1881.9889 
  520500    302.48747   -1159.7428    6452.6515    11755.089    1852.3503 
  520600    299.87124   -1154.5006    6503.2214     11755.01    1913.9096 
  520700    300.84269   -1158.6383    6486.6142    11755.018     1961.152 
  520800    303.66269   -1157.7226     6425.495     11755.06    1913.9261 
  520900    300.30018   -1153.5751    6493.1314    11755.009    1911.5624 
  521000    302.51035   -1156.7019    6449.0066    11754.974    1943.1638 
  521100    302.23527   -1161.1584    6459.4217    11755.056    1931.4147 
  521200    298.45324   -1158.2922    6537.3662     11755.07    1888.7205 
  521300    303.31549   -1159.0683    6434.2201    11755.022    1944.6128 
  521400    302.05479   -1157.3653    6459.4109    11754.983    1923.2055 
  521500    300.64189   -1158.7537    6491.0998    11755.099     1923.394 
  521600    302.89259   -1157.2438     6441.555    11755.147    1985.6339 
  521700    304.59519   -1162.4139    6410.2941    11755.089    1882.5471 
  521800    297.63916   -1161.1227    6557.6167    11755.098    1865.2034 
  521900    305.38712   -1170.2169    6401.3499     11755.26    1831.9677 
  522000    300.53434   -1172.2566    6507.0889    11755.287    1932.2041 
  522100    305.55733   -1162.1596      6389.69    11755.294     1806.668 
  522200    298.57855   -1170.6715    6547.3558    11755.357    1898.6404 
  522300    305.00577   -1168.1509    6407.5167    11755.346    1943.1477 
  522400    300.80606   -1161.0689    6490.1744    11755.366    1966.3091 
  522500    302.08725   -1165.2287    6466.9484     11755.35    1922.5687 
  522600    304.94255   -1167.2484    6408.0253    11755.407    1954.9065 
  522700    300.68683   -1166.7112    6498.4098    11755.411    1919.5976 
  522800    300.75741   -1165.4873    6495.6401    11755.373    1913.3687 
  522900     303.1798   -1168.6257    6446.9833    11755.329    1927.1694 
  523000    303.16971    -1172.253    6450.9071     11755.41    1905.3312 
  523100    300.96735   -1171.3655    6497.0162    11755.356    1866.3585 
  523200    300.05352   -1169.3214    6514.3997    11755.261    1871.2751 
  523300    300.25319    -1165.715    6506.4913    11755.225    1937.5837 
  523400    305.90037   -1166.6232    6386.7961    11755.265    1862.7586 
  523500    300.37648   -1154.4798    6492.6172     11755.22    1954.6978 
  523600    302.92368    -1155.735    6439.3559     11755.12    1915.7219 
  523700    303.04199    -1159.866    6440.9519    11755.113    1922.0747 
  523800    299.84449   -1164.2513    6513.6383    11755.104    1850.1304 
  523900    302.30531   -1166.0917    6462.8558    11755.053     1841.953 
  524000    301.71169   -1158.5029    6467.9177    11755.022    1821.6475 
  524100    300.68122   -1158.4781     6489.953    11755.068    1840.6954 
  524200    304.34163    -1158.187    6411.4684    11755.073    1864.3471 
  524300    300.68827   -1157.1092    6488.4162    11755.051    1888.2441 
  524400    299.43905   -1154.4412    6512.3704    11754.985    1893.3424 
  524500    302.43429    -1150.591    6444.6056    11755.059    1866.7598 
  524600     302.3815   -1154.1151    6449.2721    11755.074    1925.3955 
  524700    300.67936   -1158.7357    6490.2438    11755.061    1901.4598 
  524800    298.72307   -1149.5786    6522.8928    11755.074    1889.2292 
  524900    302.39874   -1162.8989    6457.7238     11755.11    1889.3026 
  525000    299.18866   -1168.1475    6531.5908     11755.15    1893.7747 
  525100    300.02115   -1158.7611    6504.4177    11755.148    1854.7145 
  525200    303.48768   -1165.7283     6437.389    11755.209    1941.4852 
  525300     299.3851   -1160.3099    6519.6273    11755.221    1971.0157 
  525400    306.44436   -1159.2855    6367.7176    11755.146    1902.3662 
  525500    301.15461   -1159.8025     6481.276     11755.18    1920.8664 
  525600    301.08526   -1158.7743    6481.7803    11755.231    1854.7548 
  525700    302.98772   -1162.8147    6445.0923    11755.145    1895.2988 
  525800    299.77576   -1163.7808    6514.7553    11755.224    1921.6005 
  525900    304.71321   -1169.8603    6415.4224    11755.292    1840.2745 
  526000    300.48303   -1163.3369    6499.2865    11755.308    1867.6603 
  526100    301.95284   -1164.1085    6468.6251    11755.276    1879.4529 
  526200    300.74688   -1166.7619    6497.0739    11755.308    1926.3398 
  526300    306.51284   -1160.3767    6367.4026    11755.202    1876.8198 
  526400    300.45468   -1160.9642    6497.4819    11755.271    1923.4093 
  526500    302.58636   -1157.1265    6448.0191    11755.186    1917.8943 
  526600    302.40662   -1158.0635    6452.7359    11755.126     1896.456 
  526700    302.15732   -1154.9793    6454.9686    11755.117    1951.8957 
  526800    301.38673   -1160.4972     6476.971    11755.139    1900.3418 
  526900    299.42396   -1159.2772    6517.6629    11755.119    1887.1695 
  527000     300.9875   -1163.1032     6488.025    11755.058    1992.2601 
  527100    307.52798   -1159.8677    6345.0504    11755.046    1882.5015 
  527200    297.67724   -1158.1817    6553.7365    11754.972    1870.3524 
  527300    302.16061   -1152.9766    6452.7391     11754.96    1865.6697 
  527400    300.20493   -1147.3076    6488.8295    11754.939    1928.3584 
  527500    302.49798   -1151.8034    6444.2185     11754.82     1894.721 
  527600    301.64222   -1153.3495     6464.038    11754.812    1908.3722 
  527700       304.15   -1158.6951    6415.8882    11754.891    1905.0435 
  527800    299.55156   -1155.0122    6510.5446    11754.992    1898.8736 
  527900    302.50638   -1162.7665    6455.0999    11754.918    1831.7436 
  528000    302.52878   -1159.2594    6451.2208    11755.025    1884.7386 
  528100    302.19596   -1159.7342    6458.8181    11755.037    1880.2703 
  528200    298.12581   -1157.2355    6543.2804    11755.045    1901.1612 
  528300    301.33689   -1156.0025    6473.4355    11755.033       1821.9 
  528400    304.73096   -1157.3916    6402.3429    11755.061    1823.1155 
  528500    301.65818   -1159.3366    6470.0032    11755.131    1876.4957 
  528600    302.64707   -1161.2372    6450.8322    11755.185    1890.7158 
  528700    302.96443   -1160.2674    6443.0468     11755.15    1878.6683 
  528800    303.22707   -1167.2232    6444.4418      11755.2    1880.7998 
  528900    302.75168   -1166.2421    6453.6594    11755.242    1884.7272 
  529000    302.12937   -1166.7427    6467.4529    11755.241    1868.7181 
  529100    303.05654   -1159.9387    6440.8578    11755.257    1859.4526 
  529200    302.18743   -1167.9123    6467.4467    11755.305    1882.6242 
  529300    303.02034   -1160.8155    6442.5799    11755.329    1915.2629 
  529400    300.58135   -1159.6372    6493.3973     11755.22    1938.3898 
  529500    303.36962    -1161.213    6435.3687    11755.182    1954.4526 
  529600    300.07074   -1163.3813    6508.0452    11755.215    1995.1659 
  529700    307.79313   -1165.5537    6345.1852    11755.159    1933.1171 
  529800    300.97949   -1165.7618    6490.9841    11755.187    1931.5216 
  529900    303.58765   -1159.6991    6429.1256    11755.111    1881.1321 
  530000    301.91968   -1164.8657    6469.9911    11755.176    1889.5043 
  530100    304.07547   -1165.4489    6424.4536    11755.111    1905.2544 
  530200    302.26725   -1154.7685    6452.3188    11755.026    1879.5335 
  530300    299.46387   -1159.0062    6516.4642    11755.044    1895.5153 
  530400    300.83244   -1156.2541    6484.4665    11755.036    1863.3807 
  530500    304.20425   -1157.5567    6413.7354    11755.036    1882.0422 
  530600    302.74932   -1159.9485    6447.1944     11755.02     1901.089 
  530700    299.23551   -1156.2151    6518.5891    11755.082    1940.9434 
  530800    301.99076   -1158.1837    6461.6552    11755.041    1874.1623 
  530900    304.88738    -1164.666    6406.3303    11755.115    1947.5956 
  531000    299.68007   -1163.1165    6516.0906    11755.179     1971.703 
  531100      303.533   -1160.8099    6431.3708    11755.078     1824.869 
  531200    301.77581   -1158.0072    6466.1727    11755.143    1936.5112 
  531300    297.49303   -1154.2238    6553.8976    11755.156    1940.0754 
  531400    306.22025   -1157.2126    6370.3685    11755.082    1823.0965 
  531500    302.57226   -1160.7842    6451.9185    11755.127    1866.1554 
  531600    299.34104    -1148.877    6509.0665    11755.152    1967.1254 
  531700    304.28945   -1161.6083    6416.0943    11755.163    1915.6237 
  531800     300.2328   -1163.3246    6504.5214     11755.21    1884.1254 
  531900    305.81418   -1162.3828    6384.3197    11755.188    1915.4967 
  532000    300.14556   -1158.3874    6501.4454    11755.207    1908.8615 
  532100    298.86673   -1157.1057      6527.48    11755.203    1887.5273 
  532200     305.7637   -1163.2707    6386.2982      11755.2    1890.1802 
  532300    302.04899   -1160.8158    6463.2168    11755.214    1968.0517 
  532400    302.80411   -1156.8424    6443.0776     11755.18    1890.1312 
  532500    302.56586   -1155.9412    6447.2958     11755.21    1895.0114 
  532600    300.93353   -1161.5291    6487.7306    11755.185    1941.4512 
  532700    306.21035   -1163.6606    6377.0931    11755.147    1887.0651 
  532800     300.4889    -1159.335    6494.9965    11755.146    1917.1895 
  532900    299.01462   -1159.9018    6527.1458    11755.232    1943.0552 
  533000    303.57286   -1160.9816    6430.7414    11755.128    1918.6542 
  533100    301.06242   -1159.3333    6482.7126    11755.116    1958.7557 
  533200    298.30449   -1160.7637    6543.1387    11755.193    1943.4435 
  533300     300.0705   -1161.0172     6505.616    11755.145    1869.9396 
  533400    302.42314   -1160.7804    6455.1303    11755.156    1944.6581 
  533500    303.39727   -1163.9867    6437.5154    11755.146    1924.9232 
  533600    297.44297   -1156.0762    6556.7174    11755.054    1856.7852 
  533700    306.58322   -1157.1186    6362.5388      11755.1    1877.5381 
  533800    302.02254   -1157.0834    6459.9652     11755.13    1939.2519 
  533900    301.44111   -1162.2394    6477.5581    11755.145    1896.7157 
  534000    300.42909   -1161.7124    6498.6458     11755.14    1919.0201 
  534100     301.1404   -1163.2678    6485.1178    11755.253    1951.7142 
  534200    306.84253   -1173.0439    6373.0143     11755.19    1870.6719 
  534300    300.54757   -1161.2458    6495.7253    11755.217    1870.6139 
  534400    301.86317   -1163.7603    6470.1715    11755.255    1922.4216 
  534500    300.09127    -1161.941    6506.2315     11755.28    1968.6113 
  534600    302.80851   -1158.3801    6444.6814     11755.34    1931.0498 
  534700    301.07581    -1161.313    6484.5627    11755.272    1937.8113 
  534800    303.09576   -1155.5642    6435.6504    11755.262    1980.1867 
  534900    302.31591   -1159.7782    6456.5266    11755.264    1944.9133 
  535000    302.54905    -1169.009    6460.7564    11755.244     1968.148 
  535100    301.09928   -1165.1612    6487.8996    11755.263    1972.9377 
  535200    300.78623   -1166.3084    6495.7093    11755.237    1980.4594 
  535300    304.49083   -1166.0274    6416.3035    11755.255    1976.9119 
  535400    301.29414   -1167.6465    6486.2052    11755.246     2009.952 
  535500    301.50517    -1161.363    6475.3409    11755.173     1960.604 
  535600     302.0874   -1160.9501    6462.4818    11755.166    1922.0985 
  535700    302.99361   -1166.1729    6448.3039    11755.124    2015.9924 
  535800    298.25994   -1152.8612    6536.1242    11755.129    1997.8057 
  535900    303.31034   -1159.2206    6434.6354    11755.175    1979.0673 
  536000    305.21315   -1157.7404    6392.4563    11755.126    1888.1953 
  536100     298.3116   -1159.1139    6541.3952    11755.251    1918.6626 
  536200    304.72901   -1162.0306    6407.1309    11755.168    1887.9101 
  536300    300.36522    -1158.816    6497.1528    11755.179     1991.639 
  536400    300.94195   -1160.9784    6486.9801    11755.165    2088.5565 
  536500    300.87359   -1159.3106    6486.7623    11755.154    1970.9707 
  536600    300.61417   -1160.9659    6493.9564    11755.151    1968.7636 
  536700    302.52019   -1161.3149    6453.5416    11755.106    1961.3449 
  536800    301.98087   -1159.2545    6463.0453    11755.149    1940.7159 
  536900    303.44849   -1159.6548    6432.0862    11755.143    1981.1202 
  537000    302.58885   -1162.0181    6452.9219     11755.25    1951.4779 
  537100    303.03667   -1164.5542    6445.8051    11755.164    1901.5009 
  537200    297.13017   -1162.7139    6570.1502    11755.167    1964.2373 
  537300    302.94188   -1164.8191    6448.1372    11755.206    1973.5103 
  537400    302.39114   -1159.7441    6454.7945    11755.173     1941.819 
  537500    303.58631     -1164.03    6433.5759    11755.202    1929.5323 
  537600    304.88913   -1160.0304    6401.7993    11755.257    1912.9698 
  537700    297.88955   -1161.8971     6553.161    11755.217    1921.1634 
  537800    301.68469   -1168.5814    6478.8696    11755.319    1909.8143 
  537900    301.02712   -1167.2052      6491.51    11755.287    1960.5801 
  538000    301.83765   -1161.2177    6468.1735    11755.254    1910.5811 
  538100    302.21566   -1164.4456    6463.3042    11755.232    1903.3456 
  538200    303.01405   -1162.2749    6444.1589    11755.314    1924.1143 
  538300    304.80978    -1163.401    6406.9029    11755.295    1922.1578 
  538400    300.01445   -1160.5144    6506.4611    11755.295    1963.9944 
  538500    299.87083   -1160.4471    6509.3229    11755.156    2012.2578 
  538600    308.13249   -1163.2782    6335.7256    11755.225    1916.4709 
  538700     298.4078   -1163.6899    6543.9302    11755.265    1925.2343 
  538800    297.29217   -1159.7476    6563.7665     11755.21    1966.1158 
  538900     303.9942   -1164.9333    6425.7676    11755.204    1958.9186 
  539000    299.11607   -1167.5261    6532.6015    11755.231    1957.2541 
  539100    301.94113   -1164.1742    6468.8225    11755.157     1982.213 
  539200     301.4851    -1160.656    6475.0469    11755.157    1967.0704 
  539300    301.44979   -1161.3051    6476.3523    11755.059    1967.9716 
  539400    302.38651   -1157.3153    6452.4534    11755.162    1929.7631 
  539500    300.56722   -1156.8568    6490.8541    11755.155    1937.2038 
  539600    299.07013   -1153.0261    6518.8909    11755.039    1914.4199 
  539700    302.29553    -1157.614    6454.5747    11755.041    1944.1946 
  539800    302.14529   -1158.9145    6459.1799    11755.136    1939.2458 
  539900     301.8932   -1162.3158    6467.9504     11755.12    1953.4288 
  540000    298.94582   -1163.1576    6531.8043    11755.165    1892.5102 
  540100    301.01193    -1162.671    6487.1669    11755.154    1933.7853 
  540200    303.59061   -1163.7195    6433.1109    11755.139    1977.0401 
  540300    300.51498   -1161.5614    6496.6431    11755.123    1954.0311 
  540400     302.4428   -1162.0918    6456.0457     11755.18    1912.8212 
  540500    300.96772   -1157.4919    6482.9831    11755.205    1987.1946 
  540600    302.00928   -1160.1485    6463.3474    11755.164     2022.674 
  540700    301.20055   -1160.6585    6481.2162    11755.245    1954.7461 
  540800    304.36766   -1164.8373     6417.755    11755.266    1954.7501 
  540900    301.15205   -1164.8882    6486.5128    11755.276    1925.3651 
  541000    304.96035   -1165.1702    6405.4248    11755.265    1925.4544 
  541100    301.73673   -1167.5464    6476.6875    11755.283    1975.1819 
  541200    304.02938   -1162.7889    6422.9748    11755.307    1990.0481 
  541300    306.08927   -1170.8134    6386.9775    11755.292    1981.8977 
  541400     301.6333   -1162.9191    6474.2183    11755.232    2043.0841 
  541500    299.57018   -1162.5124    6517.8753     11755.22    1966.2204 
  541600    304.61306   -1163.1041    6410.7752    11755.262    1866.2434 
  541700    300.84032    -1167.026    6495.3491    11755.315    1992.6628 
  541800    303.76562   -1173.0915    6438.8379    11755.233    1957.7944 
  541900    303.56362   -1163.6749    6433.7481    11755.244    1945.0715 
  542000    297.73293   -1165.1717    6559.8098    11755.245    1933.1521 
  542100    298.89202   -1159.6697    6529.5037    11755.203    1944.0995 
  542200    304.55979   -1159.3439    6407.9472    11755.056    1974.1043 
  542300    301.97675   -1164.9248    6468.8137    11755.159    1957.0563 
  542400    299.98601   -1160.9853    6507.4598    11755.215    2004.2388 
  542500     302.2809    -1163.591    6460.9076    11755.084    1989.6607 
  542600     301.0929   -1156.2895    6478.9503    11755.049    1909.6413 
  542700    301.70921   -1161.6142    6471.1792    11755.119    1930.7303 
  542800    303.39161    -1163.354    6436.9257    11755.068    1944.2485 
  542900     299.5952   -1158.6037    6513.3723     11755.16    1914.1725 
  543000     301.9927   -1160.9675    6464.4906    11755.134    1895.5274 
  543100    301.95278   -1160.3204    6464.7155    11755.153    1941.7995 
  543200    300.70626   -1161.6344    6492.6125    11755.106    1952.6352 
  543300    305.70998   -1161.3019    6385.3046    11755.027    1912.0539 
  543400    297.49037   -1156.9514    6556.6621    11755.136    2013.5675 
  543500    304.07419   -1159.4187    6418.4538    11755.114    1974.0185 
  543600    304.51751   -1155.6121     6405.184    11755.121    1999.2495 
  543700    299.76314   -1160.1848    6511.2959    11755.091    1994.1927 
  543800    302.96342   -1163.6141    6446.4189    11755.153    1952.4387 
  543900    301.97869   -1160.6112    6464.5302     11755.23    1917.9031 
  544000    301.00818   -1161.2376    6485.8188    11755.159    1941.6033 
  544100    301.46782   -1161.3333    6476.1036    11755.168    1956.3278 
  544200    301.35121   -1162.6604    6480.0738     11755.32    1972.7221 
  544300    300.35118   -1161.8795    6500.5455    11755.208    1874.0699 
  544400    304.68233   -1163.6718    6409.7123    11755.111    1890.2947 
  544500    304.60758   -1166.7691    6414.4392    11755.144    1933.9561 
  544600    302.57099   -1168.7758     6460.077    11755.266    1855.8526 
  544700    303.63334   -1163.7816    6432.3784    11755.257    1930.5554 
  544800    299.67521   -1162.8547    6516.0174    11755.264    2004.4157 
  544900    300.23026   -1169.9102    6511.2374    11755.286    1952.4867 
  545000    301.55041   -1169.4055    6482.5847    11755.341    1984.9784 
  545100    305.38734   -1167.2472    6398.4065    11755.291    2020.4244 
  545200    302.88887   -1159.2091    6443.7267    11755.273    1935.7204 
  545300    301.86966   -1165.9181    6472.2839    11755.348    1927.0378 
  545400    300.25744   -1158.7022    6499.3834    11755.221    1949.6218 
  545500    303.31093   -1161.9871    6437.4638    11755.249    2007.3692 
  545600    302.72194   -1161.1741    6449.2466    11755.262    1957.6265 
  545700    303.25953   -1165.1842    6441.7615    11755.252    1881.6177 
  545800    300.97442   -1166.3729    6491.7755    11755.259    1959.8361 
  545900    303.64374   -1161.6675    6429.9862    11755.201     1940.026 
  546000    300.61983   -1165.1142    6497.9764    11755.144    1915.5588 
  546100    302.03151   -1166.4135    6469.1163    11755.143     1902.551 
  546200    302.14269   -1164.0433    6464.3601    11755.132    1933.4584 
  546300    301.00619   -1157.3561    6481.9592    11755.138    1939.2393 
  546400    305.90526   -1155.9062    6375.7791    11755.069    1928.7502 
  546500    302.80873   -1157.3989     6443.477    11755.122    1928.1208 
  546600    301.35873   -1163.0358    6480.2105    11755.242    1966.9929 
  546700    300.22885   -1165.5728    6506.8006    11755.156    2013.3129 
  546800    301.52412   -1159.0971    6472.6482    11755.151     1944.587 
  546900    299.17902    -1157.381    6521.0344    11755.154    1937.4976 
  547000    300.50672   -1158.9767    6494.2477    11755.136    2029.9451 
  547100    300.95759   -1155.0765    6480.7557    11755.176    1985.1334 
  547200    304.21126   -1159.9359    6416.0771    11755.148    1917.1663 
  547300    301.78522   -1160.1772    6468.2446    11755.246    2079.4851 
  547400    303.71467   -1162.0623    6428.8691    11755.205    1982.5802 
  547500    298.25967   -1161.2953    6544.7465    11755.311    1973.4999 
  547600    301.77298   -1168.6282    6477.0714     11755.36    1977.2968 
  547700    302.55431   -1165.6112    6457.3055    11755.303    1953.1694 
  547800    302.02813   -1162.0105    6464.9605    11755.318    1954.3318 
  547900    302.77829   -1165.3982    6452.2669    11755.262    1962.7596 
  548000    302.36504   -1164.9318    6460.7498    11755.383    1976.6703 
  548100    304.03472   -1170.3426    6430.4223    11755.315    1965.5386 
  548200    302.24108   -1156.9589    6455.3771    11755.335    1881.7223 
  548300    300.25844   -1164.4167    6505.2096    11755.354    1901.8889 
  548400    306.06296   -1169.5202    6386.2952    11755.341    1909.0848 
  548500    302.18867   -1168.6234    6468.1455    11755.319    1912.9079 
  548600    302.02488   -1169.0414    6472.1024    11755.359    1965.4662 
  548700    301.13198   -1165.3323    6487.4569    11755.347    1927.7259 
  548800    303.06835   -1164.8349    6445.5283    11755.284    1877.8735 
  548900    302.15545   -1160.5755    6460.8314    11755.344     1901.574 
  549000    301.28965   -1168.0375    6486.7113    11755.265    1997.6641 
  549100    297.88343   -1164.4025    6555.7724    11755.192    1979.8076 
  549200    303.38652   -1162.7541    6436.5202    11755.154    1972.4046 
  549300    302.49609   -1157.5892    6450.5061    11755.282    1957.3486 
  549400    300.00124    -1163.834    6509.9411    11755.173    1935.6081 
  549500    302.15905   -1164.5421    6464.4711    11755.093    1890.1994 
  549600    302.69846   -1163.0449    6451.5218    11755.165    2031.2189 
  549700     301.3299   -1165.4407    6483.2356    11755.246    1997.8687 
  549800    303.23409   -1162.4076     6439.425    11755.148    1909.4905 
  549900    300.75839   -1160.0308    6489.8789     11755.09    1922.6106 
  550000    299.03747   -1160.2904    6526.9473    11755.134    1968.0141 
  550100    303.79372    -1157.377     6422.301    11755.011    1914.6241 
  550200    304.77774   -1154.3511    6398.3243    11755.082    1907.5005 
  550300    299.64651   -1156.1331    6509.7618    11755.116      1944.39 
  550400    298.39542   -1161.4559    6541.8204    11755.125    1962.5727 
  550500    300.83907   -1161.7635    6489.9595    11755.161     1934.524 
  550600    301.95525   -1163.7862    6468.1808    11755.205    1988.9771 
  550700    302.00436   -1165.2546    6468.4689    11755.074    1909.3165 
  550800    301.35797   -1164.4392     6481.567    11755.178    1929.8522 
  550900    302.11396   -1161.2941    6462.2804    11755.187    1935.1743 
  551000    300.07198   -1165.5822    6510.1835    11755.179    1945.0682 
  551100    304.03921   -1155.0008    6414.7638    11755.094    1881.3909 
  551200    299.81149   -1159.3104    6509.4999    11755.202    2004.3496 
  551300    303.97471    -1160.135    6421.4409    11755.259     1947.315 
  551400    299.05508   -1164.6395    6531.0968     11755.31    1881.5294 
  551500    302.41167   -1165.6432    6460.3466    11755.265    1894.5445 
  551600    299.58484   -1169.9903    6525.1404     11755.32    2048.2173 
  551700     303.9902   -1165.9369    6426.9749    11755.322    1926.5024 
  551800    302.39578   -1169.5851    6464.7001    11755.337    1867.4445 
  551900      303.366   -1161.3114    6435.7141    11755.352    1920.6624 
  552000    301.32494   -1158.9853    6476.8732    11755.233    1949.5965 
  552100    305.16454   -1160.2155     6396.013     11755.17    1957.4564 
  552200    301.13599   -1155.4434    6477.3526    11755.218    1990.9666 
  552300    303.06505   -1162.7176    6443.3973    11755.199    1985.1319 
  552400    300.22326   -1159.4901    6500.8074    11755.127    1922.7985 
  552500    302.09607   -1168.9784     6470.388    11755.229    1964.5903 
  552600    300.47598   -1163.6925    6499.7552    11755.271    1997.5887 
  552700    301.37223   -1162.3104    6479.2033    11755.248    1953.7729 
  552800    304.24425   -1163.7435     6419.227    11755.195    1910.7188 
  552900    302.94734    -1161.668     6444.806    11755.143    1932.6629 
  553000    299.09467     -1162.23    6527.7601    11755.229    1933.5214 
  553100     303.0542   -1157.6515    6438.5233     11755.16    1858.2105 
  553200    303.29523   -1160.6816    6436.3382    11755.094    1948.1943 
  553300    297.75415   -1161.9744    6556.1491    11755.235    2022.7342 
  553400    305.86712   -1158.1293     6378.962    11755.214    1893.8849 
  553500    299.60911   -1161.2539    6515.7046     11755.14    1952.2384 
  553600    303.72653    -1159.259    6425.7766    11755.169    1955.0174 
  553700    298.51167   -1159.3509    6537.2588    11755.152     2011.842 
  553800    299.23445   -1160.4031    6522.8821    11755.164      1953.05 
  553900    302.39012   -1163.3053    6458.4652    11755.261    1941.4766 
  554000    304.03853   -1160.3594    6420.2792    11755.237    1886.6413 
  554100    301.13485     -1165.02     6486.962    11755.226     1862.625 
  554200    303.11394   -1166.0731    6445.7424    11755.234    1891.0048 
  554300     303.1117   -1162.4613    6442.1918    11755.247    1937.9534 
  554400    299.42478   -1159.3898     6517.918    11755.279    1938.7531 
  554500    306.97782   -1162.7509     6359.852    11755.211    1942.3024 
  554600    301.00757   -1159.1878    6483.8756    11755.253    1978.5147 
  554700    303.23208   -1165.1364    6442.3586     11755.31    1962.9362 
  554800    301.86304   -1168.3081    6474.7731    11755.306    1903.1451 
  554900    301.00672   -1170.0988    6494.8268    11755.275    1945.8059 
  555000    299.97344   -1167.6022     6514.361    11755.231    1929.9884 
  555100    305.33162   -1165.4503    6397.7071    11755.198    1906.2842 
  555200    300.41091   -1161.2896    6498.6821    11755.211    1967.4616 
  555300    305.95078   -1158.5112    6377.5903    11755.248    1939.5134 
  555400    302.27128   -1161.3389    6459.0091    11755.232    1895.1802 
  555500    303.04814   -1164.7768    6445.8255    11755.207    1846.7958 
  555600    302.58501   -1158.9175    6449.8264    11755.173    1913.1328 
  555700    304.36489   -1158.8283    6411.7582    11755.219     1902.528 
  555800    302.48365   -1158.9913    6452.1244    11755.232    1892.7345 
  555900     300.2308   -1160.4934    6501.6708    11755.148    1859.5565 
  556000    302.05906   -1162.0927    6464.2634    11755.199    1906.7627 
  556100    303.75437   -1161.0018    6426.9624    11755.207    1909.4915 
  556200    301.59273   -1158.1576    6470.3512    11755.259    1922.1624 
  556300     301.2489   -1157.3021    6476.7677    11755.186    1925.4092 
  556400    301.23051   -1153.9025    6473.6627    11755.088    1851.6265 
  556500    299.34003   -1158.4125    6518.5599    11755.088    1913.6201 
  556600    304.36599   -1162.4545    6415.2431    11755.101     1899.111 
  556700    302.37041   -1158.9569    6454.3759    11755.099    1915.4299 
  556800    301.45546   -1161.4054     6476.363    11755.091     1877.547 
  556900     305.5978   -1165.2017    6391.7132     11755.14    1886.4993 
  557000    301.71634   -1161.4376    6470.9298    11755.199    1966.8669 
  557100    300.42521   -1162.0792    6499.1347    11755.179    2008.8455 
  557200    304.89219   -1157.0731    6398.6532    11755.134    1940.4582 
  557300     301.5526    -1154.732     6467.615    11755.092    1920.3715 
  557400      303.941    -1156.516    6418.5001    11755.217    1933.0525 
  557500    303.25089   -1162.9593    6439.6692      11755.2     1952.911 
  557600    305.71267   -1165.7481    6389.8529    11755.187    1925.0745 
  557700    297.04451   -1163.2213    6572.6223    11755.301    1996.6633 
  557800    306.82091   -1168.3929    6368.9032    11755.268    1919.5276 
  557900     300.1186   -1161.8328    6505.5114    11755.252    1892.9463 
  558000    300.21287   -1163.2861     6505.073    11755.374    1964.2613 
  558100    303.21825   -1167.1253    6444.6515    11755.319    1958.1492 
  558200    304.06035   -1164.8126    6424.2783    11755.248    1908.8244 
  558300     302.2902   -1156.7645    6454.0799    11755.282    1951.2716 
  558400    302.78254    -1163.061    6449.8634    11755.287    1925.6866 
  558500    298.49089   -1159.4348    6537.9533    11755.318     1964.627 
  558600    305.41823   -1166.7546    6397.2604    11755.298    1916.7297 
  558700    302.05343   -1166.0559    6468.4565    11755.309    1928.5871 
  558800    298.82092   -1161.2729    6532.7109    11755.288    1850.8521 
  558900    303.09456   -1167.4158    6447.5017    11755.236    1937.0103 
  559000     304.5245   -1167.2321    6416.8059    11755.272    1968.4768 
  559100    302.15468   -1157.8498    6458.0078    11755.229    1900.9219 
  559200    300.59005   -1160.8205    6494.3605    11755.185    1930.2822 
  559300    300.51637   -1160.9486     6496.048    11755.171    1982.6091 
  559400     301.6897   -1156.5024    6466.5864    11755.221    1962.4691 
  559500    303.31554   -1158.2178    6433.4799    11755.133    1875.7234 
  559600    299.07772   -1160.0239    6525.8515    11755.164    1909.2028 
  559700    302.66681   -1155.8418    6445.0623    11755.232    1921.9762 
  559800    299.62498   -1162.4493    6516.5936    11755.172    1922.1234 
  559900    301.77736   -1162.1084    6470.2717    11755.174    1908.5369 
  560000    303.91642    -1163.204    6425.5969    11755.101    1927.9675 
  560100    301.52249   -1159.0219    6472.6377    11755.181    1923.7522 
  560200    300.52555   -1158.6864    6493.5456    11755.126    1998.5075 
  560300    307.04546   -1153.0503    6348.5441    11755.049     1874.469 
  560400    296.70447   -1149.8027    6566.2726    11755.106    1890.8631 
  560500    305.19268   -1155.2116    6390.4828    11755.244    1920.6844 
  560600     303.5461   -1164.0227    6434.3716    11755.145     1920.881 
  560700    301.67085   -1166.6693    6477.1498    11755.215    1904.1254 
  560800    301.01382    -1164.506    6488.9907    11755.183    1929.6047 
  560900     299.9071   -1165.7328     6513.957    11755.279    1882.4778 
  561000    302.41731   -1163.3138    6457.8082    11755.176    1889.6447 
  561100    304.13522   -1163.7809    6421.5731    11755.175    1944.6571 
  561200    302.54376   -1160.2061    6452.0591    11755.236    1958.7499 
  561300    299.42887   -1160.2481    6518.6405    11755.231    1938.6245 
  561400    301.45111   -1161.0572    6476.1856    11755.169    1878.7506 
  561500    303.50362   -1155.8395    6427.1466    11755.196    1910.6875 
  561600    302.22209    -1163.089    6461.8148    11755.237    1971.8849 
  561700    302.24824   -1161.3796    6459.4908    11755.181    1948.6286 
  561800    301.99549   -1162.1413    6465.8129    11755.342    1870.6087 
  561900    301.39704   -1160.3868    6476.7904    11755.289    1879.7281 
  562000    302.37289    -1165.322     6460.853    11755.264    1861.3544 
  562100    300.47374   -1164.3022     6500.324    11755.182     1897.385 
  562200    302.44742   -1164.2506     6458.117    11755.191    1929.2937 
  562300     301.3913   -1157.3555    6473.7301    11755.137    1918.9069 
  562400    302.16296   -1155.0126    6454.8769    11755.112    1896.9827 
  562500    298.19008   -1158.1849    6542.9293    11755.118    1921.3049 
  562600    302.54931   -1154.2432    6445.8084    11755.067    1864.9409 
  562700    303.22535   -1162.3529    6439.5386     11755.13    1953.8619 
  562800    303.40033   -1158.6838    6432.1151    11755.114    1962.4935 
  562900    304.14709   -1160.0327     6417.543    11755.146    1860.2967 
  563000    298.83019   -1150.6525    6521.7154    11755.111    1904.3429 
  563100    304.50226   -1156.4612    6406.2922    11755.055    1882.7582 
  563200    298.78128    -1155.619    6527.7335    11755.118    1922.1075 
  563300    301.00576   -1155.8666    6480.3631    11755.023    1905.4124 
  563400    303.39728   -1153.7281    6427.2026    11755.092    1907.7898 
  563500     301.5868   -1153.6691    6465.8358    11755.106    1868.3945 
  563600    300.87123    -1159.128    6486.5411    11755.065    1877.8411 
  563700    305.98655   -1163.3527    6381.4156    11754.996    1933.8527 
  563800    299.25365   -1157.3987    6519.3427    11755.039    1972.8581 
  563900       302.73   -1162.6732    6450.3959    11755.085    1894.1663 
  564000    297.80003   -1163.4964    6556.6003    11755.145    1905.7347 
  564100    302.39008   -1165.1412    6460.1823    11755.141    1917.4012 
  564200    303.26335     -1160.18    6436.5283    11755.105    1968.8594 
  564300    306.17207   -1166.0104    6380.2768    11755.163    1889.4516 
  564400    298.62852    -1159.495    6534.8777    11755.123    1917.0527 
  564500    303.54012   -1164.2307    6434.6958    11755.134    1931.7845 
  564600    303.94225   -1163.1527    6425.0407    11755.148    1885.1587 
  564700    300.99252   -1163.4547    6488.4318     11755.22    1928.7382 
  564800    304.36346   -1163.6781    6416.6808    11755.261     1946.516 
  564900    302.21865   -1163.1049    6461.9327    11755.266     1828.147 
  565000    299.18696   -1162.2787    6525.8768    11755.269    1881.3459 
  565100    303.07566   -1166.4317    6446.9662    11755.281     1922.731 
  565200    300.91187   -1160.7401    6487.4131    11755.194    1953.1111 
  565300    303.26159   -1159.2189     6435.728    11755.228    1917.7257 
  565400    300.04457     -1161.94    6507.1476    11755.199    1917.5196 
  565500    305.84728     -1168.46    6389.7558    11755.254    1830.2675 
  565600    301.91089   -1157.9863    6463.3892    11755.266    1867.3598 
  565700    301.21718   -1166.2768    6486.4748    11755.241    1948.4362 
  565800    306.63274   -1166.3589    6370.7999    11755.179    1895.4734 
  565900    301.75039    -1163.617    6472.3953    11755.213    1897.4395 
  566000    302.77606   -1160.6605    6447.5239    11755.209    1956.9442 
  566100    299.76007   -1162.3442    6513.6863    11755.256    1976.0064 
  566200    299.29012   -1160.7557    6521.9789    11755.097     1906.315 
  566300    306.82885    -1159.943    6360.1046    11755.089    1938.0657 
  566400    299.91022   -1160.4503    6508.4517    11755.123    2003.5984 
  566500    302.34886   -1153.9848    6449.9357     11755.17    1888.7895 
  566600    302.67449    -1158.444    6447.4973    11755.229    1947.1393 
  566700    299.30714   -1163.5919    6524.5396    11755.185    1974.0246 
  566800    301.79388    -1159.896     6467.612    11755.079     1869.046 
  566900    303.59956   -1163.7756     6433.028    11755.191    1933.0424 
  567000    302.67851   -1156.6672    6445.5413    11755.136    1974.8279 
  567100    298.29589   -1152.2195    6534.7398    11755.154    1983.6732 
  567200    301.74842   -1164.9249    6473.6608    11755.128    1875.9497 
  567300    304.20819    -1153.088    6409.3061    11755.159    1924.7718 
  567400     300.5385   -1162.5234    6497.0931    11755.114    1918.2781 
  567500    301.13713   -1164.1615    6485.9339    11755.105    1938.4756 
  567600    304.00871   -1164.4164    6424.8484    11755.112    1959.0896 
  567700    302.12722   -1168.4509    6469.1703    11755.204    1984.1142 
  567800     302.2912   -1167.5357    6464.6785    11755.131    1913.7467 
  567900    300.28289   -1164.0541    6504.0425    11755.072    1883.5915 
  568000    304.73094   -1164.0813    6409.0371    11755.065    1937.8802 
  568100    299.51831   -1153.2725     6509.693     11755.17    1950.7672 
  568200     301.4645   -1156.9296    6471.7341    11755.131    1942.8606 
  568300    299.55346   -1159.3931    6514.9957    11755.103    1931.4352 
  568400    300.84865   -1155.4622    6483.4048    11755.112    1944.2109 
  568500    299.82066   -1160.9602    6510.8727    11755.121    1936.2892 
  568600    301.63297    -1160.371    6471.5616    11755.116    1930.0867 
  568700     302.7532   -1164.6375    6451.8569    11755.077    1916.1899 
  568800    300.54002   -1166.4275    6500.9861    11755.135    1888.1641 
  568900    300.49323   -1162.2471    6497.7399     11755.07     1942.128 
  569000    303.87752   -1160.2651    6423.4269    11755.039    1968.1509 
  569100    299.29653   -1155.4329    6516.5356    11755.114    1950.6591 
  569200    300.38347   -1155.1488    6493.0552    11755.138    1913.5521 
  569300    302.53979   -1156.4476    6448.2617    11755.112    1923.6688 
  569400    303.12984   -1154.9406    6434.1287    11755.092    1854.6208 
  569500     300.4428   -1160.7017     6497.323    11755.121    1922.0717 
  569600    302.74593   -1161.4048    6448.8522     11755.15     1962.041 
  569700    301.85231   -1159.8473    6466.3629    11755.127    1915.6571 
  569800    300.69375    -1159.356    6490.6367    11755.141    1903.4556 
  569900    298.96471   -1159.5994    6527.8314    11755.154    1856.8934 
  570000     302.5243   -1163.4051    6455.5814    11755.144      1948.97 
  570100    300.15364    -1157.393    6500.2242    11755.153    1904.4936 
  570200    299.59404   -1154.6858    6509.5334    11755.215     1834.232 
  570300    304.04054    -1162.505    6422.3778    11755.232    1852.3334 
  570400    300.19742   -1152.3351    6494.2562    11755.178    1841.6032 
  570500    305.64046   -1159.9026    6385.5252    11755.162    1845.6835 
  570600    298.76606   -1162.5571    6535.0973    11755.219    1900.2475 
  570700    306.27109   -1165.5014    6377.7492     11755.26    1850.6478 
  570800    297.36187   -1164.7445    6567.1866    11755.122    1869.1548 
  570900    303.58693   -1166.4655    6435.9808    11755.184    1838.6965 
  571000    305.11078   -1166.5499     6403.601    11755.275    1899.1405 
  571100    300.85542   -1163.1893    6490.9964    11755.122    1920.8371 
  571200    301.56426   -1156.2574    6468.9636    11755.164    1933.6291 
  571300     303.8579   -1161.4214    6425.0995    11755.136    1954.3975 
  571400    299.56652   -1160.3626    6515.7751    11755.192    1988.9983 
  571500    302.76762   -1166.8906    6453.8986    11755.174    1968.5233 
  571600      301.468   -1161.4394    6476.2012    11755.163      1960.01 
  571700    299.06837   -1167.4036    6533.4798    11755.213     1900.583 
  571800    302.95276   -1166.2544    6449.3631     11755.23    1896.6755 
  571900    300.40643   -1162.4398    6499.9134    11755.196    1897.1622 
  572000     303.2716   -1157.7171    6433.9093    11755.125    1900.5653 
  572100    300.96332   -1156.7313    6482.1573    11755.046    1907.7644 
  572200    304.64598   -1160.6634    6407.4331    11755.063    1933.1898 
  572300    304.60875   -1159.6902    6407.3973    11755.206     1942.617 
  572400    300.74774   -1167.1676    6497.2925    11755.139    1941.1122 
  572500    298.18207   -1162.5168    6547.3479    11755.034    1931.4425 
  572600    303.18271   -1154.6219    6432.7337    11755.145      1845.71 
  572700    300.58991    -1164.426    6497.9835      11755.2    1865.2567 
  572800    302.39278   -1169.9749    6464.9403    11755.123    1864.2117 
  572900    303.17496   -1162.9025    6441.2427    11755.208    1875.9318 
  573000    299.29664   -1160.3194    6521.5336    11755.228     1921.712 
  573100    302.26603   -1162.1296    6459.9003    11755.221    1942.8871 
  573200    303.87276   -1159.5119    6422.9066     11755.17    1900.8043 
  573300    299.64782   -1155.1719    6508.8156     11755.16    1948.0289 
  573400    304.05952   -1163.5295    6422.9901    11755.226    1986.6674 
  573500    301.07505   -1157.4214    6480.6462    11755.231    1903.9001 
  573600    303.03924   -1164.0382    6445.3333    11755.264    1937.1921 
  573700    302.40324   -1167.9532    6462.8448    11755.273    1966.7197 
  573800    301.15733   -1162.9454    6484.5164    11755.335    1859.7983 
  573900    303.25066    -1170.728    6447.6178    11755.375    1818.4216 
  574000    300.33602   -1164.8907    6503.9273    11755.255    1905.4425 
  574100    303.30227    -1171.094     6446.693    11755.187    1900.9382 
  574200    300.68986   -1168.8278    6500.3043    11755.254    1934.7951 
  574300    303.31918   -1161.9223     6437.176    11755.203    1972.4044 
  574400    302.24277   -1161.4417    6459.6175    11755.129    1994.0874 
  574500    300.87893    -1157.681    6485.1132    11755.249    1953.3961 
  574600    303.10223   -1154.7057    6434.7092    11755.318    1963.4096 
  574700    299.90356   -1159.5361    6507.8573    11755.301    1977.8588 
  574800     301.0238   -1167.6831    6491.9754    11755.204    1949.5355 
  574900    301.95558   -1171.4004    6475.8812    11755.298    1932.1235 
  575000    300.56152   -1159.8526    6494.0723    11755.255    1933.8761 
  575100     302.9318   -1166.6604    6450.2435    11755.256    1875.5516 
  575200    301.88689   -1164.9226    6470.7337    11755.161    1936.3152 
  575300     303.6745   -1162.3178    6429.9538    11755.176    1986.1497 
  575400     302.0416   -1157.4055    6459.9146    11755.164    1868.8297 
  575500    303.25989   -1158.8652    6435.2496    11755.067    1875.0232 
  575600     304.1998    -1162.174    6418.5436    11755.132    1947.7775 
  575700    301.35552   -1159.8366    6477.0529    11755.215    1934.1527 
  575800    302.06726   -1160.0035    6462.0044    11755.204    1898.7242 
  575900    303.81803   -1162.3248    6426.8231    11755.104    1918.4543 
  576000    301.19498   -1165.5995    6486.2165    11755.186    1923.5972 
  576100    300.73298   -1167.2861    6497.7416    11755.154    1943.4817 
  576200    301.90299   -1162.9316    6468.3621    11755.125    1906.6479 
  576300    298.30833   -1159.7766    6542.0363    11755.159    1925.3085 
  576400    299.53427   -1160.5759    6516.6208    11755.135     1929.967 
  576500    302.45278    -1158.412    6452.0512    11755.079    1936.0666 
  576600    302.54162   -1160.2758    6452.1482     11755.21    1905.9742 
  576700    301.23829   -1161.1182    6480.7619    11755.138    1905.9968 
  576800    301.97382    -1171.134    6475.2152    11755.289    1969.5514 
  576900     301.0789    -1168.889    6492.1167    11755.317    1969.3783 
  577000    301.47399   -1168.5591    6483.3561    11755.326    1895.6598 
  577100    300.85815   -1164.7286    6492.7221    11755.366    1975.1436 
  577200    302.50848   -1165.1297    6457.8121    11755.312    2006.7769 
  577300    301.55354   -1156.4505    6469.5437    11755.322    1986.9137 
  577400    302.30639   -1164.5828    6461.6214    11755.351    1978.6328 
  577500    304.82006   -1162.3353    6405.6637    11755.341    1917.2008 
  577600    301.23791   -1161.7839    6481.5667    11755.269    1905.2064 
  577700    300.09954   -1163.4997    6507.6178    11755.284    1871.4027 
  577800    303.18734    -1169.053    6447.2683    11755.348    1930.6809 
  577900    299.70327   -1167.2157    6519.8611    11755.346    1903.9544 
  578000    305.56958   -1175.0854    6402.3487    11755.289    1838.9261 
  578100    301.83122   -1161.3419    6468.4927    11755.312    1928.9905 
  578200    302.09327   -1161.2198    6462.6738    11755.213    1916.9205 
  578300    297.71266   -1163.1848    6558.2382    11755.228    1855.8758 
  578400    306.61014   -1161.2321    6366.0951    11755.118    1968.6811 
  578500    300.31527   -1168.4623    6507.8391    11755.152    1992.1455 
  578600    300.74411   -1166.6436    6496.8484    11755.141    1900.6138 
  578700    301.88873   -1164.1653    6469.9282    11755.152    1954.4248 
  578800    303.04186   -1162.1614    6443.3145    11755.177    1942.2482 
  578900      302.845   -1164.0165    6449.3777     11755.18    1933.7307 
  579000    300.24416   -1161.8595    6502.7777    11755.174     1989.447 
  579100    299.62341   -1158.0179    6512.2247    11755.201    1977.3916 
  579200    302.04122   -1157.1388    6459.6137    11755.122    1910.5836 
  579300    302.58903   -1157.0536    6447.8412    11755.138    1920.8456 
  579400    302.61892   -1163.7251    6453.9292    11755.193    1992.8784 
  579500     300.8727   -1161.7779    6489.1711    11755.077    2002.1552 
  579600    303.90882   -1162.8235    6425.3752    11755.097     1944.489 
  579700    300.02856   -1166.1502    6511.7021    11755.202    1970.6672 
  579800    301.87344   -1164.0436    6470.2144    11755.234    1944.1638 
  579900    302.13811   -1166.8554    6467.3752    11755.237    1896.5531 
  580000    304.49999   -1162.6361    6412.6878    11755.227    1942.5101 
  580100    300.97334   -1158.5367    6484.0159    11755.313    1974.5843 
  580200    303.58041   -1166.4418    6436.1547    11755.242    1919.4183 
  580300    300.90158   -1169.9514    6496.9238    11755.273    1873.0729 
  580400    302.51017   -1162.9636    6455.6353    11755.337     1889.443 
  580500    299.68334   -1162.8745     6515.844    11755.244    1907.2238 
  580600    302.54357   -1171.6065    6463.5123    11755.285     1984.245 
  580700    303.64044   -1170.5172    6439.0269    11755.322    2029.2411 
  580800    302.28557    -1165.353    6462.7493    11755.264    1950.3839 
  580900    299.28712   -1157.7471    6519.2271     11755.29    1992.0536 
  581000    303.43702   -1162.9296    6435.6666    11755.203    1978.9647 
  581100    301.89444   -1166.2006    6471.8989     11755.21    1902.8144 
  581200    304.78336   -1160.0266    6404.1131    11755.315    1905.9579 
  581300    302.19913   -1163.9039    6463.2247    11755.342    1981.8369 
  581400    300.52844   -1158.2282    6493.1516    11755.252    1950.2085 
  581500    298.21881   -1158.2741    6542.5627    11755.276    1969.1954 
  581600    300.12149   -1159.2405     6502.777    11755.172    1973.6451 
  581700    301.91699   -1161.3356    6466.5493    11755.207    1973.5625 
  581800    304.22368   -1163.1314    6419.0511    11755.192    1929.6114 
  581900    303.25897   -1163.1786    6439.6573    11755.141    1969.2408 
  582000    297.96337   -1157.4977    6547.0194    11755.052    1937.7455 
  582100    303.08772   -1159.4262    6439.5279    11755.106     1918.136 
  582200    301.04021   -1158.3805    6482.1805    11755.062    1964.5005 
  582300     300.1125   -1152.5439    6496.1497    11755.049    1940.4952 
  582400    300.51985   -1155.5567    6490.4272    11755.016    1917.0032 
  582500    302.91933   -1158.9637    6442.7754    11755.218    1956.6212 
  582600     301.6989   -1157.1366    6466.9151    11755.113    1940.0564 
  582700     300.9849   -1161.9716    6487.0305    11755.139    1925.3759 
  582800    301.08267   -1160.1359    6483.0838    11755.117    1931.0501 
  582900    299.97911   -1161.9678    6508.5426    11755.168    1977.0472 
  583000    305.84663   -1164.1907    6385.3614    11755.115    1954.4395 
  583100    299.16922   -1162.1553    6525.9529    11755.089    1999.2167 
  583200    304.39576   -1161.0631    6413.2481    11755.133    1910.0641 
  583300     299.2628   -1158.9038    6520.7078    11755.094    1996.3211 
  583400    304.83201   -1155.8726    6398.7584    11755.154    1977.3513 
  583500    301.14878   -1159.2002    6480.8913    11755.273    1931.4817 
  583600    304.35349   -1167.3603    6420.5631    11755.248    1977.3829 
  583700    303.32864   -1167.8389    6442.9018    11755.214    1975.9855 
  583800    298.36084   -1165.6417     6546.935    11755.315    1956.2479 
  583900    307.87729   -1171.5085    6349.5362    11755.354    1896.0985 
  584000    300.11813   -1168.3903    6512.1864    11755.359     1943.432 
  584100    303.60726   -1169.8071    6439.0544    11755.351    1996.2706 
  584200    299.37928   -1164.2229    6523.7513    11755.307    1998.1279 
  584300    304.32338   -1163.4277    6417.3002    11755.274    1943.4439 
  584400    298.94633    -1164.476    6533.1673    11755.221    1946.4094 
  584500    304.10192   -1162.3168    6420.8145    11755.169    1870.5169 
  584600    302.06675   -1165.6648    6467.6913    11755.219    1912.9896 
  584700    302.63508   -1163.2778    6453.2239     11755.28    1905.1944 
  584800    302.39051   -1164.8883    6459.9821    11755.203    1895.7848 
  584900    299.56345   -1159.9891    6515.4593    11755.184    1945.0812 
  585000    302.14548   -1162.6413    6462.9953    11755.229    1909.8699 
  585100    304.33793   -1163.2159    6416.7684    11755.265    1922.7012 
  585200    303.33543   -1164.8573    6439.6976    11755.136    1976.0768 
  585300     301.8569   -1157.8197    6464.1182    11755.008    1888.9738 
  585400    299.78011   -1160.7828    6511.5452    11755.105    1926.7884 
  585500    300.09114   -1162.0176    6506.0386    11755.008    1927.4839 
  585600     303.7777   -1154.0954    6419.4418    11755.091    1962.6519 
  585700    302.66245   -1160.0213    6449.1984    11755.096    2007.0837 
  585800    301.07811   -1161.1495    6484.2207    11755.143    1988.1336 
  585900    300.74044   -1166.3537    6496.5963    11755.101    1994.5806 
  586000    306.01718   -1163.0077    6380.5946    11755.174     1891.847 
  586100    302.21893   -1158.4087    6457.1895    11755.224    1938.1563 
  586200    299.19819   -1167.1134    6530.3698    11755.167    2027.0764 
  586300    305.42053   -1167.0403     6397.278    11755.079    1897.5529 
  586400    298.51161   -1158.9618    6536.9254    11755.206    1958.2729 
  586500    303.70959   -1155.0371    6421.8992    11755.151    1947.8296 
  586600    298.16872   -1163.6523    6548.8603    11755.125    1998.4744 
  586700    304.40944   -1161.3592    6413.3238    11755.205    1996.5268 
  586800    302.64566   -1163.5195    6453.1667    11755.207    2019.1816 
  586900    298.10982   -1163.3816    6549.9236    11755.201    1944.4917 
  587000    300.84965   -1166.3283    6494.3908    11755.254    1947.4381 
  587100    300.68058    -1169.104    6500.8486    11755.324    2018.1756 
  587200    303.98341   -1169.5255    6430.7047    11755.318    1933.1607 
  587300    299.69669   -1163.9426    6516.5881    11755.205    1959.4288 
  587400    301.42111   -1162.0343    6477.7797    11755.145    1920.5594 
  587500    298.96308   -1166.3057    6534.5676    11755.149    1900.1198 
  587600    303.63561   -1158.4637    6426.9366    11755.182     1868.387 
  587700    300.30715    -1152.789    6492.3132    11755.126    1944.9454 
  587800    305.62396   -1154.6733    6380.6202    11755.134    1847.6157 
  587900    302.61805   -1161.6212    6451.7765    11755.126    1902.9018 
  588000    302.59611   -1165.1095    6455.7525    11755.144    1948.9063 
  588100    301.34632   -1156.7173    6474.0129    11755.097    1939.0062 
  588200    298.16007   -1159.9807    6545.3636    11755.115    1974.5934 
  588300     300.1473   -1154.5771    6497.5112    11755.121    1952.5324 
  588400    300.43943   -1154.5596    6491.1902    11755.058    1973.8276 
  588500    299.77459   -1153.5432    6504.3287     11755.01    1911.0491 
  588600    303.40136   -1152.7347    6426.1248    11755.094    1880.9158 
  588700     301.7115   -1154.9779    6464.4842     11755.11    1964.9103 
  588800    300.63576    -1149.034    6481.5126      11755.1    1952.0384 
  588900     300.8268   -1157.6352    6485.9688    11755.037    1893.7105 
  589000    302.89945   -1163.1943    6447.3369    11755.124    1858.4248 
  589100    303.59186   -1159.3907    6428.7005    11755.084     1908.349 
  589200    300.01332   -1153.6634    6499.3993     11755.06    1941.0037 
  589300    302.94251   -1161.1724    6444.3209     11755.05     1941.357 
  589400     302.1501   -1151.8089    6451.8974    11755.062    1998.0982 
  589500    303.63841   -1156.3399    6424.6569    11755.086    1928.9107 
  589600    301.55679   -1165.2551    6478.0938    11755.137    1907.3873 
  589700    301.99702   -1162.7514     6466.222    11755.174    1900.3491 
  589800    301.55955   -1162.4467    6475.2203    11755.131    1841.6196 
  589900    302.07093    -1161.704    6463.6035    11755.182     1864.404 
  590000    301.99713   -1167.9299    6471.5236    11755.299    1935.4871 
  590100     302.6063   -1164.0898    6454.5457    11755.175    1930.4501 
  590200    301.02882   -1166.0193    6490.2594    11755.259    1922.2246 
  590300    300.53486    -1166.663    6501.4884    11755.292    1936.9698 
  590400    303.89469    -1166.615    6429.7598    11755.389    1935.5828 
  590500    300.24973    -1167.593    6508.5147    11755.297    1954.7758 
  590600    300.69184   -1164.6499    6496.1317    11755.302    1938.6702 
  590700    302.18185     -1163.12    6462.7127    11755.244    1943.1414 
  590800    300.00733   -1160.3014    6506.3711    11755.266    1946.0064 
  590900    302.49337   -1164.4083    6457.3204    11755.219     1976.756 
  591000    306.40362   -1162.2625    6371.5762    11755.157    1915.9392 
  591100    301.03277   -1156.8971    6481.0365    11755.243    1905.7452 
  591200    304.13447   -1163.4198    6421.2224    11755.169    1926.5128 
  591300    299.39103   -1165.1354    6524.3035    11755.198    1940.0355 
  591400    304.40891   -1162.3841    6414.3047     11755.15    1932.9423 
  591500    302.10462   -1162.2032    6463.3622    11755.161    1961.4835 
  591600    300.38596   -1154.9565    6492.7501    11755.079    1962.0514 
  591700    300.69387   -1156.0524     6487.219     11755.03    1914.7766 
  591800    302.42898   -1163.6313    6457.7877    11755.088    1898.7143 
  591900    299.05201   -1159.3338    6525.5995    11755.053     1928.234 
  592000    303.83068   -1157.4498    6421.6175    11755.044    1940.1647 
  592100    301.15035   -1156.8099    6478.3053    11755.111     1946.034 
  592200    302.69176   -1164.1831    6452.7216    11755.084     1825.801 
  592300    297.56955   -1164.0791    6562.1041    11755.142    1921.4411 
  592400    302.81799   -1160.3791    6446.2812    11755.144    1875.3331 
  592500    299.23404    -1159.614     6522.101    11755.163    1887.1378 
  592600    302.83829   -1161.3604     6446.891    11755.206    1893.7504 
  592700    300.37397   -1163.0207     6501.218    11755.226    1937.6611 
  592800    302.33088   -1161.8905    6458.2416    11755.186    1930.9931 
  592900    300.88581   -1156.9376    6484.2247    11755.251    1942.1212 
  593000    307.40444   -1168.5839    6356.6511    11755.292    1878.8251 
  593100    301.45976   -1164.7015    6479.7902    11755.314    1833.5328 
  593200    302.12166   -1163.1209    6464.0297    11755.275     1853.675 
  593300    303.71807   -1165.1937    6432.0647    11755.342    1908.3468 
  593400    303.67928    -1171.269    6438.9843    11755.357     1915.903 
  593500    301.54499   -1165.4727    6478.7562    11755.329    1889.9566 
  593600    308.78912   -1170.2417    6328.7041    11755.268    1877.3712 
  593700    297.56355   -1165.3315    6563.6739    11755.331    1967.4224 
  593800    306.52128   -1168.1331    6375.0272    11755.251    1887.7538 
  593900    301.54121   -1160.1762    6473.4544    11755.244     1865.538 
  594000    301.08584   -1166.1517    6489.2407    11755.326    1937.1995 
  594100    304.42231   -1164.5461    6416.3589    11755.328    1921.7761 
  594200    303.41288   -1165.3202    6438.5995     11755.23    1962.8434 
  594300    303.02073   -1165.7042    6447.4626    11755.331    1960.5194 
  594400    301.78512   -1157.1036    6465.1877     11755.26    1896.4276 
  594500    299.85688   -1154.9827    6504.2038    11755.203    1892.0359 
  594600    304.80525   -1153.5254    6396.9001    11755.071    1895.4066 
  594700    303.15434   -1162.8804    6441.6307    11755.178    1917.0672 
  594800     302.4208   -1162.0535    6456.4782    11755.181    1900.8024 
  594900    299.18101    -1158.399    6521.9457     11755.09     1876.274 
  595000    303.69539   -1161.0288    6428.0317    11754.989    1889.4362 
  595100    299.31133   -1154.5447    6515.2836    11755.066    1935.5219 
  595200    302.92287   -1156.0618    6439.6217    11755.042    1936.7352 
  595300    302.33276   -1152.7356    6448.9271    11755.067    1931.5769 
  595400    302.16918   -1155.3386    6455.0711    11755.113    1928.2555 
  595500    300.06373   -1159.6648    6504.3451    11755.081     1918.869 
  595600    302.11907   -1158.7244    6459.4398    11755.026    1836.7678 
  595700    300.44027   -1160.7897    6497.4968    11755.153    1938.0647 
  595800    299.11282   -1162.5434     6527.641    11755.184     1927.168 
  595900    301.24221   -1163.7588    6483.2963    11755.115    1908.7217 
  596000    302.46517   -1157.1103    6450.6267    11755.221    1895.0457 
  596100    300.32488   -1162.0995    6501.2991     11755.18    1954.6651 
  596200    299.40861   -1154.6578    6513.4783    11755.226    1942.5846 
  596300    305.54511   -1165.6341    6393.3377    11755.206    1880.0233 
  596400    303.64879   -1159.5661    6427.7969    11755.221    1915.0425 
  596500    303.89914   -1163.2238    6426.1085    11755.224    1944.6072 
  596600    303.19344   -1170.9586    6448.9707    11755.275    1936.5032 
  596700    302.96168   -1171.6999    6454.6053    11755.217    1850.4431 
  596800     302.3932   -1171.1711    6466.2463    11755.242     1927.625 
  596900     304.2073    -1171.615    6427.9914    11755.299    1913.4032 
  597000    298.32932   -1168.3599    6550.3156    11755.304     1968.844 
  597100    302.88502    -1167.164    6451.7967    11755.306     1942.876 
  597200    303.26109    -1167.835    6444.4196    11755.293    1923.2331 
  597300     303.7427    -1161.343    6427.5836    11755.237     1868.652 
  597400    302.45796   -1165.8866    6459.5768     11755.24    1921.0385 
  597500    303.49532    -1161.943     6433.506    11755.275    1938.7822 
  597600    300.32853   -1162.7335     6501.947    11755.272    1961.5887 
  597700    303.86513   -1168.4264    6432.0736    11755.259    1924.7643 
  597800    304.18203   -1169.1391    6426.0509    11755.294    1923.2007 
  597900    297.99161   -1165.7057    6554.8061    11755.234    1936.5895 
  598000    301.82839   -1158.3745    6465.4702    11755.196     1958.492 
  598100    301.69499   -1162.2212    6472.0979    11755.127    1936.1626 
  598200    303.77924   -1162.8741    6428.2739    11755.177    1881.9447 
  598300    298.45461   -1156.0926     6535.129    11755.061     1900.963 
  598400    301.04802   -1156.4563    6480.0137    11754.986    1862.1038 
  598500    300.11354   -1160.6238    6504.1431    11754.985    1915.3924 
  598600    304.31147   -1158.6193    6412.5543    11755.083    1895.5837 
  598700    300.87517   -1156.6062    6483.8581    11754.988    1905.4721 
  598800    302.30297   -1159.8643    6456.6544    11755.029    1870.9856 
  598900    299.22687   -1158.4169    6520.9719    11755.078    1891.9006 
  599000    300.97838   -1161.4355    6486.5544     11755.06    1888.5656 
  599100    304.55705   -1159.4944    6408.0781    11754.978     1854.977 
  599200    303.12238   -1157.5868    6436.8421        11755    1895.3956 
  599300    300.54299   -1158.1833    6492.4736     11754.93    1928.8181 
  599400    304.70222   -1157.9676    6403.3795    11754.907    1892.5424 
  599500    303.81557   -1155.3897    6419.7795    11754.943    1939.3066 
  599600    297.20441   -1158.8061    6564.4542    11754.964     1989.876 
  599700    302.78795   -1162.3922    6448.7452    11754.953    1937.0115 
  599800    299.53781   -1151.7144    6507.5573    11755.009    1922.7174 
  599900    305.02611   -1162.6752    6401.2698    11755.009    1928.6308 
  600000    300.59601   -1158.1614    6491.4061    11755.017    1910.2491 
Loop time of 281.256 on 8 procs for 300000 steps with 7168 atoms

Pair  time (%) = 137.362 (48.8389)
Bond  time (%) = 81.1353 (28.8475)
Neigh time (%) = 19.6658 (6.99214)
Comm  time (%) = 32.7527 (11.6452)
Outpt time (%) = 0.484215 (0.172162)
Other time (%) = 9.85555 (3.50412)

Nlocal:    896 ave 902 max 890 min
Histogram: 2 0 0 2 0 1 0 1 0 2
Nghost:    2842.25 ave 2852 max 2839 min
Histogram: 4 1 0 2 0 0 0 0 0 1
Neighs:    23610.4 ave 23948 max 23238 min
Histogram: 2 0 0 2 0 0 1 0 1 2

Total # of neighbors = 188883
Ave neighs/atom = 26.3509
Ave special neighs/atom = 157.056
Neighbor list builds = 3056
Dangerous builds = 0
# −−−−−−−−−−−−−− Flux calculation in nve −−−−−−−−−−−−−−−
reset_timestep  0
compute         PE all pe/atom
compute         KE all ke/atom

variable        CX atom (vx*(c_KE+c_PE))
compute         Jcx all reduce sum v_CX

variable        CZ atom (vz*(c_KE+c_PE))
compute         Jcz all reduce sum v_CZ

variable        CY atom (vy*(c_KE+c_PE))
compute         Jcy all reduce sum v_CY

compute         SA all stress/atom virial

variable        VX atom -(c_SA[1]*vx+c_SA[4]*vy+c_SA[5]*vz)*1.4593e-5
compute         Jvx all reduce sum v_VX

variable        VZ atom -(c_SA[3]*vz+c_SA[6]*vy+c_SA[5]*vx)*1.4593e-5
compute         Jvz all reduce sum v_VZ

variable        VY atom -(c_SA[2]*vy+c_SA[6]*vz+c_SA[4]*vx)*1.4593e-5
compute         Jvy all reduce sum v_VY

variable        Jx equal (c_Jcx+c_Jvx)/vol
variable        Jz equal (c_Jcz+c_Jvz)/vol
variable        Jy equal (c_Jcy+c_Jvy)/vol

fix             JJTx all ave/correlate $s $p $d                 v_Jx type auto file J0Jt_tx.dat ave running
fix             JJTx all ave/correlate 5 $p $d                 v_Jx type auto file J0Jt_tx.dat ave running
fix             JJTx all ave/correlate 5 20000 $d                 v_Jx type auto file J0Jt_tx.dat ave running
fix             JJTx all ave/correlate 5 20000 100000                 v_Jx type auto file J0Jt_tx.dat ave running

fix             JJTz all ave/correlate $s $p $d                 v_Jz type auto file J0Jt_tz.dat ave running
fix             JJTz all ave/correlate 5 $p $d                 v_Jz type auto file J0Jt_tz.dat ave running
fix             JJTz all ave/correlate 5 20000 $d                 v_Jz type auto file J0Jt_tz.dat ave running
fix             JJTz all ave/correlate 5 20000 100000                 v_Jz type auto file J0Jt_tz.dat ave running

fix             JJTy all ave/correlate $s $p $d                 v_Jy type auto file J0Jt_ty.dat ave running
fix             JJTy all ave/correlate 5 $p $d                 v_Jy type auto file J0Jt_ty.dat ave running
fix             JJTy all ave/correlate 5 20000 $d                 v_Jy type auto file J0Jt_ty.dat ave running
fix             JJTy all ave/correlate 5 20000 100000                 v_Jy type auto file J0Jt_ty.dat ave running

run             1000000
Memory usage per processor = 13.8919 Mbytes
Step Temp E_pair E_mol TotEng Press 
       0    300.59601   -1158.1614    6491.4061    11755.017    1910.2491 
     100    301.80981   -1164.0797    6471.4967     11755.12    1922.1972 
     200    300.45277   -1162.0956    6498.5383    11755.155    1920.8742 
     300    303.53609   -1160.6909    6431.1576     11755.05    1890.3073 
     400    301.07982   -1157.9581    6480.9475    11755.098    1946.1984 
     500    302.16278   -1159.6817    6459.6497    11755.212    1936.8301 
     600    304.42968   -1166.4243    6417.9072    11755.156     1922.534 
     700    301.59035   -1162.6654    6474.7258    11755.075    1866.5783 
     800    301.18828   -1161.5673    6482.2539    11755.112    1937.9502 
     900    301.82909   -1161.9608     6469.013    11755.168    1903.0771 
    1000    300.00607   -1155.6801    6501.7242    11755.213    1880.9955 
    1100    304.37519    -1158.137    6410.6866    11755.059    1869.1867 
    1200      301.619   -1165.9622    6477.4923    11755.157    1918.1054 
    1300    302.39249   -1165.0207    6460.0036    11755.134    1876.9866 
    1400    302.66447   -1162.6859    6451.8477    11755.124     1883.181 
    1500    301.11254   -1163.4453    6485.8157    11755.178    1928.6493 
    1600    300.57952   -1159.2265    6492.9634    11755.157    1896.5368 
    1700    302.08235    -1158.145     6459.752    11755.133    1936.3622 
    1800    303.87082   -1163.7059    6427.1181    11755.146    2001.1016 
    1900    303.61486   -1157.2984    6426.1515    11755.119    1954.9775 
    2000    298.53737   -1157.2755    6534.6788    11755.196    1888.8578 
    2100    302.35845   -1157.8947    6453.7002     11755.23    1893.1176 
    2200    303.42616   -1160.4923    6433.5117    11755.254    1922.3198 
    2300     301.1047   -1161.7097    6484.3148    11755.245    1985.6694 
    2400    302.26749   -1164.9884    6462.8054    11755.298     1932.201 
    2500    300.26372    -1161.896    6502.4302    11755.208    1860.0588 
    2600    299.30923   -1162.1009    6523.0726    11755.254    1914.1737 
    2700    303.83614   -1160.7875    6425.0962    11755.302    1970.0064 
    2800    302.95742   -1157.1345    6440.1379    11755.224    2025.5776 
    2900    303.46619   -1162.4892    6434.5675    11755.168    1989.8813 
    3000    299.87455   -1159.5147    6508.3455     11755.19    1992.7551 
    3100    300.58452   -1157.3466    6491.0277    11755.208     1901.838 
    3200    304.21024   -1161.5796    6417.6718    11755.077    1927.8087 
    3300     302.5994   -1166.0923    6456.6415    11755.121    1967.3477 
    3400    301.53783   -1158.7553    6472.0115    11755.149    1983.6063 
    3500    300.07227   -1160.7198    6505.2925    11755.156    1954.2379 
    3600    301.92683    -1167.835    6472.7889    11755.157     1921.831 
    3700    301.77579   -1164.8753    6473.0692    11755.171     1862.143 
    3800    302.61677   -1164.2819    6454.4871    11755.148    1882.8118 
    3900    304.47192   -1161.9778    6412.5427     11755.14    1902.6724 
    4000    300.63825   -1158.2492    6490.7046     11755.13    1944.3777 
    4100    304.36278   -1158.1985    6411.0137    11755.059    1927.1525 
    4200    299.33258   -1153.0376    6513.2863     11755.03    1935.6852 
    4300    302.43718   -1158.6195    6452.5927     11755.08    1926.6731 
    4400    303.08211   -1155.5233    6435.7727    11755.134    1961.2794 
    4500    302.73735   -1158.1878    6445.8152    11755.146    1935.1692 
    4600    300.57612   -1160.1444    6493.9635    11755.167    1917.4265 
    4700    301.89503   -1166.3589    6472.0129    11755.178    1892.1105 
    4800     304.1367   -1160.4238    6418.0472    11755.037    1849.2431 
    4900    302.12109   -1153.8199    6454.5922    11755.126    1865.1852 
    5000    303.19072   -1155.7676    6433.6291    11755.066    1882.3214 
    5100      304.044   -1158.0782     6417.671    11755.026    1954.6494 
    5200    301.75147   -1158.5651    6467.2139    11755.106    1892.9441 
    5300    300.63359   -1158.3602    6490.7964    11755.012    1950.4625 
    5400    303.42929   -1160.6287    6433.4125    11755.085     1946.027 
    5500    303.84534   -1161.4797    6425.4519    11755.162    1984.1508 
    5600    299.70152     -1163.81    6516.3835    11755.237    2010.5207 
    5700    302.89034   -1163.8552    6448.2429    11755.175     1903.477 
    5800    299.36649   -1164.7647    6524.5176    11755.259    1973.0194 
    5900    298.02255   -1164.4965    6553.0059    11755.304    2017.9804 
    6000    302.70658   -1162.9734    6451.3288    11755.217      1896.54 
    6100    300.07372   -1164.8907       6509.6    11755.324    1988.8951 
    6200    301.37098   -1163.7626    6480.7201    11755.286     2039.117 
    6300    306.74979    -1164.358    6366.4287    11755.309    1976.1333 
    6400    298.17268     -1161.33    6546.6919    11755.364    1994.5887 
    6500    301.82089    -1163.514    6470.9077    11755.334    1939.2367 
    6600    300.30102   -1168.6778    6508.5281    11755.321    1903.5872 
    6700    303.14904   -1167.1426    6446.1296    11755.301    1929.0102 
    6800    297.84213   -1169.2319    6561.7132    11755.421    2009.7415 
    6900    302.04433   -1166.1043    6468.6827    11755.292    1909.4493 
    7000    299.65169   -1167.3882    6521.0519    11755.262    1922.7778 
    7100    300.06924   -1165.6259    6510.3777    11755.271    1986.7709 
    7200    301.90173    -1158.569    6464.1993    11755.298    1984.7705 
    7300    305.07773   -1160.8658    6398.4605    11755.112    1966.0901 
    7400     299.3468   -1159.6313    6519.7692    11755.223    2006.7144 
    7500    299.25613   -1160.7592    6522.7727    11755.162     1961.441 
    7600    301.01917   -1160.4052    6484.6921      11755.1      1930.61 
    7700    302.36754   -1158.6796    6454.1733    11755.112    1985.8621 
    7800    300.11503   -1168.3293    6512.0775    11755.245    1939.7798 
    7900    298.43408   -1166.3333    6545.9548    11755.208    1918.3851 
    8000    304.36704   -1159.6181     6412.399    11755.116    1875.9833 
    8100    301.83521   -1162.9485    6469.8229    11755.121      1961.21 
    8200    300.46252   -1156.9261    6493.1021    11755.097    1985.4927 
    8300    303.07518   -1149.9129      6430.26    11755.083    1977.2216 
    8400    299.18548   -1156.0883    6519.5889    11755.139    1977.4067 
    8500    305.10841   -1153.0197    6390.0268     11755.18     1929.843 
    8600    300.50963   -1163.1271    6498.3206    11755.121    1947.8977 
    8700    305.11105   -1161.2859    6398.2745    11755.218    1907.8988 
    8800    302.04744   -1163.5757    6465.9666    11755.171    1924.2099 
    8900    299.61599   -1165.6107    6520.0101    11755.235    1931.2869 
    9000    300.68919   -1158.3844    6489.7927    11755.171    1880.7327 
    9100    301.29205   -1158.1639    6476.7328    11755.211    1947.9846 
    9200    303.39731   -1161.3371    6434.9985    11755.279    1934.6361 
    9300    299.04252   -1162.6226    6529.2558    11755.218    2011.6053 
    9400    299.43703   -1160.3568    6518.5384    11755.194    1981.1639 
    9500    301.66819   -1166.0465    6476.6516    11755.283    1994.3663 
    9600    302.05288   -1162.7345    6465.1214    11755.283    1920.9133 
    9700    304.19691   -1160.4546    6416.9953    11755.241    1908.4844 
    9800    303.52737   -1169.3689    6440.1523     11755.18    1954.5156 
    9900    303.26275   -1165.8389     6442.392    11755.296    1910.7786 
   10000    299.90822   -1165.0472    6513.3128    11755.345    1905.1808 
Loop time of 1427.64 on 8 procs for 1000000 steps with 7168 atoms

Pair  time (%) = 563.842 (39.4946)
Bond  time (%) = 297.939 (20.8693)
Neigh time (%) = 65.7722 (4.60704)
Comm  time (%) = 120.883 (8.46731)
Outpt time (%) = 0.00360051 (0.000252199)
Other time (%) = 379.205 (26.5616)

Nlocal:    896 ave 909 max 889 min
Histogram: 1 2 1 2 0 0 1 0 0 1
Nghost:    2844.25 ave 2853 max 2828 min
Histogram: 1 0 0 0 1 1 0 2 1 2
Neighs:    23648.5 ave 24267 max 23210 min
Histogram: 2 0 1 1 1 2 0 0 0 1

Total # of neighbors = 189188
Ave neighs/atom = 26.3934
Ave special neighs/atom = 157.056
Neighbor list builds = 10185
Dangerous builds = 0
