LAMMPS (11 Jun 2012)
# Initialization
atom_style      full
units           real
variable        T equal 300
variable        dt equal 1.0
variable        seed equal 123463
variable        radius equal 0.5
variable        sizet equal 4
variable        sizeb equal -4
variable        p equal 20000    # correlation length
variable        s equal 5        # sample interval
variable        d equal $p*$s    # dump interval
variable        d equal 20000*$s    variable        d equal 20000*5    
# convert from LAMMPS real units to SI
variable        kB equal 1.3806504e-23    # [J/K] Boltzmann
variable        kCal2J equal 4186.0/6.02214e23
variable        A2m equal 1.0e-10
variable        fs2s equal 1.0e-15
variable        convert equal ${kCal2J}*${kCal2J}/${fs2s}/${A2m}
variable        convert equal 6.9510174124148567155e-21*${kCal2J}/${fs2s}/${A2m}
variable        convert equal 6.9510174124148567155e-21*6.9510174124148567155e-21/${fs2s}/${A2m}
variable        convert equal 6.9510174124148567155e-21*6.9510174124148567155e-21/1.0000000000000000777e-15/${A2m}
variable        convert equal 6.9510174124148567155e-21*6.9510174124148567155e-21/1.0000000000000000777e-15/1.0000000000000000364e-10
variable        b_eq equal 10.0/3.0

# setup problem
dimension       3
boundary        p p p
neighbor        2    bin
pair_style      lj/cut 10.0
bond_style      morse
read_data       lammps.data
  9 = max bonds/atom
  orthogonal box = (0 0 0) to (80 80 80)
  2 by 2 by 2 MPI processor grid
  7168 atoms
  33696 bonds
  10 = max # of 1-2 neighbors
  86 = max # of 1-3 neighbors
  824 = max # of 1-4 neighbors
  164 = max # of special neighbors
pair_coeff      1 1 0.000 3.500
pair_coeff      2 2 0.000 3.500
pair_coeff      1 2 0.105 3.500
bond_coeff      1 10 1.8 ${b_eq}
bond_coeff      1 10 1.8 3.3333333333333334814
bond_coeff      2 5 0.805 7.4536
bond_coeff      3 10 1.8 ${b_eq}
bond_coeff      3 10 1.8 3.3333333333333334814
bond_coeff      4 5 0.805 7.4536
velocity        all create $T ${seed} mom yes rot yes dist gaussian
velocity        all create 300 ${seed} mom yes rot yes dist gaussian
velocity        all create 300 123463 mom yes rot yes dist gaussian
timestep        ${dt}
timestep        1
thermo          100
dump            T1 all cfg 600000 *.cfg id type xs ys zs
dump            T2 all xyz 10000 traj.xyz
#dump_modify    1 element Cu
# −−−−−−−−−−−−− Equilibration and thermalisation −−−−−−−−−−−−−−−−
fix             NVT all nvt temp $T $T 10
fix             NVT all nvt temp 300 $T 10
fix             NVT all nvt temp 300 300 10
run             300000
Memory usage per processor = 11.5453 Mbytes
Step Temp E_pair E_mol TotEng Press 
       0          300   -906.89526 0.00012694983    5502.1446    343.62551 
     100    244.97815   -934.99846    7039.4404    11338.024    2175.8146 
     200     292.9908   -991.75852    9954.6537    15222.194    1148.2766 
     300    302.17818   -991.55701    8326.2865    13790.303    479.65684 
     400    299.06876   -969.87461    6426.6044    11845.875    781.95343 
     500    299.83711   -953.88641    5742.0626    11193.736    1235.5947 
     600    301.74999   -951.51703    5688.1695    11183.078    1214.7181 
     700     298.3798   -962.79444    6538.0839    11949.716    1187.9601 
     800    298.51775   -973.08268    7063.3587     12467.65    1108.4121 
     900    298.44254   -975.26613    6983.3637    12383.865    1094.2845 
    1000    301.07037   -971.31436    6632.5313    12093.124    1095.4987 
    1100    297.97445   -966.21372      6384.08    11783.633    1158.1062 
    1200    302.87628   -965.20109    6228.2042     11733.49    1140.3385 
    1300    299.23374   -967.76106    6236.8208    11661.729    1070.1483 
    1400    300.19695   -975.58033    6556.5394    11994.206    1179.2976 
    1500    296.61355   -980.65395    7023.2678    12379.307    1378.3701 
    1600    305.41546   -979.21451     6782.154    12327.672    1443.0618 
    1700    299.90478    -979.2296    6309.2686    11737.044    1331.8779 
    1800    300.44958   -980.01189    6445.9356    11884.568    1413.7784 
    1900     296.2298   -982.13945    6574.9681    11921.324    1399.9614 
    2000    304.42837   -984.89156    6510.7275    12029.481    1399.8396 
    2100    297.33102   -989.14159    6316.5777    11679.457    1408.0751 
    2200    299.52902   -996.77046    6394.7242    11796.932    1543.1237 
    2300    307.85624   -1006.4021    6402.0366    11972.511    1500.1832 
    2400    300.47891   -1020.8064    6598.9805    11997.445    1489.6214 
    2500    298.28187   -1034.1614    6616.5025    11954.676    1441.4456 
    2600    295.58495   -1045.7767    6345.1608    11614.103    1384.6263 
    2700    299.90918   -1062.2006    6340.1907     11685.09    1402.9893 
    2800    297.66883   -1080.1498    6650.5981    11929.686    1498.0617 
    2900    303.37513   -1095.1824    6428.7599    11814.722    1508.1345 
    3000    293.79156   -1112.1045    6152.0758    11316.377    1525.1659 
    3100    305.36446    -1123.117    6198.9776    11599.504    1543.7595 
    3200    303.81045   -1128.9733    6277.2919    11638.763    1504.1501 
    3300    297.13492   -1141.3781    6165.1597    11371.613    1449.3282 
    3400    300.60664   -1141.2438    6116.6749    11397.431    1532.3653 
    3500    298.32674   -1133.2491    6256.8926    11496.937    1629.2607 
    3600    300.55541   -1129.2416    6383.7135    11675.377    1712.1563 
    3700    299.71818   -1129.3025    6227.8358    11501.552    1755.5797 
    3800    301.13256   -1133.4213    6161.2323    11461.046    1788.7564 
    3900     303.5857   -1126.2274    6145.1144     11504.53    1716.9251 
    4000    300.52216   -1132.6722    6409.3684    11696.891    1810.4217 
    4100    301.21152   -1127.5451    6259.3331     11566.71    1676.5251 
    4200    298.59246   -1142.1217    6376.6394    11613.487    1709.2992 
    4300     305.0379   -1151.9063    6254.8071    11619.568    1786.1266 
    4400    297.57654   -1158.2228    6176.1566      11375.2     1737.771 
    4500    299.89547   -1154.1977    6206.8782    11459.487    1687.0309 
    4600    300.80189   -1146.7151    6287.1053    11566.561    1680.5629 
    4700    299.19887   -1138.9057    6455.8214     11708.84    1686.7221 
    4800    301.64351   -1127.5172    6455.1869    11771.821    1659.1842 
    4900    295.76514   -1108.4658    6299.0984    11509.201    1662.6108 
    5000    301.41283   -1091.6212    6321.5561    11669.158    1764.4915 
    5100    296.68644   -1076.1628    6307.6536    11569.741    1737.1661 
    5200    300.88371    -1064.637    6559.7053    11922.987    1727.4446 
    5300     295.5901    -1056.166    6559.3309    11817.994    1654.9897 
    5400    302.90764   -1048.1934    6480.1789    11903.143     1647.208 
    5500     300.9119   -1039.9884    6491.7053    11880.238    1569.9566 
    5600     300.0017   -1036.5468    6456.8807     11829.41    1607.2489 
    5700    299.07772   -1033.8746    6462.4858    11817.948    1574.3389 
    5800    301.54961   -1032.2806    6579.5827    11989.447     1612.875 
    5900    297.84523   -1031.7663    6458.9368    11790.177    1544.4764 
    6000     300.4302   -1034.2671    6529.2234    11913.187     1578.451 
    6100    298.54441   -1033.3119    6494.1952    11838.827    1570.6991 
    6200    304.23737   -1037.0113     6470.651    11933.204    1588.6044 
    6300    297.78447   -1042.7131    6587.3319    11906.327    1636.6372 
    6400    300.51404   -1048.9664    6524.1271    11895.182    1517.2544 
    6500    300.11991   -1052.7001    6609.0873    11967.988    1516.4594 
    6600    297.20209    -1059.536    6542.5013    11832.232    1547.9032 
    6700    299.94382   -1062.6774    6518.5307    11863.693    1565.2867 
    6800    300.41496   -1075.3494    6456.2394    11798.795    1522.6845 
    6900    297.53899   -1080.0964    6611.4819     11887.85    1551.3776 
    7000    304.26298   -1090.2412    6434.0113    11843.882    1563.7695 
    7100    303.22093   -1098.5033    6316.5946    11695.941    1663.6006 
    7200    299.70426   -1107.9347    6378.0266    11672.814    1734.0266 
    7300    297.59704    -1124.778    6449.9832    11682.909    1765.7808 
    7400    304.64034   -1130.2743    6452.5159    11830.415    1763.0872 
    7500    298.81935   -1135.1079    6414.9687    11663.678    1778.3957 
    7600    300.16399    -1138.544     6277.604    11551.603    1791.7328 
    7700    300.19536   -1132.9169    6171.7293    11452.026    1831.9727 
    7800    300.63156   -1139.0109    6269.6548    11553.176    1843.7437 
    7900    303.11753   -1132.1642    6275.1616    11618.638    1835.9624 
    8000    300.95566   -1129.2731    6407.4886    11707.671    1867.3271 
    8100    300.91675   -1141.8237    6251.1161    11537.917    1836.2861 
    8200    301.79718   -1146.1012     6242.309    11543.642    1809.2822 
    8300    297.57751   -1142.6136    6351.9448    11566.618    1880.8108 
    8400    296.85371   -1155.9863    6276.1154    11461.953    1818.7848 
    8500    300.21552    -1148.918     6276.998    11541.724     1797.077 
    8600    304.76201   -1152.8268    6374.0959    11732.042    1812.5408 
    8700    304.82635   -1152.9381    6246.6285    11605.838    1772.6357 
    8800    296.09905   -1142.7874    6201.3208    11384.235    1749.8092 
    8900    299.90835    -1141.723    6344.7757    11610.135    1763.0381 
    9000    297.45025   -1127.8533    6383.6962    11610.411    1732.3948 
    9100    303.08913   -1127.5941    6413.3557    11760.796    1792.7937 
    9200     298.0666   -1122.8444    6366.8305    11611.722    1768.1776 
    9300    300.54305   -1113.5587    6375.3474     11682.43    1777.0359 
    9400    299.28246   -1107.1299    6400.4168    11686.998    1786.1364 
    9500    298.03128   -1106.0699    6370.2555    11631.167    1714.6032 
    9600    301.02661    -1098.227    6452.5883    11785.333    1711.9038 
    9700    301.19546   -1091.8147    6524.6931    11867.457    1833.7605 
    9800    304.09401   -1086.0967    6500.8489    11911.254    1823.6076 
    9900    296.08118   -1083.5554    6363.6807    11605.445    1703.0688 
   10000    300.63725   -1082.6656    6460.8247    11800.813    1838.1418 
   10100    301.74867   -1085.5535    6407.7742    11768.618    1844.7478 
   10200     302.8739   -1086.1357    6447.6589    11831.959     1739.842 
   10300    299.57944   -1087.0915    6552.5218    11865.485    1698.8083 
   10400    302.86791   -1092.9822    6484.3564    11861.682    1715.5483 
   10500    300.46084   -1089.7673    6510.4278    11839.545    1727.3045 
   10600    292.76896   -1093.7259     6466.707    11627.541    1776.8646 
   10700    300.79406   -1099.9462    6309.0064    11635.064    1746.0902 
   10800    300.39335   -1106.0195    6399.0073    11710.431    1765.9873 
   10900    300.54208   -1107.6777    6398.6898    11711.632    1817.9114 
   11000    299.99935   -1107.9118     6373.228    11674.342    1876.4831 
   11100     302.5952   -1106.4238     6460.321    11818.379    1957.6115 
   11200    302.33525   -1114.8391    6328.8138    11672.903    1861.6269 
   11300    299.32193   -1115.9974    6229.5093    11508.066    1844.8496 
   11400    299.95252    -1110.376    6444.2908     11741.94    1929.3821 
   11500    300.61053   -1115.5293    6375.3399    11681.893    1815.8546 
   11600    297.86363   -1101.9245    6383.0073    11644.482    1849.6036 
   11700    302.51295   -1117.1232    6384.8689    11730.471    1895.0207 
   11800    300.00655   -1115.1199    6396.1956    11690.255    1881.6909 
   11900    301.64759   -1120.2619    6298.9468    11622.923    1819.0504 
   12000    299.26555   -1125.6633    6434.5737     11702.26    1893.8088 
   12100    302.08981   -1130.9218    6343.3866     11666.15    1819.7677 
   12200    299.37134   -1127.8766    6423.6828    11691.416    1805.2682 
   12300    300.37773   -1126.1876    6646.3625    11937.284     1879.779 
   12400    302.34336   -1135.6505    6348.5426    11671.994    1796.8442 
   12500    299.76783    -1135.885    6274.2444    11542.439    1749.5232 
   12600    305.85016   -1132.1308    6339.2031    11741.092    1788.3364 
   12700    298.23094   -1134.2495    6474.7225     11711.72    1808.9056 
   12800    306.15692   -1135.8189    6424.3393    11829.093    1714.8373 
   12900    298.68732    -1138.567     6373.182    11615.611    1796.5182 
   13000    300.95066   -1136.1241     6271.072    11564.297    1851.2619 
   13100    299.93234   -1139.0312    6298.0359    11566.599    1829.0809 
   13200    299.92219   -1132.9719    6351.4161    11625.822    1779.8488 
   13300    305.86939   -1125.6384    6481.4386     11890.23    1900.4671 
   13400    304.14533    -1128.451    6380.9178    11750.065    1882.8773 
   13500    294.88194   -1127.0276    6385.8081    11558.481    1870.1715 
   13600    298.29508   -1118.2027    6330.1181    11584.532    1868.1571 
   13700    299.13174   -1120.4167     6422.972    11693.046    1937.3428 
   13800    297.23583   -1115.7708    6362.1836      11596.4    1840.1875 
   13900     297.7534   -1122.2107    6365.1419    11603.976    1818.7819 
   14000    297.59255   -1114.8503    6391.9648    11634.723    1841.4729 
   14100    299.12127    -1116.947     6337.258    11610.578    1815.5316 
   14200    301.61554    -1117.659    6466.7614    11792.656    1866.3776 
   14300     297.7252   -1109.7852    6455.4345    11706.091    1923.3039 
   14400    304.85646   -1103.2116     6431.722    11841.301    1815.3206 
   14500    298.42127    -1096.386    6475.7065    11754.633    1822.7156 
   14600    300.55396   -1089.1414    6408.5962    11740.329    1771.8719 
   14700    299.59452    -1082.338    6389.9706     11708.01    1710.7521 
   14800    295.94066   -1080.8269    6581.7852    11823.277    1771.0192 
   14900    301.66273   -1073.4795    6516.8183      11887.9    1817.2012 
   15000    301.24743   -1071.5383    6532.8062    11896.957    1873.0766 
   15100    298.24519    -1067.826    6437.2193    11740.944    1823.9139 
   15200    302.32855   -1067.0427    6522.1467     11913.89    1903.9389 
   15300    299.03571   -1067.8549    6497.1917    11817.776    1809.7234 
   15400    299.24338   -1070.5196    6446.1987    11768.555    1790.1139 
   15500    297.00363   -1073.9751    6484.4853    11755.537    1828.6873 
   15600    298.07144   -1080.0954    6441.5676    11729.311    1882.0923 
   15700     300.3674   -1085.3605    6468.5835    11800.112    1862.3817 
   15800    300.22767   -1091.4687    6448.0484    11770.483    1833.8171 
   15900    297.55785   -1099.5492    6418.1324     11675.45    1843.0534 
   16000    303.64173   -1105.2977    6406.2583      11787.8    1823.5821 
   16100    298.79968   -1108.5832    6473.0591    11747.873    1857.1888 
   16200    304.35424    -1108.892    6383.1326    11776.302    1826.8087 
   16300    303.95867   -1111.1342    6426.1585    11808.635    1839.3487 
   16400     298.3083   -1108.2056    6288.0677    11552.761    1762.6547 
   16500    300.95457   -1104.6463    6368.9754    11693.762    1880.7927 
   16600    299.96769   -1087.1009    6465.8642    11787.113     1896.737 
   16700    298.98514    -1104.894    6433.8302    11716.295    1811.8646 
   16800    300.28831   -1104.8701    6271.6249    11581.954    1808.0031 
   16900    294.91441   -1106.2592    6434.7513    11628.886    1882.4656 
   17000    300.57337   -1120.1475    6411.5194    11712.661    1854.5102 
   17100    302.48781   -1116.5866    6396.5294    11742.131    1854.8077 
   17200    295.30643   -1116.2882    6396.9658    11589.446    1807.3041 
   17300    300.73333   -1119.7638    6450.9584    11755.901    1825.2383 
   17400    301.17135   -1115.1634    6412.3524    11731.253    1835.5322 
   17500    298.85849   -1109.7833    6399.1549    11674.025    1869.3421 
   17600    305.90832   -1102.3847    6474.6502    11907.527    1884.5421 
   17700    299.93259   -1102.1983    6467.0067    11772.408     1831.095 
   17800    299.76231   -1099.3549    6439.0201    11743.627    1774.1163 
   17900    296.33862   -1094.7332    6361.3573    11597.444    1731.8008 
   18000    302.58908   -1098.9297    6478.7459    11844.168    1844.0417 
   18100    295.45587   -1098.3986    6455.7769     11669.34    1810.9977 
   18200      302.063   -1098.1873    6343.7018    11698.627     1730.721 
   18300    297.99955   -1107.4019    6519.3152    11778.216    1802.5711 
   18400    304.02071   -1112.8366    6492.5618    11874.661    1830.3209 
   18500    296.48073   -1117.3137    6425.4158    11641.958    1804.6051 
   18600    301.83882    -1126.144    6360.0548    11682.234    1816.8056 
   18700     305.0131   -1128.0434    6349.7774    11737.871    1833.0151 
   18800    299.24339   -1130.0318    6347.9943    11610.838    1861.2842 
   18900     299.2473    -1142.814    6235.3861    11485.532    1775.0478 
   19000    301.24602   -1133.3402    6430.1211     11732.44     1907.515 
   19100     299.9786   -1137.7346    6414.5401    11685.388    1921.1876 
   19200    296.80972   -1143.9077    6253.3744    11450.351    1836.7495 
   19300    300.48429    -1144.045    6357.5004    11632.841    1932.9896 
   19400    292.91598   -1147.1582    6303.6663    11414.209    1827.9734 
   19500    303.32862   -1150.4845    6353.4876    11683.154    1904.8607 
   19600    298.94394   -1155.3562    6330.9389    11562.061    1926.7356 
   19700    302.45784   -1146.7997    6419.6825     11734.43     1899.626 
   19800    298.98417   -1149.2137    6358.5992    11596.724    1883.2124 
   19900     299.9436   -1153.4443    6294.7736    11549.164    1900.5334 
   20000    300.79172   -1143.3541    6368.8252    11651.425    1916.7158 
   20100    297.00832   -1140.0406    6342.9675    11548.054    1872.2477 
   20200    304.12171   -1148.4731    6390.5949    11739.216    1865.2618 
   20300     298.8072   -1145.4086    6383.2258    11621.374    1898.2177 
   20400    298.94861   -1142.4309    6292.0863    11536.234    1827.4082 
   20500    300.70926   -1140.8559    6361.2904    11644.627    1892.6227 
   20600    299.51026   -1134.4424     6393.754    11657.889    1871.7797 
   20700    303.84975   -1124.9958    6529.3966    11895.684    1884.6813 
   20800    301.25922   -1120.3945     6442.338    11757.884    1863.7921 
   20900    299.54816   -1117.4073    6366.9836    11648.963    1847.3887 
   21000    303.43588   -1107.0918    6398.0253    11773.375    1869.4563 
   21100    302.35684   -1109.3036    6495.9419    11846.028    1772.8489 
   21200     297.7863   -1109.9667     6494.405    11746.186    1731.9866 
   21300    300.45738    -1110.093    6433.6691    11742.387    1738.8404 
   21400    297.87424   -1110.5294    6427.0754    11680.172    1768.7737 
   21500     292.9117   -1112.2782     6458.341    11603.672    1774.7357 
   21600    301.06518   -1111.8846     6474.829     11794.74    1788.0087 
   21700    304.86415   -1111.8153    6405.6294    11806.769    1805.7449 
   21800    301.07548   -1110.2334    6387.9762    11709.758    1820.5564 
   21900    296.93469   -1110.8895    6456.7866    11689.451    1854.9291 
   22000    300.37283   -1109.8953    6491.1291    11798.238    1823.7145 
   22100    300.05889   -1111.7786    6354.6715    11653.191    1826.6724 
   22200    301.05152    -1106.697    6405.1091    11729.916     1878.317 
   22300     300.3027   -1115.0137    6437.2864    11737.779    1844.5817 
   22400    299.50328   -1113.3957    6290.6556    11575.688    1775.9243 
   22500    301.07307   -1109.5874    6546.1078    11868.485     1931.213 
   22600    296.26635   -1115.6598    6494.0098    11707.626    1943.1458 
   22700    302.20156   -1109.8898    6318.7516    11664.934    1886.3025 
   22800    304.19262   -1119.2083    6371.9867    11751.387    1918.9349 
   22900    298.32182   -1114.9094    6441.9074    11700.186    1984.1634 
   23000    297.54864   -1104.9071    6421.5698    11673.333    1919.1846 
   23100    302.68314    -1106.712    6494.5531    11854.202    1893.7023 
   23200    297.76878   -1106.7215    6448.4719    11703.123    1866.9188 
   23300    303.93005   -1103.4491    6388.5049    11778.055    1870.9827 
   23400    296.45184   -1105.1537    6459.0155      11687.1    1886.8279 
   23500     302.9204   -1107.0724     6356.083     11720.44    1830.6649 
   23600    293.95445    -1103.353    6425.2259    11601.759    1838.9966 
   23700    300.37887   -1103.2802    6497.7598    11811.613    1847.8035 
   23800    300.05718   -1104.3469    6521.5508    11827.465    1871.8575 
   23900    304.68141   -1105.2828     6457.868    11861.636     1855.579 
   24000    299.92526    -1102.801    6426.7532    11731.395    1853.8881 
   24100    296.70535   -1106.5405    6379.0619    11611.176    1766.8619 
   24200    302.98654     -1108.07    6589.9733    11954.746    1833.0672 
   24300    300.23821   -1114.0975    6492.9574    11792.989    1871.0899 
   24400    305.75297    -1116.219    6363.5745    11779.299    1848.6568 
   24500    300.25944    -1113.033     6414.404    11715.953    1813.6671 
   24600    297.59186   -1117.6657    6443.4051    11683.333    1836.9419 
   24700    301.92178   -1124.0837    6505.8013    11831.813    1865.2815 
   24800    299.52645   -1124.9152    6521.3092    11795.317    1845.8899 
   24900    297.06943   -1129.6354    6398.7494    11615.546    1819.8091 
   25000    294.75919   -1128.0268    6293.9071    11462.958    1844.8902 
   25100    301.09266   -1131.0949    6390.6242    11691.912    1911.8523 
   25200    302.17816   -1129.9603    6418.9861    11744.599    1839.3628 
   25300    302.48311   -1131.5432    6493.6844    11824.229    1884.0234 
   25400    299.08661   -1135.9243    6382.5651    11636.167    1908.8198 
   25500     296.7003   -1147.5833    6273.3215    11464.285    1832.0767 
   25600    299.48368   -1150.9727    6427.7439     11674.78    1859.8764 
   25700    301.49408   -1152.3683    6377.7106    11666.301     1807.105 
   25800    295.33116   -1155.6036    6386.3838    11540.077    1813.0706 
   25900    301.34939   -1158.0288    6425.4434    11705.282    1841.2727 
   26000    294.63105   -1157.9937    6384.0245    11520.371    1866.8653 
   26100    298.75697   -1154.4401    6329.9338    11557.978    1808.3459 
   26200    301.65796   -1155.3952    6316.8843    11605.949    1868.1247 
   26300    301.69648   -1152.3166    6369.3392    11662.305    1855.3618 
   26400    298.41839   -1151.2916    6425.7761    11649.736    1817.9679 
   26500    298.43856   -1158.9427    6415.0741    11631.813      1852.42 
   26600     300.9978   -1160.7008    6295.7924    11565.448    1819.2089 
   26700    300.23006   -1160.4394    6396.4107    11649.926    1820.5664 
   26800     297.7711   -1154.2296    6447.2905    11654.483    1804.8532 
   26900    306.19209   -1151.9153    6562.9642    11952.373    1931.7177 
   27000    297.96277   -1157.0387    6356.1222    11564.601    1902.1144 
   27100    301.26275   -1153.7325    6291.6372    11573.921    1839.9113 
   27200     298.8449   -1149.7807    6433.5194    11668.101     1820.761 
   27300    300.75127   -1157.6225    6436.0918    11703.559    1830.0404 
   27400    298.04566   -1145.0474    6324.9567    11547.197    1749.1673 
   27500    299.98512   -1154.8549    6405.5866    11659.454    1803.3437 
   27600    304.74139   -1154.4712    6381.2293     11737.09    1836.2284 
   27700    300.03731   -1147.1741    6380.1328    11642.795    1856.1457 
   27800    300.84343   -1148.7216    6476.2351    11754.572    1835.4681 
   27900    295.19757   -1148.9299    6435.5342    11593.048    1825.4121 
   28000    302.32313   -1143.1831    6311.8211    11627.308    1873.6965 
   28100    300.50292   -1143.0478    6334.6546    11611.391    1816.7378 
   28200    294.84424   -1136.7634    6417.2126    11579.344    1891.8564 
   28300     300.4593   -1143.0408    6417.7607    11693.572    1919.7955 
   28400    300.93294   -1144.2878    6327.3541    11612.037     1861.926 
   28500     298.4618   -1137.0081    6404.0053    11643.176    1861.5761 
   28600    300.94624   -1144.6253     6445.167    11729.796    1891.7026 
   28700     301.9458   -1143.1031    6353.3732    11660.879    1836.2908 
   28800    297.41754   -1138.4384    6453.4821    11668.913    1864.3936 
   28900    303.62497   -1141.9692    6451.4059    11795.918    1888.6565 
   29000    297.55667   -1143.1906    6347.1923    11560.843    1799.2883 
   29100    300.62532   -1137.3776    6419.1617    11704.183    1909.9151 
   29200    302.49223   -1142.6406    6385.1612    11704.803    1880.6978 
   29300    295.51081   -1141.0314    6429.5623    11601.666    1856.0943 
   29400    303.20648   -1144.6607    6455.7075    11788.588    1863.6716 
   29500    297.79708   -1141.8571    6279.2207    11499.341    1809.2279 
   29600     301.4507   -1143.8048    6424.9709    11721.198    1829.7048 
   29700    305.56763   -1142.8011    6570.0058    11955.188    1829.6283 
   29800    300.84793   -1142.2223    6576.5066    11861.439     1852.634 
   29900    303.40801   -1142.5348    6336.2443    11675.556    1845.6202 
   30000    301.46226   -1148.3047    6261.1491    11553.123    1840.1397 
   30100    297.39094   -1148.6176    6493.8261     11698.51    1846.1239 
   30200    302.60852   -1146.3571     6484.768    11803.178    1838.2738 
   30300    300.09833   -1152.3587    6432.7768    11691.559    1789.3552 
   30400    296.40055   -1158.5073    6298.6883    11472.324    1809.5702 
   30500    304.31247   -1159.4688    6371.3353    11713.035    1925.2068 
   30600    296.16058    -1150.085    6411.1191     11588.05    1856.3144 
   30700    301.32074   -1153.4175    6442.1622        11726    1893.0353 
   30800    302.56103   -1154.9746    6412.2066    11720.984    1963.9622 
   30900    308.36233   -1155.3366    6325.1499    11757.501    1937.1496 
   31000    299.11123   -1161.3933    6319.2087    11547.868     1886.383 
   31100    302.34261    -1163.843    6351.2814    11646.524    1876.0148 
   31200    299.02861   -1169.4127    6405.0271    11623.902    1805.2255 
   31300    300.21621    -1169.679    6420.1567    11664.136    1813.7134 
   31400    298.42323   -1171.7574    6466.6095    11670.207    1920.4792 
   31500    303.06091    -1169.746    6379.1224    11683.808    1859.1286 
   31600    299.05303   -1173.6002    6361.1102    11576.319    1853.8058 
   31700     302.6638   -1165.7712    6317.8296    11618.006    1923.1882 
   31800    295.89616    -1163.243    6351.5042    11509.629    1895.7863 
   31900    301.35221   -1164.9205     6372.978    11645.985    1851.5504 
   32000    294.13696   -1160.1153    6435.5202     11559.19    1920.7447 
   32100    301.10675   -1161.3932     6338.952    11610.242    1832.7658 
   32200    300.94007   -1159.5264    6385.7547    11655.351    1802.9415 
   32300    294.76403   -1154.9893    6420.2149    11562.407    1860.1621 
   32400    299.84019   -1150.2033    6436.0478     11691.47    1858.2755 
   32500    304.30763   -1152.6094     6526.334     11874.79    1849.2073 
   32600    302.79298   -1147.3148    6458.8738    11780.266    1846.2408 
   32700    298.25701   -1137.4988    6374.1955      11608.5    1851.6587 
   32800    302.75413   -1136.0171    6452.4294     11784.29     1860.033 
   32900    302.43712   -1131.1695    6485.2608    11815.196    1824.9382 
   33000    300.21619   -1135.1444    6508.4602    11786.974    1841.7562 
   33100    301.49961   -1134.4675    6375.2653    11681.874    1810.3911 
   33200    295.93876   -1129.4578    6558.5858    11751.406    1828.6494 
   33300    302.62842   -1127.8093    6492.7543    11830.137    1851.4697 
   33400    293.35792   -1128.7435     6364.808    11503.206    1819.4312 
   33500    298.19769   -1123.1067    6408.3855    11655.815    1819.1694 
   33600    301.61147   -1126.7548    6415.4662    11732.178    1859.7497 
   33700    298.22765   -1127.6824    6469.4479    11712.942    1896.2552 
   33800    296.01359   -1130.6726    6384.9522    11578.156     1790.316 
   33900    302.87771   -1132.2867    6443.8416    11782.072    1849.1974 
   34000     302.6643   -1133.3108    6393.7228     11726.37    1943.7481 
   34100    302.45329   -1134.1374     6380.315    11707.628     1892.891 
   34200    297.38995   -1142.2655    6339.4058     11550.42    1856.8018 
   34300    298.86162   -1146.7433    6513.8541    11751.831    1952.3048 
   34400    297.73625   -1142.1662    6352.2762    11570.788    1820.3611 
   34500    296.26966   -1149.2085    6358.2837    11538.422    1840.2569 
   34600    300.50725   -1156.9813     6312.625     11575.52    1853.4763 
   34700      301.062   -1154.6873    6384.4646    11661.505    1933.0278 
   34800    296.20286   -1159.9495    6362.2868    11530.257    1917.7023 
   34900    302.21836   -1165.2274    6377.1669    11668.371    1975.6386 
   35000    302.13044   -1163.4174    6397.4508    11688.587     1930.311 
   35100    300.68382   -1157.5766    6418.0736    11684.146    1888.9548 
   35200    302.77156   -1161.7809    6321.9832    11628.452    1917.9514 
   35300    297.28725   -1158.9494     6354.849    11546.986    1937.6484 
   35400    302.60764   -1156.4795    6349.0151    11657.284    1856.4456 
   35500    295.23756   -1154.0415    6360.1245     11513.38     1884.353 
   35600     307.0548   -1150.1284    6472.2486    11881.875    1920.0493 
   35700    295.12656   -1154.8538    6387.4297    11537.502     1832.684 
   35800    302.91508   -1150.7852    6365.0778    11685.608    1858.9898 
   35900    298.87834   -1155.5814    6354.6952    11584.191     1897.676 
   36000    299.86719   -1152.9961    6413.8417    11667.048    1908.3533 
   36100     305.2805   -1149.0375    6465.4071    11838.219    1908.2405 
   36200    297.48075   -1145.6498    6423.3723    11632.942    1886.1462 
   36300    301.38185   -1137.2917    6474.7816    11776.051    1869.0287 
   36400    307.20894   -1136.7553    6417.1242    11843.417    1803.1693 
   36500    299.23252   -1134.7984    6413.2067    11671.052    1918.4115 
   36600    298.92844   -1129.1479      6377.89     11634.89    1932.2571 
   36700    300.50442   -1125.5637    6530.4185    11824.671    1948.2321 
   36800    303.36878   -1127.4092    6515.8227    11869.422    1943.8541 
   36900    299.35236   -1123.5701    6404.3408    11675.975    1885.5184 
   37000    302.62816   -1124.1167    6527.9698    11869.039    1951.8395 
   37100    298.28562   -1130.2756      6411.48    11653.619    1848.0386 
   37200    304.28108   -1132.1203    6384.6771    11753.055    1889.8323 
   37300    298.58067   -1134.1432    6376.2605    11620.835    1871.2974 
   37400     298.6253   -1136.4251    6389.3942    11632.641    1816.1696 
   37500    298.39084   -1140.3032    6521.7463    11756.105     1901.439 
   37600    306.92842   -1146.0474    6505.2257    11916.233    1879.8583 
   37700    298.39495   -1148.0313    6475.9291    11702.648    1914.4569 
   37800    307.69528   -1152.5515    6285.8911    11706.777    1866.5458 
   37900    296.12445   -1159.5176    6462.5931     11629.32    1877.0769 
   38000    298.94279   -1155.2263    6298.5974    11529.825    1804.4194 
   38100    304.31648   -1157.6448    6490.2821    11833.892    1903.9239 
   38200     305.3302   -1160.6247    6520.1295    11882.416     1906.262 
   38300    302.26831   -1161.5574    6391.5826    11687.524    1836.3047 
   38400    298.12508   -1162.6331    6300.7869    11507.139    1866.3306 
   38500    300.54527   -1160.7262    6416.3957    11676.358    1919.8381 
   38600    299.24651   -1162.2858    6401.8066    11632.463     1856.889 
   38700    297.22133   -1163.0696    6382.7682    11569.376    1837.6566 
   38800    299.78943   -1159.6048    6492.8824    11737.819    1934.9037 
   38900    301.02029    -1156.784    6408.9609    11683.014     1878.487 
   39000    296.62857   -1165.8166    6340.4566    11511.654    1930.1139 
   39100     302.3808   -1160.2242    6368.1461    11667.824    1951.4303 
   39200    296.57338   -1162.7202    6510.9499    11684.065    1968.7604 
   39300    295.84689   -1159.0145    6462.9928    11624.293    1847.5823 
   39400    299.26412   -1154.4219    6397.7808    11636.678    1810.9031 
   39500    302.12294   -1144.4854    6379.2568    11689.164    1812.7735 
   39600    299.20169   -1144.3524    6395.0955    11642.728     1866.629 
   39700    299.10081   -1144.6284    6444.1226    11689.324    1849.3765 
   39800    300.64782   -1140.0973    6515.3998    11798.182    1834.0319 
   39900    300.59028   -1136.8781    6362.7144    11647.486    1855.3974 
   40000    300.26054   -1136.7112    6501.8773    11779.772    1930.4577 
   40100    297.95643   -1139.0618    6467.5132    11693.833    1907.9561 
   40200    304.91215   -1136.9368    6393.1779    11770.221    1858.6197 
   40300    297.57449   -1133.8241    6395.3121     11618.71     1872.656 
   40400    298.70089   -1135.1155    6399.1657    11645.336    1813.4104 
   40500    301.06453   -1135.1799    6540.6689    11837.271    1860.8426 
   40600    299.52592   -1138.8782    6426.2439    11686.277    1836.2885 
   40700     300.0275   -1140.0984    6388.3998    11657.928    1797.1666 
   40800    301.00846   -1144.3014    6482.6038    11768.886    1855.3553 
   40900    300.21947   -1147.9242    6579.3106    11845.115    1924.9346 
   41000    305.07433   -1151.8124     6344.841    11710.473    1869.7823 
   41100    302.56954   -1152.1624    6385.0186     11696.79    1933.6142 
   41200    301.12797   -1150.3026    6461.0823    11743.917    1910.9241 
   41300    297.41947   -1157.9438    6376.7964    11572.763    1831.6191 
   41400    294.72495    -1159.834    6438.4757    11574.988    1925.7843 
   41500    300.43626    -1164.127     6384.659    11638.892    1940.4173 
   41600    293.87926   -1166.5037    6442.9219    11554.698     1966.944 
   41700    300.96926   -1174.6264    6361.6451    11616.765    1889.8101 
   41800    301.22283   -1163.9377    6428.0646     11699.29    1905.1373 
   41900    298.60362   -1167.4244    6529.7406    11741.524    1894.1516 
   42000    302.90778   -1165.2085    6420.3335    11726.285    1891.0076 
   42100    301.50238   -1170.1534    6340.2897    11611.272    1904.0034 
   42200    303.95801   -1168.0552    6440.1935    11765.735    1968.2006 
   42300    297.75346   -1164.7715    6431.3453     11627.62    1926.0838 
   42400    301.68173   -1164.9299    6264.5918    11544.629    1858.3902 
   42500    299.20775   -1171.6413    6499.0781    11719.551    1964.5282 
   42600    297.96772   -1168.3325    6442.9102    11640.201    1874.5811 
   42700    301.88842   -1168.8183    6382.4099    11662.975    1845.7593 
   42800     304.1354   -1167.4014    6384.2346    11714.219    1971.0589 
   42900    303.21474   -1163.6194    6470.0774    11784.176    2053.5006 
   43000    299.23131   -1155.2662    6447.4208    11684.772    1962.0237 
   43100    297.89346    -1154.016     6342.939     11552.96    1894.8096 
   43200    301.22571   -1155.0099    6492.8328    11773.048    2020.1187 
   43300    296.59153   -1155.7539    6405.0075    11585.476    1919.9002 
   43400    300.71462   -1155.4509    6455.9388    11724.794    1869.4727 
   43500    300.28304   -1154.4231    6480.9955    11741.659    1824.0861 
   43600    296.58322   -1156.9628    6586.2773     11765.36    1935.6023 
   43700    296.45002   -1149.0343    6366.2611    11550.427    1876.0454 
   43800    303.53288   -1149.2115    6399.5367     11734.84    1906.1595 
   43900    297.45231   -1144.6961    6493.4955    11703.412    1953.7384 
   44000    302.51351   -1142.0979    6415.1732    11735.812    1891.7257 
   44100    300.96238   -1147.2742     6381.497    11663.822    1925.6066 
   44200    299.52636   -1152.8536    6542.4266    11788.494    1978.8276 
   44300    302.37362   -1148.1514    6388.2073    11699.804    1812.6495 
   44400    303.13977   -1151.7045    6337.1964    11661.608    1830.9348 
   44500    296.77388   -1149.3102    6383.3943    11574.203    1877.2097 
   44600    296.41212   -1139.8972     6468.488    11660.981    1840.0023 
   44700    300.11154   -1154.8732    6420.3548    11676.904    1823.7224 
   44800    304.85692   -1149.1423    6483.8277    11847.486    1869.0828 
   44900    300.46069   -1147.1119    6422.0471    11693.817    1882.7566 
   45000    302.30622    -1159.337    6400.2723    11699.244    1896.6972 
   45100    294.20432   -1152.3233    6374.3816    11507.282    1850.1506 
   45200    302.45252   -1155.1936    6455.1732    11761.414    1892.8462 
   45300    295.46796     -1160.04    6341.7657    11493.945    1894.8721 
   45400    303.49456   -1155.6449    6428.6102    11756.661     1918.277 
   45500    304.18107   -1154.8341    6437.0126     11780.54    1921.7011 
   45600    296.00614   -1153.1652    6421.6627    11592.215    1970.3872 
   45700    303.24889   -1156.5406    6384.4223    11706.329     1898.564 
   45800    301.00892   -1154.9164    6446.6853    11722.363    1949.0724 
   45900    304.06174   -1155.5377    6378.2261    11718.501    1886.7481 
   46000    297.22332    -1153.112    6348.9529    11545.561     1881.812 
   46100    297.26104   -1154.0868    6380.9082    11577.347    1880.9582 
   46200    302.90355   -1152.9426    6415.3495    11733.477    1905.2256 
   46300    300.54112   -1151.8517    6471.1323    11739.881     1874.647 
   46400    298.98263   -1152.3209     6391.283    11626.267    1826.1581 
   46500     299.4621   -1152.0006    6364.4079    11609.956    1791.9636 
   46600    300.70741   -1150.5188    6347.7625    11621.396    1895.0614 
   46700    295.73646   -1149.1186     6448.581    11617.418    1903.4477 
   46800    303.95659   -1151.9268    6511.1189    11852.758    1888.0052 
   46900    300.29098   -1147.6336    6396.4894    11664.112    1837.7146 
   47000    302.55421   -1155.0015    6322.0197    11630.625    1856.6992 
   47100    297.31934    -1152.404    6526.2281    11725.596    1952.4453 
   47200     302.4625   -1153.7375    6377.1005     11685.01    1869.7596 
   47300    297.28631   -1152.4392     6385.751    11584.378    1807.8781 
   47400     300.4789   -1150.9115    6462.2906     11730.65    1872.9953 
   47500    305.54279   -1151.8128    6370.9125    11746.553    1815.1718 
   47600    299.54884    -1157.856    6414.8669    11656.412    1830.7316 
   47700    299.27477   -1152.3153    6452.9095     11694.14    1939.6292 
   47800    302.51562   -1153.3298    6382.9826    11692.435    1828.3827 
   47900    304.54362   -1154.6474    6488.1674    11839.627    1878.7821 
   48000      299.131   -1154.7929    6401.8099    11637.492    1897.1474 
   48100    299.24167   -1160.4119    6399.9209    11632.348    1908.8507 
   48200    294.51646   -1156.8009    6343.5776    11478.669    1844.4183 
   48300    302.19621   -1158.8694    6428.3035    11725.392    1811.9704 
   48400    297.49713   -1162.6262    6464.9771    11657.921    1834.0852 
   48500    299.01414   -1162.8974    6384.7898    11609.871    1824.6254 
   48600    301.23835   -1158.4105    6306.0419    11583.127    1758.2142 
   48700    299.66805   -1158.6142    6449.2287    11692.563    1849.3638 
   48800    304.25414   -1160.6531    6397.9304      11737.2    1883.6022 
   48900    294.60887   -1159.7135    6320.1027    11454.256    1764.0428 
   49000     308.4251   -1165.2684    6401.7742    11825.535    1782.5249 
   49100    297.31179   -1161.6085    6604.2121    11794.214    1836.4581 
   49200    301.15595   -1166.8816    6427.4229    11694.276    1831.1997 
   49300    301.06193   -1164.2673    6267.7162    11535.175    1790.3519 
   49400    301.19314   -1166.6888    6444.2207    11712.061    1869.4609 
   49500    299.88477   -1160.8362    6497.2105    11742.952    1829.6654 
   49600    298.96454   -1167.5901    6368.1791    11587.508    1837.5436 
   49700    299.94565   -1160.2375    6468.5157    11716.157    1926.1802 
   49800    298.47014   -1164.9048    6268.0001    11479.452    1788.9967 
   49900    304.22152   -1161.6197    6469.2842     11806.89    1875.4106 
   50000    298.30714   -1165.1485    6407.8466    11615.572    1829.4096 
   50100    299.45929   -1160.9827    6475.9433    11712.449    1817.5316 
   50200    303.87811   -1163.8646    6571.3965    11899.422     1839.904 
   50300    295.46676   -1161.1905    6434.7228    11585.726    1853.0403 
   50400    298.34596   -1163.0107    6266.9214    11477.614     1839.462 
   50500    298.26675    -1155.357    6353.7284    11570.383    1826.8845 
   50600    296.05419   -1148.9914    6506.5734    11682.326    1920.1804 
   50700     304.9385   -1151.9959    6311.9832     11674.53    1812.8191 
   50800    297.46537   -1150.8955    6427.0829    11631.079    1854.1757 
   50900    304.88215   -1149.5886    6429.9319    11793.683    1857.1509 
   51000    298.03528   -1147.7435    6413.2256    11632.549    1849.3393 
   51100    297.45418   -1152.9425    6374.1344    11575.844    1792.3888 
   51200    302.46168   -1151.2764    6520.6152    11830.968    1870.1316 
   51300    299.23317   -1152.7017    6455.7132    11695.669    1854.4248 
   51400    299.31417   -1148.9344    6481.2849    11726.739    1874.5604 
   51500    302.82743   -1143.8739     6418.781     11744.35    1868.2558 
   51600    297.35953   -1143.7923    6405.0167    11613.855    1892.2147 
   51700    301.54906   -1142.6257    6554.5848    11854.092    1912.1581 
   51800    301.11158   -1142.9688    6446.5024    11736.321    1866.7912 
   51900    301.36557   -1148.1639    6324.9647    11615.014    1811.9577 
   52000    300.13426   -1146.6787    6463.9928    11729.222    1876.6114 
   52100    302.36505   -1154.4484    6387.6293    11692.746    1838.2791 
   52200    303.00408   -1152.6564     6438.621    11759.182     1842.313 
   52300    296.69643   -1155.1815    6493.9324    11677.215    1836.8959 
   52400    304.54754    -1151.702    6418.1947    11772.684    1841.3858 
   52500    297.06051   -1157.3251     6356.328    11545.245      1785.38 
   52600    300.90588   -1157.1316    6523.9733    11795.234    1891.6624 
   52700    296.01643     -1148.92    6395.0961    11570.113    1906.2057 
   52800    302.30033   -1154.1259    6301.5261    11605.583    1917.9286 
   52900    299.36141   -1155.3733    6418.9457     11658.97    1993.7301 
   53000    300.44404   -1158.8743    6420.7959    11680.448    1933.6864 
   53100    299.12305   -1161.7631    6441.1848    11669.727    1879.9308 
   53200    300.81869   -1157.4149    6414.1561    11683.271    1896.1362 
   53300    302.56364   -1167.4401    6426.5394    11722.907     1928.077 
   53400     298.6181   -1158.4781    6444.0861    11665.126    1880.6787 
   53500    300.68297   -1155.9496    6482.5256    11750.206    1948.7631 
   53600    293.58332   -1156.8253    6372.2124    11487.344    1914.8867 
   53700    298.56079   -1150.2629    6321.2628    11549.293    1890.4705 
   53800    303.81529   -1155.6295    6523.1263    11858.044     1975.592 
   53900    296.63238    -1153.617    6535.5158    11718.994    1965.8248 
   54000    299.37701   -1156.6143    6459.6271    11698.743    1868.4182 
   54100    303.88364   -1151.4683    6429.3255    11769.865    1962.4875 
   54200    296.08302   -1151.7255    6375.8289    11549.463    1941.5001 
   54300    298.58034   -1150.7796    6380.7048    11608.636    1900.7803 
   54400    301.21117   -1150.9931    6537.6117    11821.533    1961.4846 
   54500    299.06663   -1148.6336    6430.7605    11671.227    1882.3003 
   54600    297.93618   -1148.8807    6357.1934    11573.262    1855.1871 
   54700    307.02394   -1146.0631    6443.2577     11856.29    1832.1173 
   54800    301.72553   -1147.6925     6433.914    11732.124    1876.9656 
   54900    299.63699   -1150.7731    6474.2166    11724.728    1938.3047 
   55000    294.77462   -1146.8719    6419.2741     11569.81    1847.4832 
   55100    301.61542   -1151.0655    6432.8869    11725.372    1736.4083 
   55200    299.47312   -1155.6451    6563.1121    11805.251    1841.9866 
   55300    303.35397    -1157.851    6437.1026    11759.944    1856.1977 
   55400    300.64892    -1157.063    6308.5058    11574.346    1776.3818 
   55500    296.67616   -1153.1111    6471.1665    11656.086    1819.6813 
   55600    297.03102   -1160.2299    6524.7391    11710.121    1825.8558 
   55700      304.261   -1166.0696    6365.0098     11699.01    1824.8281 
   55800    299.19962   -1160.0863    6312.1105    11543.965    1867.4903 
   55900    300.10098   -1169.4102    6306.7529     11548.54    1888.1516 
   56000    294.74716   -1174.5778    6420.5078    11542.751    1821.3746 
   56100     303.6236   -1167.6541    6426.0609    11744.859    1835.7134 
   56200     303.7207   -1169.9922    6504.6349    11823.169    1909.5676 
   56300    299.75268   -1168.2538    6464.8031    11700.305    1905.8421 
   56400    296.39973    -1171.066    6336.9154    11497.975    1854.6808 
   56500    297.89552   -1162.5451    6377.1034    11578.639    1889.6476 
   56600    299.23521   -1167.1872    6415.6427    11641.157    1917.6838 
   56700    302.30323   -1167.4015    6442.6774    11733.521     1940.754 
   56800    298.72037    -1167.891    6368.8672    11582.679    1895.3921 
   56900    300.15244   -1163.1006    6399.7895    11648.985     1875.203 
   57000    298.71334   -1160.7938    6405.0666    11625.825    1836.4544 
   57100     298.4106   -1157.3158    6476.2444    11694.013    1903.8778 
   57200    301.72211   -1158.4975    6407.4004    11694.733    1880.4202 
   57300    296.77344   -1152.9976    6390.2022    11577.314     1845.696 
   57400    302.76037   -1152.4406    6395.9264    11711.496    1851.3228 
   57500    301.03111   -1148.2717    6490.1077    11772.904     1945.451 
   57600     301.3003   -1149.6181    6368.2831    11655.484     1898.212 
   57700     296.3114   -1145.6137    6404.2824    11588.907    1821.9598 
   57800    300.20778   -1143.9281    6451.5267    11721.077    1794.8802 
   57900    302.98925   -1146.6619    6536.2352    11862.474    1819.8586 
   58000    301.23299    -1142.805    6460.3015    11752.877    1811.9818 
   58100    296.88706    -1139.097    6390.0609    11593.501    1812.1417 
   58200    298.89406     -1137.93    6369.0627    11616.546    1797.1679 
   58300    304.18687   -1142.2657    6488.4178    11844.638    1883.6623 
   58400    299.23738   -1143.6676    6593.5455    11842.625    1921.9821 
   58500    302.46182   -1147.3361    6395.3817    11709.678    1838.0983 
   58600    299.21085   -1152.9519    6286.4615     11525.69     1771.171 
   58700    302.84657   -1155.3159    6602.6062    11917.143    1889.4506 
   58800    295.60634   -1149.7241    6451.3681     11616.82    1845.1254 
   58900    303.37903   -1152.3433    6348.7994    11677.684    1939.0288 
   59000    299.21314   -1153.6223    6398.9804    11637.588    1939.2257 
   59100    303.66877   -1158.0304    6508.7511    11838.138    1989.1412 
   59200    297.40983   -1160.8513    6378.9821    11571.835    1893.3107 
   59300    304.97801   -1167.8968    6383.2624    11730.753    1887.0451 
   59400    300.16125    -1162.841    6366.5374    11616.181    1832.2695 
   59500     299.1488   -1167.1934    6339.6206    11563.282    1813.4995 
   59600    303.07915   -1173.8117    6374.4649    11675.474    1857.9361 
   59700    292.45847   -1170.6733     6392.706    11469.959    1875.3912 
   59800    300.74046   -1172.6214     6357.849    11610.086    1876.3475 
   59900    300.81166   -1172.9003    6429.6458    11683.125    1884.3952 
   60000    293.77143   -1162.7993    6466.2798    11579.456      1861.93 
   60100    301.38068   -1165.1531    6473.7248    11747.108    1866.0549 
   60200    298.01821   -1168.0822    6317.8792    11516.499    1856.9011 
   60300     301.5198   -1171.5683    6338.2735    11608.213    1930.4744 
   60400    296.81801   -1173.6141     6477.622    11645.069    2001.2511 
   60500    305.99014   -1169.7721    6416.8937    11784.131    1871.2643 
   60600    303.69637   -1171.8722    6424.0758    11740.211    1933.7568 
   60700    300.69044   -1161.6591    6554.7543    11816.885     2005.333 
   60800    297.24593   -1159.5526    6361.5168    11552.167    1814.4118 
   60900    299.02045   -1154.5004    6438.2845    11671.897    1876.8879 
   61000    304.92623   -1152.3394    6399.4523    11761.394    1893.3349 
   61100    298.88256   -1153.2656    6431.9577    11663.859    1874.5361 
   61200    302.49161   -1154.8564    6396.7524    11704.165    1816.4958 
   61300    298.97907   -1147.8103    6535.8313     11775.25     1873.582 
   61400    299.37896   -1149.0957    6446.3836     11693.06    1853.1033 
   61500    304.68013   -1154.4314    6403.9011    11758.493    1803.6708 
   61600    298.01947   -1152.7129    6511.6847      11725.7    1889.9102 
   61700    305.43532   -1145.7808     6498.642    11878.018    1874.0711 
   61800    300.65899   -1146.9016    6448.1342    11724.351    1878.5782 
   61900    297.05125   -1149.2817    6459.7136    11656.476    1862.5402 
   62000    304.03899   -1148.7368    6467.4842    11814.074    1826.0711 
   62100    301.47418   -1149.7169    6483.3365    11774.153    1857.9573 
   62200    295.66051   -1151.4136    6420.9419    11585.861     1867.264 
   62300    302.47547   -1152.5714    6445.0772     11754.43    1867.9889 
   62400    308.39537   -1161.5768    6327.9524    11754.769    1846.6459 
   62500    298.96173   -1159.4652    6393.2043    11620.598    1839.9998 
   62600     303.1228   -1157.6428     6507.263    11825.374    1904.8097 
   62700    296.59546   -1163.8644     6457.588    11630.031    1882.6881 
   62800    303.27989    -1161.396    6374.3974    11692.111    1928.0704 
   62900    299.97806   -1161.5156    6423.6225    11670.678    1975.5545 
   63000    299.82365    -1163.144    6456.3446    11698.473    1961.1556 
   63100    300.02657   -1166.1142    6372.9102    11616.403    1951.4446 
   63200    299.54855   -1166.5277    6354.8885    11587.756    1935.4604 
   63300    304.19238   -1163.6476    6438.4818    11773.438    1987.6598 
   63400    298.26603   -1164.1274    6482.0128    11689.881    1918.1292 
   63500     302.1214   -1169.4659     6413.734    11698.628    1989.3625 
   63600    298.46771   -1168.8165    6336.4653    11543.953    1909.8493 
   63700    299.48814   -1163.8084    6430.9117    11665.208    1931.5311 
   63800    300.04847   -1170.2831    6370.9143    11610.706    1848.8985 
   63900    298.56127   -1163.6739    6466.3167    11680.946    1919.7049 
   64000    301.82969   -1164.6853    6409.5676     11693.01    1854.7568 
   64100    295.87377   -1158.5812    6383.9775    11546.285    1886.8582 
   64200    303.01678   -1163.0022    6405.7675    11716.254    1949.8351 
   64300    297.12367   -1160.2549    6287.3142    11474.651    1812.7734 
   64400    293.63634   -1161.1077    6506.5981     11618.58    1887.3767 
   64500    302.59916   -1154.7936    6441.1916    11750.965    1893.5501 
   64600     297.0643   -1156.4677    6372.8578    11562.713    1833.0425 
   64700    299.39296   -1164.5015    6381.7443    11613.314    1868.1044 
   64800    297.15125   -1160.6663    6614.5596    11802.074    1930.5391 
   64900    298.35277   -1154.7009    6384.1249    11603.273    1732.7943 
   65000    299.09485   -1157.7297    6474.4665    11706.439    1957.9135 
   65100    299.95727   -1161.3616    6397.7979    11644.563    1943.7451 
   65200    297.28506    -1156.698    6411.4883    11605.829    1941.0405 
   65300    299.72843   -1150.9179    6348.5386    11600.859    1891.0121 
   65400    299.37301   -1150.5253    6397.4968    11642.617    1885.8599 
   65500    299.00246   -1161.7669    6502.9463    11728.908    1913.1295 
   65600    302.37097   -1151.3979    6441.0916    11749.386    1869.3741 
   65700    298.24904   -1156.4871    6363.3339     11578.48    1848.5586 
   65800    303.01664   -1162.2556    6498.8135    11810.044    1854.2847 
   65900    302.93107   -1163.5711     6417.562    11725.648    1851.4406 
   66000    297.16215   -1159.3103    6473.6973      11662.8    1875.0152 
   66100    301.40567   -1159.7358     6441.594    11720.928     1808.533 
   66200    303.80778   -1160.9387    6486.9826    11816.431    1837.3194 
   66300    298.07019   -1159.9847    6376.9541    11584.782    1898.3423 
   66400     303.9965   -1156.4143    6502.5364    11840.541     1972.595 
   66500    300.65248   -1162.3633    6337.3436    11597.959    1824.0196 
   66600    298.36957   -1163.4178     6422.613    11633.403     1842.428 
   66700     303.5395   -1155.8657    6490.3703     11819.16    1861.2071 
   66800    298.78281   -1157.1729      6474.61    11700.473    1927.2533 
   66900    300.67133   -1163.4654    6374.3361    11634.252    1926.1615 
   67000    298.83863   -1165.6072    6359.5178    11578.139    1872.7397 
   67100    297.55164   -1163.0156    6422.6109    11616.329    1800.9173 
   67200    304.86108   -1156.1158    6584.6351    11941.408    1900.3701 
   67300    297.03203     -1155.66    6463.0746    11653.048    1893.5222 
   67400    303.17816   -1154.2794    6379.1372    11701.794    1906.9919 
   67500    300.44759   -1154.6183    6434.5413    11698.525     1904.016 
   67600    301.10923   -1155.0838    6454.6799    11732.333    1964.6929 
   67700    301.11155   -1161.4854    6348.7598    11620.061    1885.9809 
   67800    297.60598   -1154.0019    6432.4817    11636.375    1818.4847 
   67900    306.04147   -1151.3851    6496.5186     11883.24    1847.4516 
   68000    303.73214   -1157.5651    6370.8422    11702.048    1824.4012 
   68100    302.11878   -1155.6056    6433.8304    11732.529    1820.8226 
   68200    294.56712   -1155.8957    6342.4673    11479.546    1865.4122 
   68300    303.60563   -1152.2204    6398.7814    11732.629    1888.0766 
   68400    299.94635   -1158.1386    6425.3215    11675.076    1790.1379 
   68500    300.84094   -1154.5452    6475.5307    11747.991    1920.3792 
   68600    296.94202     -1153.93     6360.495    11550.276     1924.611 
   68700    302.02064   -1152.7461     6349.136    11648.598    1902.0542 
   68800     299.2074   -1162.3205    6493.6142    11723.401    1873.3757 
   68900    303.14813   -1155.5952    6377.9641    11698.663    1824.7507 
   69000    296.42945   -1163.5356    6467.4608    11636.686    1831.4432 
   69100    299.57277   -1159.0886    6359.8433    11600.667     1746.528 
   69200    298.75255   -1162.4382    6468.1833    11688.135     1877.279 
   69300    299.28989   -1164.4508    6401.5069    11630.925    1869.6267 
   69400    297.66368   -1161.8854     6352.485    11549.727    1815.7419 
   69500    303.55576   -1161.3111    6525.3014    11848.993    1843.9764 
   69600    296.70738   -1169.8368    6481.8939    11650.755    1870.7992 
   69700    304.70223   -1165.7584    6349.5561    11693.293    1854.5769 
   69800    296.35105   -1168.6005    6439.9351     11602.42    1900.6456 
   69900    301.94018   -1166.2177    6461.2524    11745.523    1924.7409 
   70000    296.49701   -1162.7123    6374.5245    11546.016    1794.2696 
   70100    297.97575   -1162.8344    6452.4505    11655.411    1906.7159 
   70200    292.73116   -1162.7917    6318.4755    11409.436    1835.7932 
   70300      301.134    -1161.814    6450.6007    11722.053    1880.9886 
   70400    299.01445   -1167.0005     6512.695    11733.679    1925.0662 
   70500    303.52034   -1171.0368    6321.9007     11635.11    1868.5878 
   70600    296.31012   -1164.9232     6285.758    11451.046     1863.055 
   70700    296.91611   -1163.2799    6397.7999    11577.677    1909.7283 
   70800    300.93977   -1161.1561    6450.4186    11718.379    1916.2601 
   70900    298.20402   -1156.3463    6519.4179    11733.743    1855.4387 
   71000    302.41887   -1158.4829    6401.1078     11703.34    1831.0506 
   71100    300.43606   -1158.5664     6378.988    11638.777    1862.4958 
   71200    298.91464    -1158.493    6362.4013    11589.761    1809.2496 
   71300    299.47668   -1156.6631    6344.3556    11585.552    1772.0216 
   71400    300.03851   -1151.1843    6530.8037    11789.482    1897.7865 
   71500     295.9001   -1153.3509    6389.6835    11557.784    1838.2099 
   71600    300.09515   -1158.0658    6391.5318    11644.538    1846.2676 
   71700    298.56701   -1152.0425     6487.186     11713.57    1846.3101 
   71800    304.01255   -1150.5769    6501.5013    11845.686    1864.5672 
   71900    298.03687   -1157.6517    6366.2705    11575.719    1781.0282 
   72000    297.73692   -1151.8548    6415.2143    11624.052    1826.0827 
   72100     300.9983   -1152.3837    6471.5761    11749.559    1849.7495 
   72200    301.46925    -1151.566    6418.5325    11707.394    1816.3746 
   72300    298.91409   -1153.6994    6451.1809    11683.322    1864.2155 
   72400     299.5968   -1150.6655    6452.4218    11702.182    1848.7685 
   72500    302.59824    -1157.948    6540.9814    11847.581    1893.4607 
   72600    298.52596   -1158.4639    6438.2257    11657.311    1898.1188 
   72700    298.32648    -1162.424    6384.3775    11595.241    1861.9276 
   72800    299.09913    -1157.192    6447.6618    11680.264    1871.1864 
   72900    303.27665   -1161.7235    6527.9641    11845.281    1905.0326 
   73000    296.83825   -1167.9153    6365.2866    11538.865    1850.8274 
   73100    299.49748   -1169.8707    6367.6885    11596.122    1861.3164 
   73200    301.65991    -1166.959    6388.4327    11665.975    1817.2558 
   73300    295.26052   -1172.5169    6450.9192     11586.19    1896.7527 
   73400    303.24514   -1169.3321    6367.0616    11676.097    1874.6234 
   73500    297.58341   -1167.7227    6358.5926    11548.283    1845.2397 
   73600    301.23414   -1164.2348    6351.7658    11622.936    1851.8058 
   73700    294.36858   -1168.1559    6461.9924     11582.57    1914.2263 
   73800     303.2917   -1168.5034    6359.9882    11670.847    1887.9318 
   73900    299.33559   -1167.7826    6493.1643    11720.227    1900.4955 
   74000    303.31385   -1172.2601    6487.2447     11794.82     1907.702 
   74100    298.70148   -1166.3918    6387.8668    11602.774    1915.2242 
   74200    302.21556   -1171.3812    6427.1812    11712.172    1938.5862 
   74300    299.03891   -1165.8191    6358.5447    11581.233    1884.1417 
   74400    306.61258   -1164.4443    6447.6883    11833.551    1907.2429 
   74500    298.33426   -1164.4555    6464.7184    11673.717     1932.979 
   74600    303.41359   -1161.3808    6282.9722    11603.557    1890.1257 
   74700    295.90963   -1162.9901    6366.5993    11525.264    1900.3968 
   74800     302.8714   -1159.2285    6445.2847    11756.439    1916.0033 
   74900    295.75092   -1156.2122    6319.4311    11481.484    1791.3069 
   75000    304.03085   -1161.3301    6356.3891    11690.212    1824.9938 
   75100    297.09148    -1153.457    6532.4203    11725.867    1854.5768 
   75200    302.42653   -1151.1037    6496.9449     11806.72    1839.4933 
   75300     299.0217   -1157.9998    6495.9367    11726.077    1836.5611 
   75400     297.6974    -1153.341    6411.0089    11617.516    1907.3874 
   75500    300.97723   -1159.0025    6349.9133    11620.828    1854.1379 
   75600    305.50028   -1154.5201    6466.8146    11838.839    1881.8374 
   75700    297.91779   -1153.4854    6436.5587     11647.63    1806.5486 
   75800    300.58029   -1154.3299     6392.434    11659.541     1828.548 
   75900    303.47105   -1158.7508    6527.5126    11851.955    1974.4732 
   76000    302.05539   -1157.2888    6360.3979    11656.059    1922.7125 
   76100    301.83751   -1160.3649    6366.9536    11654.884     1857.364 
   76200    297.30198   -1158.2304    6432.7365    11625.907    1807.1338 
   76300    301.93721   -1161.3331    6486.1219    11775.214    1871.9961 
   76400    295.84775   -1167.0955    6483.1949    11636.433    1943.2432 
   76500    298.92503   -1165.1404    6285.1248    11506.059    1893.6815 
   76600    301.96812   -1165.3222    6408.6721    11694.435    1860.1561 
   76700    303.62741   -1164.3155    6475.9281    11798.146    1903.3612 
   76800    297.76931   -1172.1212    6426.3283    11615.591    1913.2793 
   76900    299.89591   -1165.4883    6400.5291    11641.857    1902.6881 
   77000    302.85931   -1169.8188    6417.1001    11717.406    1913.6921 
   77100    295.95254   -1169.9706    6404.2621    11556.863    1912.8639 
   77200    295.06021   -1170.0086    6522.6441    11656.144     1917.499 
   77300    303.48076   -1170.0621     6369.003    11682.342    1793.6882 
   77400    296.61477   -1165.8511    6392.0524    11562.921    1886.4899 
   77500    301.46257   -1160.5941     6396.331    11676.022    1916.2804 
   77600    305.78589   -1169.6222    6359.0326    11722.057    1854.8394 
   77700    299.39805   -1168.1614    6495.1152    11723.134    1890.5271 
   77800    300.20116   -1170.3113    6463.8658    11706.892    1873.1511 
   77900    300.25365   -1167.9775    6465.6816    11712.163    1901.4137 
   78000    299.10237   -1159.3263    6334.0589    11564.596    1821.9835 
   78100    299.58878   -1164.5422    6350.2742    11585.987    1873.9819 
   78200    298.67856   -1156.5352    6483.1516    11707.426    1883.2018 
   78300    299.92355   -1153.7203    6486.3369    11740.023    1909.6667 
   78400    297.11284    -1160.794    6333.2311    11519.797    1899.3004 
   78500    301.80224   -1157.8649    6532.2974    11821.974    1966.5004 
   78600    303.51105   -1158.1747    6342.6389    11668.512    1877.9312 
   78700    301.98535   -1155.4018    6437.2923    11733.344    1885.6802 
   78800    298.95901   -1155.9805    6426.6166    11657.437    1841.4498 
   78900    302.66975   -1164.4117    6445.6412    11747.304    1877.4044 
   79000    303.92671   -1156.9204    6462.9775    11798.985      1880.53 
   79100    299.70667   -1156.0006    6480.3794    11727.152    1978.2747 
   79200     300.1596   -1159.8219    6404.9504    11657.578    1943.0776 
   79300     298.4007   -1150.1213    6338.2034    11562.955    1861.1489 
   79400    298.35224   -1160.3484    6462.9866    11676.476    1939.2089 
   79500    300.89439   -1157.3934    6315.3582    11586.112    1892.3093 
   79600    298.70205   -1159.5373    6449.4142    11671.188    1893.1491 
   79700    304.36478   -1162.2845    6468.5127    11808.515    1862.4717 
   79800    301.07426   -1168.7142     6465.653    11728.928    1911.1111 
   79900    299.11718   -1165.0591    6425.3329    11650.453     1895.512 
   80000    302.44113   -1164.8516    6460.5031    11756.842    1893.0277 
   80100    296.76725   -1164.5631    6375.2571    11550.671    1895.8887 
   80200     299.5801   -1164.2402    6433.8306     11669.66    1896.4686 
   80300    300.36273   -1168.2655    6412.4455    11660.969    1826.0101 
   80400    295.87208   -1165.1105    6344.2484    11499.991    1813.2096 
   80500    298.84076   -1161.8311    6524.0811    11746.524    1948.4019 
   80600    303.86593   -1162.0926    6580.1409    11909.678    2024.7649 
   80700    299.02044    -1165.372    6369.7149    11592.456    1921.7389 
   80800    302.00803   -1165.5766    6262.2241    11548.586    1881.5385 
   80900    297.77932   -1167.0157    6465.8577     11660.44    1927.5507 
   81000    297.96528    -1164.251    6429.9523    11631.272    1786.2551 
   81100    301.24557   -1164.0764    6490.6994    11762.272    1899.5489 
   81200    302.00688   -1161.8624    6392.7135    11682.765    1892.0779 
   81300    300.00248    -1161.863      6445.32     11692.55    1844.3621 
   81400    300.64498   -1159.5035    6363.3269    11626.642    1866.9619 
   81500    299.18031   -1160.1727    6458.3162    11689.672    1900.5608 
   81600    301.51879   -1157.6911    6397.4368    11681.232    1900.8967 
   81700    297.32323   -1156.1856    6363.9605     11559.63    1849.3413 
   81800     297.9661   -1159.9499    6496.8332    11702.472    1916.0239 
   81900    300.57363   -1158.2328    6395.6106    11658.672    1859.3856 
   82000     300.2998   -1160.0733    6436.4386     11691.81    1876.7701 
   82100    300.51017   -1158.0251    6416.9471    11678.861    1919.2315 
   82200    302.21049   -1157.1636    6456.0181    11755.118    1929.1028 
   82300    297.05976   -1164.5685    6419.8798    11601.537    1857.3169 
   82400    303.01662    -1158.722    6464.3929    11779.156     1862.854 
   82500    301.09045   -1159.6206    6395.3988    11668.114    1882.2283 
   82600    296.80677   -1156.6397    6359.8287     11544.01    1918.3223 
   82700    302.47694   -1162.8959    6421.1254    11720.185    1956.0204 
   82800    299.13144   -1159.3776    6383.7954    11614.902    1929.5938 
   82900    299.82645   -1161.3686    6462.1479    11706.111    1930.1275 
   83000    304.87583   -1165.4114    6416.1207    11763.914    1995.6464 
   83100    300.31016   -1162.8169    6397.2652    11650.114    1925.9805 
   83200    305.02639    -1162.964    6457.7337    11811.191    1961.0568 
   83300    300.59495   -1163.3507    6378.8456    11637.245    1895.3564 
   83400    301.59747   -1167.1989    6475.5077    11751.476    1974.4559 
   83500    302.98099     -1159.81    6490.7602    11803.674    1948.6069 
   83600    298.51679   -1163.2537     6472.234    11686.334    1962.5944 
   83700    300.28332   -1163.8612    6358.8496    11610.081    2005.4172 
   83800    296.27029   -1164.0569     6429.139    11594.442    1914.1433 
   83900    300.19229   -1160.6568    6440.6927    11693.184    1899.1215 
   84000    299.39813   -1161.5785    6450.1973      11684.8    1980.8792 
   84100    301.69435   -1161.6831    6438.2516    11721.805    1940.5835 
   84200    301.01554   -1160.2762    6380.1046    11650.564    1831.3422 
   84300    294.74987   -1160.3109    6379.8046    11516.372    1835.5583 
   84400    299.33858   -1154.7487    6426.1944    11666.355     1877.617 
   84500    301.23089   -1156.1256    6420.3736    11699.584    1808.5432 
   84600    299.36085   -1157.8636    6472.3862    11709.908    1830.6826 
   84700     304.7579   -1150.1296    6434.3066    11794.862         1894 
   84800    296.06135   -1154.7632    6379.6555    11549.789    1824.2678 
   84900     299.4414   -1156.5403    6427.4754    11668.041    1931.9275 
   85000    299.54668   -1154.8628    6343.2148    11587.707    1835.4837 
   85100    302.51334   -1151.8094    6575.8561     11886.78    1925.1823 
   85200    299.19635   -1156.6807    6368.7369    11603.927    1857.9136 
   85300    301.51443   -1157.7852    6387.9005    11671.508    1888.0775 
   85400    297.51881   -1159.9947     6439.216    11635.254    1931.7134 
   85500    301.00759   -1160.0582    6303.5366    11574.044    1872.4574 
   85600    297.24135   -1158.2423    6419.6921    11611.555    1982.9649 
   85700    301.94121   -1161.0667    6402.7761     11692.22    1914.7289 
   85800    297.13629   -1162.4065    6483.4141    11668.869     1963.607 
   85900     297.1671    -1157.449     6411.918    11602.988    1896.7159 
   86000     298.8314   -1167.7822    6479.6791    11695.971    1936.4447 
   86100     299.3837   -1164.9663    6426.3839    11657.291    1947.0364 
   86200    303.43526   -1170.9538     6359.017    11670.492    1916.0399 
   86300    298.89372   -1171.8246    6489.4851    11703.066    1978.5131 
   86400    301.07459   -1174.8726     6466.378    11723.502    2012.8414 
   86500     294.9068   -1173.6627    6306.4938    11433.062    1875.0059 
   86600    301.78202   -1168.6846    6321.4099    11599.835    1903.7344 
   86700    298.11239   -1169.4263    6506.4287    11705.716    2003.1835 
   86800    305.48317   -1173.0284    6469.7986    11822.949    1944.2971 
   86900    296.96929   -1168.9689    6370.1233    11545.448    1894.2697 
   87000    294.48799    -1169.068    6409.7548    11531.971    1932.9229 
   87100    297.15766   -1171.1555    6473.4917    11650.654    1884.4827 
   87200    304.38926   -1171.0397    6431.3914    11763.161    1848.6898 
   87300    300.78433   -1168.9298    6339.9038     11596.77    1855.4372 
   87400    303.42178    -1169.519    6399.5234    11712.145    1905.5653 
   87500    298.29118   -1169.6468    6640.8501    11843.737    1940.6149 
   87600     302.4711   -1166.7229    6401.3711    11696.479    1897.3854 
   87700    297.59854   -1163.1816    6390.7499    11585.304    2002.3021 
   87800    299.58629   -1161.6292    6318.8015    11557.374    1913.9695 
   87900    300.71536    -1154.575    6543.9083    11813.655     1918.899 
   88000    298.74441   -1156.5955    6402.8692     11628.49     1866.029 
   88100    302.65006   -1161.5384    6446.4109    11750.527    1915.5397 
   88200    300.72132   -1155.1293    6461.6659    11730.986    1906.4256 
   88300    301.19019   -1155.8801    6528.1776    11806.764    1981.9339 
   88400    300.29807   -1161.5588    6391.3635    11645.212    1943.5393 
   88500    296.58614   -1158.4429     6408.816    11586.481    1932.8261 
   88600    302.86894   -1151.8066    6562.1036    11880.627    1923.7779 
   88700    303.08789   -1157.6061    6442.1536    11759.555    1904.1588 
   88800    297.42777    -1164.442    6377.2795    11566.925    1942.6682 
   88900    297.51211   -1156.8761    6469.4209    11668.435    1929.2401 
   89000     305.6505   -1163.0094     6465.063    11831.807    1943.1333 
   89100    299.96217   -1166.0841    6463.4394    11705.587    1942.3986 
   89200    301.05158   -1166.4173    6323.7032    11588.791    1868.1802 
   89300    297.27162   -1162.5385    6433.4977    11621.711     1947.396 
   89400    299.84401   -1165.5909    6336.4687    11576.585    1918.2535 
   89500    295.19113   -1168.6171    6494.5739    11632.262    1950.1797 
   89600     302.4973   -1170.8658    6386.9975    11678.522    1876.4447 
   89700     301.4833   -1170.3452    6409.7024    11680.085    1912.0714 
   89800    295.31278   -1166.7118    6356.3047    11498.497    1840.7172 
   89900    304.94406    -1167.314    6529.1403    11876.488    1907.2235 
   90000    300.63713   -1166.3779    6453.7595    11710.033    1905.3591 
   90100    296.54073   -1175.1401    6552.1084    11712.106     1901.036 
   90200    297.13728   -1171.1816    6386.9509    11563.651     1836.173 
   90300    302.30285   -1171.8512    6412.2205    11698.606    1854.9412 
   90400    297.26384   -1171.0873    6491.3204    11670.819    1895.8946 
   90500    302.78229   -1169.6968    6454.1565    11752.939    1915.6385 
   90600     298.1533   -1166.8988    6408.0631    11610.752    1883.8014 
   90700    299.45326   -1157.2973    6381.0831    11621.145    1911.8851 
   90800    299.88833   -1161.4981    6465.5476    11710.703    1969.6363 
   90900    298.20814   -1162.8273    6350.5672    11558.499    1824.5051 
   91000    300.78152   -1161.0892    6472.9273    11737.574    1846.8905 
   91100    303.62029   -1158.5588    6622.2439    11950.067    1931.3612 
   91200    297.19861   -1160.0241    6464.3376    11653.506      1837.71 
   91300    301.87363   -1159.1274    6350.6341    11640.574    1868.1661 
   91400    305.44734   -1155.6268    6402.4146    11772.201    1931.9287 
   91500    300.17311   -1157.3706    6321.1231     11576.49    1861.0739 
   91600    299.76052   -1157.0988    6536.3118    11783.137    1971.5735 
   91700    303.98206   -1151.6894    6483.4233    11825.844    1980.1834 
   91800    297.30688    -1150.315    6316.7679    11517.958    1861.9707 
   91900    298.48234   -1155.5625    6434.7662    11655.821    1940.2393 
   92000    304.40196   -1157.8807    6513.8279    11859.028    1973.4585 
   92100    302.57154   -1158.5963    6306.7867    11612.167    1856.7175 
   92200    298.44861   -1161.4265    6477.3258    11691.796    1875.5243 
   92300    301.03438   -1163.1341    6458.9759    11726.979    1944.2139 
   92400     300.3095   -1169.9217    6394.5251    11640.255     1907.304 
   92500    296.98449   -1164.1337     6483.673    11664.157    1908.9015 
   92600     297.8872   -1166.2561    6392.5568    11590.204    1946.7707 
   92700    302.44374    -1161.037    6358.7596    11658.969    1896.9791 
   92800    301.32497    -1162.086    6353.4511    11628.711    1861.6245 
   92900    297.12351   -1164.1326     6320.794    11504.249    1912.0432 
   93000     303.3282   -1173.4533    6460.2931    11766.981    1902.8152 
   93100    302.19662   -1174.8637    6460.8187    11741.922    1877.2707 
   93200    299.68171   -1173.5263    6454.8663     11683.58    1910.0879 
   93300    303.69126   -1174.6529    6396.4436    11709.689    1914.5274 
   93400    298.36152   -1177.1674    6435.8978    11632.767    1884.1566 
   93500    300.76398   -1168.5076    6359.4815    11616.335    1838.2668 
   93600    297.64024    -1163.226    6504.2222    11699.623    1980.6548 
   93700    299.94954   -1167.3685    6264.0812    11504.674    1887.6379 
   93800    300.11176   -1161.2486    6395.3456    11645.524    1932.4225 
   93900    301.12926    -1161.369    6510.8291    11782.625     1936.764 
   94000    299.34462   -1168.8038    6450.7655        11677    1917.8975 
   94100    298.76168   -1169.9686    6289.0187    11501.635    1876.9402 
   94200    299.45257    -1158.705    6444.1399     11682.78    1927.6377 
   94300    294.08528   -1162.2212     6450.382    11570.842    1894.1721 
   94400    299.47579   -1156.5557    6341.6548     11582.94    1883.2553 
   94500    295.82112   -1155.6276    6493.4066    11657.543    1935.4305 
   94600    302.44097   -1152.9036    6503.9232    11812.207    1946.2601 
   94700    295.91842   -1151.4121     6353.017    11523.448    1862.3807 
   94800    301.37455   -1155.3763    6321.0295    11604.058    1829.6176 
   94900    297.14061   -1152.4723    6479.7333    11675.214    1936.6888 
   95000    294.79364   -1155.2095    6410.5956      11553.2    1859.4295 
   95100    303.91683   -1158.1125     6443.088    11777.692     1861.145 
   95200    301.72355   -1154.6267    6510.2641    11801.498      1873.67 
   95300    301.40526    -1159.172    6416.1874    11696.076    1849.1256 
   95400     300.0754   -1160.2893    6419.3983    11669.759    1890.3977 
   95500    300.53354    -1157.662    6542.1661    11804.942    1989.2661 
   95600    295.86997    -1159.807    6443.1879    11604.189     1918.764 
   95700    300.02684   -1160.9693    6333.5201    11582.164    1791.3434 
   95800    303.28532   -1166.2856    6496.5752    11809.515    1975.3001 
   95900     297.8132   -1163.9777    6506.8067    11705.151    1958.9495 
   96000    299.40413   -1166.4904    6343.8149    11573.634    1868.1013 
   96100    301.45279   -1165.6405    6397.5531    11671.989    1933.2784 
   96200    298.44748   -1168.5037    6446.3375    11653.706    1899.0811 
   96300    301.65179   -1168.2722    6495.2254    11771.281    1927.1135 
   96400    303.08658    -1171.479    6365.9111    11669.412    1964.8681 
   96500    294.05596    -1170.669    6419.5815    11530.967    2010.7925 
   96600     299.6682   -1172.2736    6544.3556    11774.033    1997.2938 
   96700    299.66091   -1173.8659    6428.5952    11656.525    1900.8713 
   96800     304.1899   -1173.2817    6341.6979    11666.967    1879.9965 
   96900    297.51264   -1171.7681    6431.9341    11616.067    1849.7249 
   97000    304.81699   -1161.6458    6508.9265    11859.228    1828.2588 
   97100    299.60277    -1165.669    6401.3545    11636.239    1844.4319 
   97200    299.63042   -1165.8509    6313.7108    11549.004    1874.0583 
   97300    297.41058   -1167.3494    6396.6481    11583.019    1922.5386 
   97400    302.64887   -1164.6566    6459.5873    11760.559    1900.9243 
   97500    294.73382   -1163.9214    6457.9321    11590.546    1835.7593 
   97600    298.05491   -1164.4572    6488.2049    11691.234    1932.4515 
   97700    299.42848   -1162.5579    6310.0063    11544.278    1867.8103 
   97800     297.8913   -1163.2381    6494.7675     11695.52    1909.8075 
   97900     299.5716   -1162.0194    6438.0191    11675.887    1861.7996 
   98000    304.14947   -1160.9807    6403.5776    11740.284    1899.5726 
   98100    295.04005     -1154.53    6378.4743    11527.022    1890.7248 
   98200    300.94033   -1151.3553    6414.1951    11691.968    1899.8959 
   98300    302.45854   -1157.3456    6426.3568    11730.574    1871.7678 
   98400    300.12885   -1157.1892     6431.291    11685.894    1889.5037 
   98500    299.91894   -1157.8434    6417.5779    11667.042    1895.4613 
   98600    296.90606    -1158.722    6473.7647    11657.985    1842.7306 
   98700    302.29141    -1148.836    6372.1328    11681.289    1835.1168 
   98800     302.8547   -1158.2158    6436.5224    11748.333    1915.2307 
   98900    297.79406   -1160.7643    6411.8244    11612.973    1884.0573 
   99000    304.61979   -1155.8079    6522.4873    11874.414    1971.1517 
   99100    299.27761   -1160.5753    6343.2619    11576.294    1928.9683 
   99200    307.02629   -1164.3297    6409.8656    11804.681     1922.892 
   99300    298.31585   -1168.3167    6446.3625    11651.106    1895.2392 
   99400     305.8993   -1164.9932    6419.0111    11789.087    1891.6685 
   99500    298.50204   -1162.1966    6413.5776    11628.419    1795.7416 
   99600    305.47452   -1164.0115    6478.8399    11840.823    1823.8971 
   99700    301.12316   -1169.7476    6412.4265    11675.713    1851.0797 
   99800    304.99017   -1166.2716    6326.6664    11676.042    1891.7105 
   99900    298.62603   -1170.1711    6443.8955    11653.411     1925.298 
  100000    300.21772   -1171.1044    6474.5882    11717.175    1946.9108 
  100100     298.9903   -1167.9535     6368.224     11587.74    1964.8265 
  100200    301.91869   -1166.5597     6414.104    11697.574    1933.9965 
  100300    298.34214    -1166.619    6485.7367     11692.74    1913.6727 
  100400    300.72798   -1170.1888    6388.5064    11642.909    1846.5433 
  100500    300.06679   -1169.9249    6447.2715    11687.813    1896.5569 
  100600    298.66677   -1162.6847    6406.0702    11623.943    1908.8921 
  100700    302.36038   -1164.0867    6325.2506    11620.629    1906.1819 
  100800    297.56132   -1165.0774    6394.2361      11586.1    1849.1541 
  100900    303.78819   -1163.1229    6474.3663    11801.212    1868.4291 
  101000    299.08733   -1157.2188     6455.291    11687.614    1904.8649 
  101100    300.69118   -1161.1632    6367.6898    11630.332    1867.1134 
  101200     295.0159   -1159.9874    6401.3157     11543.89    1857.9648 
  101300    302.02329   -1163.1052    6465.1576    11754.317    1876.5232 
  101400    304.07932   -1154.2936    6440.2831    11782.178    1894.2239 
  101500     298.4693   -1164.5199    6430.8695    11642.688    1858.3737 
  101600    299.52715   -1155.5339    6358.2868    11601.691    1873.5767 
  101700    298.87081   -1158.8216    6506.2949    11732.389    1952.7334 
  101800    301.78191   -1156.9569    6378.2111    11668.362    1839.4723 
  101900    300.22617   -1154.0663    6505.9027    11765.708    1901.8545 
  102000    298.72031   -1154.7149    6407.0835     11634.07    1860.5707 
  102100    302.45499   -1154.8755    6422.2817    11728.893    1832.7857 
  102200    296.84068   -1163.8108    6410.2949     11588.03    1838.7811 
  102300    299.47561   -1161.3248      6438.06    11674.572    1833.4446 
  102400    299.29259   -1161.7677     6460.362    11692.521    1777.3491 
  102500    303.65872   -1164.9631     6462.033    11784.272     1855.354 
  102600    298.70563   -1158.9069    6407.3806    11629.861    1878.0847 
  102700    301.87047   -1155.7492    6464.9269    11758.177    1920.7279 
  102800    297.70403   -1162.0555    6427.3058     11625.24    1887.7022 
  102900    301.07395   -1166.2132    6431.5898     11697.36    1876.7378 
  103000    300.62055   -1164.2441    6383.8999    11641.953    1822.2806 
  103100    296.65563   -1167.1297    6371.1283    11541.591    1824.9746 
  103200    302.68751   -1162.4681    6426.6069    11730.593    1890.7483 
  103300    297.95531   -1163.5679    6480.5481    11682.338    1876.6682 
  103400    303.11508   -1169.6401     6249.697    11555.645    1788.3928 
  103500    299.44277   -1170.2157    6471.0887    11698.008    1925.0916 
  103600    303.35949   -1164.0712    6378.7375    11695.476    1909.5863 
  103700    295.37759   -1166.3272    6425.6638    11569.626    1852.7552 
  103800    304.86996   -1163.6732    6421.7262    11771.132    1849.7045 
  103900    293.52757   -1165.0463    6455.8679    11561.588    1822.7006 
  104000    303.26107   -1164.3426    6351.7746     11666.14    1906.8594 
  104100     296.0143    -1156.465     6389.682    11557.108    1907.1873 
  104200    302.53918   -1164.6389    6399.3266    11697.973     1898.931 
  104300    304.44677   -1157.3444    6517.1968    11863.891    1892.0001 
  104400    299.74884   -1162.2559    6510.5506    11751.969    1905.2464 
  104500    298.98041   -1162.7687     6478.267    11702.756    1899.9096 
  104600    298.88133   -1165.7112    6292.5299     11511.96    1800.4993 
  104700    294.82426   -1161.1091    6489.6797    11627.039    1919.3278 
  104800    299.45658   -1159.5259    6390.1642    11628.069    1897.7775 
  104900    302.97851   -1159.4722    6513.7866    11826.985    1923.8394 
  105000     303.0328   -1160.3443    6480.4489    11793.935    1952.3572 
  105100    298.19584   -1157.8231    6295.9092    11508.583    1902.4256 
  105200    299.33346   -1163.6576    6343.3628    11574.505    1907.5185 
  105300    301.90622   -1162.2115    6393.1001    11680.652     1857.442 
  105400    299.24453   -1164.5099    6527.2434    11755.634    1885.7201 
  105500    298.60262   -1162.0884    6461.6104    11678.709      1891.25 
  105600    305.23158   -1164.2639    6385.5473    11742.088    1909.5024 
  105700    299.58619   -1167.7291    6440.6874    11673.157    1933.6444 
  105800    299.56388   -1161.1593    6424.8863     11663.45    1893.7536 
  105900    299.93832   -1167.3783    6397.9544    11638.298    1901.6604 
  106000    304.70579   -1165.7095    6347.3963    11691.259    1892.5728 
  106100    296.77042   -1159.8102    6506.6835    11686.918    1905.9496 
  106200     302.4067   -1169.6633    6397.8951    11688.687    1868.9623 
  106300    299.10749   -1171.7066    6316.4386    11534.705    1876.4992 
  106400    293.69436   -1168.9031    6453.8851    11559.311    1944.9086 
  106500    297.55718   -1158.0953    6517.2384    11715.996    1874.9776 
  106600    301.31222   -1170.0377    6391.7807    11658.816    1806.8697 
  106700     296.0231   -1167.5376    6320.5994    11477.141    1841.7376 
  106800    299.96382   -1163.5471    6466.2612    11710.981    1877.4662 
  106900    302.48678   -1160.5087    6437.3185    11738.976    1870.8884 
  107000    301.73121    -1166.497    6395.3032    11674.831    1889.1176 
  107100     303.7173   -1163.5442    6300.3408    11625.251     1793.876 
  107200    302.41188   -1160.8246    6484.0198    11783.761    1886.7316 
  107300    295.90215   -1161.6769    6368.3377    11528.156    1842.9538 
  107400    304.22669   -1161.8348    6467.4636    11804.965    1891.8001 
  107500    301.37448   -1158.1412    6459.4188    11739.681     1900.578 
  107600    296.47069   -1158.5173    6454.1242    11629.248    1904.7569 
  107700    299.68261   -1153.6695     6378.915    11627.505    1892.5024 
  107800    300.66483   -1158.2886    6502.8413    11767.795    1890.6999 
  107900    297.98993   -1157.0702    6422.3189    11631.346    1852.4995 
  108000    299.74222   -1156.7699     6449.394    11696.157    1901.9878 
  108100    302.63256   -1161.0476     6411.086    11715.319    1895.0847 
  108200    298.89536   -1163.2716    6410.8595    11633.029    1883.4841 
  108300     299.7316   -1156.3148    6516.5821    11763.573    1905.5136 
  108400    298.85617   -1158.8817    6409.7952    11635.517    1827.4316 
  108500    300.72465    -1154.039    6325.6067    11596.088    1828.4984 
  108600    300.12063   -1156.2664    6429.1918    11684.542    1912.7378 
  108700    299.93228   -1160.2532     6416.316    11663.656    1874.1175 
  108800     304.3388    -1165.208    6396.3892    11732.913    1860.5163 
  108900    301.58013   -1164.0823    6439.1306    11717.845    1851.1761 
  109000    299.86579   -1165.8117     6409.904    11650.265    1825.6249 
  109100    299.63903   -1164.2276    6465.0921    11702.193    1846.0442 
  109200    297.99139   -1161.8888    6326.9821    11531.222    1834.0676 
  109300    299.07343   -1173.9483    6347.2936     11562.59    1921.3989 
  109400    301.67747   -1171.6624    6459.5317    11732.746    1961.1403 
  109500    299.78987   -1162.1796    6376.8314    11619.202    1888.9909 
  109600     298.6821   -1167.8349    6353.1177    11566.167    1911.2841 
  109700     298.8459   -1169.6355    6420.7623    11635.511    1868.7522 
  109800    301.35665   -1167.0877    6460.0121    11730.947    1846.3826 
  109900    297.15286   -1164.5181    6419.7359    11603.433    1848.7148 
  110000    301.85352   -1166.3592    6436.5662    11718.844    1896.0761 
  110100    299.75483   -1172.5419    6272.2128    11503.473    1823.9018 
  110200    297.97102   -1165.6239    6391.7944    11591.864    1882.6129 
  110300     301.1674   -1164.2279    6559.7481      11829.5    1990.0215 
  110400    301.73949    -1162.211    6470.4504    11754.441    1957.6454 
  110500    300.91237   -1158.6677    6384.7023    11654.566    1921.5532 
  110600    296.53085   -1160.2777     6360.431     11535.08    1866.7131 
  110700    301.52261   -1162.2835    6444.7928    11724.077    1873.1538 
  110800    298.05728    -1162.766    6475.9748    11680.745    1849.4239 
  110900     305.0036   -1160.8532    6434.5893     11789.67    1882.7127 
  111000    301.29873   -1162.3124    6410.8827    11685.355    1917.0543 
  111100    300.21756   -1157.7232    6388.8106    11644.775    1885.1988 
  111200    297.44109   -1155.8137    6426.5983    11625.157    1832.9807 
  111300     301.2061   -1154.1222    6466.5012    11747.185    1899.3254 
  111400    305.22144   -1162.8218    6483.6735    11841.439    1906.5633 
  111500    298.68483    -1155.257    6432.7595    11658.446    1874.5578 
  111600    296.18663   -1156.9499    6469.2265     11639.85    1911.9899 
  111700    305.83794   -1161.3444    6436.9626    11809.377    1857.7786 
  111800    301.95084   -1164.1812     6406.838    11693.373    1806.8153 
  111900    304.61906   -1164.4182    6403.9207    11747.221    1856.5486 
  112000    295.69528   -1161.3617    6511.3311    11667.045    1963.6388 
  112100    301.87232   -1162.5897    6427.0558    11713.505    1929.7595 
  112200    295.86992   -1158.7585    6379.2223    11541.271    1864.2615 
  112300    301.56992   -1159.4403      6496.77    11779.908    1935.0164 
  112400    298.97446   -1162.5259    6458.9883    11683.593    1927.3176 
  112500    299.96885   -1162.1753    6270.3604    11516.559    1847.4487 
  112600    296.93428   -1169.1612    6374.2933    11548.677    1879.5156 
  112700    303.71555   -1171.7914     6497.968    11814.593    1892.2169 
  112800    292.38843   -1167.4568    6400.0014    11478.975    1858.2423 
  112900    303.60469   -1170.8264    6312.5802    11627.802     1891.175 
  113000    297.68204   -1172.2381    6411.9345    11599.216    1922.5419 
  113100    299.46411   -1159.4768    6556.7758     11794.89    1935.1403 
  113200    293.58978   -1163.7384    6409.9461    11518.303    1895.5433 
  113300    300.36259   -1162.8925    6353.1609    11607.054    1908.5943 
  113400    301.82659   -1164.4665    6383.9086    11667.504    1840.0481 
  113500    299.71018   -1165.1046    6410.6586    11648.402    1889.3884 
  113600    301.23606   -1167.5416    6466.6107    11734.515    1880.8993 
  113700    304.84292   -1169.1898    6462.7231    11806.035    1865.5992 
  113800     297.0298   -1166.3463     6388.221    11567.461    1822.3261 
  113900    298.54278   -1162.1462    6386.9978     11602.76    1897.2816 
  114000    300.68423   -1163.0423    6424.0499    11684.665    1951.7975 
  114100     299.4232   -1165.3617     6363.675    11595.031     1965.582 
  114200    302.33125   -1157.4886    6415.2656     11716.62    1873.7411 
  114300    302.08429   -1149.6249    6563.7624    11867.705     1944.867 
  114400    302.49053   -1157.0193    6374.2695    11679.496     1825.347 
  114500    302.74362   -1159.7709    6466.2942    11774.176    1924.8003 
  114600    302.85309   -1156.4372    6353.9394    11667.494    1898.9355 
  114700    301.73975   -1158.4718    6431.1027    11718.838    1941.3328 
  114800    303.96856   -1160.3578    6482.3327    11815.797    1939.0086 
  114900    298.90897   -1163.5433    6442.7865    11664.975     1863.085 
  115000    301.48119   -1163.5065    6449.1582    11726.335    1890.1892 
  115100    294.54451   -1158.9549    6319.2822    11452.819    1835.0598 
  115200    297.27114   -1156.8899    6420.7222    11614.574    1915.2287 
  115300    305.30393   -1162.3647    6461.5089    11821.494     1935.231 
  115400      300.385   -1158.6121    6387.3838    11646.036    1926.1344 
  115500     301.1516   -1162.8565    6366.8727    11637.658    1959.9107 
  115600    297.49095   -1168.4711    6458.7866    11645.753     1959.644 
  115700    300.70563   -1167.9835    6457.4004    11713.531    1950.1005 
  115800     296.6038   -1163.9816    6409.4113    11581.915    1962.4389 
  115900     297.7806   -1167.6131    6375.7869    11569.799    1900.0207 
  116000     302.5193   -1169.2524    6486.2338    11779.842    1854.3384 
  116100    299.80146   -1157.8489    6531.3182    11778.267    1931.4108 
  116200    302.65715     -1158.88    6347.7465    11654.672    1924.2016 
  116300    295.03454   -1173.6528      6308.03    11437.337     1915.916 
  116400    306.05502   -1168.8672    6385.7645    11755.293    1970.6971 
  116500    297.73278   -1166.2544    6387.8039    11582.153     1921.953 
  116600    299.19886   -1166.5639    6405.4018    11630.762    1889.0778 
  116700    299.57765   -1168.6959    6529.0663    11760.387    1872.0901 
  116800    299.57847   -1167.5412    6441.4322    11673.925    1879.0136 
  116900    307.08913   -1161.8258    6359.4285    11758.091    1906.2383 
  117000    297.69005   -1160.0585    6415.7215    11615.354    1938.8098 
  117100    303.30583   -1156.0885    6429.0853     11752.66    1984.5431 
  117200    298.72433   -1154.5964    6414.8624    11642.053    1880.5738 
  117300    303.45544   -1160.3795    6410.5672    11733.047     1932.078 
  117400    294.26574   -1160.3498    6529.4103    11655.597    1971.6865 
  117500    301.55426   -1165.2761    6432.9752    11709.943    1920.1978 
  117600    294.01808    -1162.303    6412.9057    11531.848    1883.9409 
  117700    298.89277   -1160.1545    6475.7491     11700.98    1984.7597 
  117800    297.97224    -1162.428    6476.5888    11679.881    1928.2905 
  117900    301.75042   -1159.3735    6452.8236    11739.885    1902.0876 
  118000    297.07474   -1155.6729     6440.513    11631.386    1958.9748 
  118100    294.38981   -1155.0385    6377.9749    11512.123    1910.3225 
  118200    301.78887   -1161.2578    6374.9562    11660.955    1910.5929 
  118300    296.80948   -1166.1287    6360.0211    11534.772    1855.4753 
  118400     301.2467   -1158.4271    6485.1425    11762.389    1914.8322 
  118500    293.75227   -1156.3848     6430.587    11549.769    1856.3003 
  118600    300.99542   -1166.2837    6483.2811    11747.303    1936.4682 
  118700    301.21575   -1163.6525    6403.8484    11675.208    1890.1863 
  118800     301.8331    -1165.788    6437.3259    11719.739    1938.8736 
  118900    299.55929    -1166.817    6389.2992    11622.107    1883.2041 
  119000    302.64324   -1167.9329    6500.3601    11797.936    1961.1702 
  119100    298.95215   -1171.0817    6405.9065    11621.479    1905.4857 
  119200    297.44286   -1163.8732    6403.7877    11594.325    1890.5833 
  119300    304.09844   -1168.8572    6464.4989    11792.238    1930.0722 
  119400    294.67236   -1175.4159    6408.5224    11528.329    1920.5662 
  119500    301.82757   -1170.2324    6406.2446    11684.095    1904.0349 
  119600    297.80558    -1162.814    6424.9117    11624.257    1913.3458 
  119700    299.34196   -1166.8256    6467.9607    11696.117    1921.2438 
  119800    299.00731   -1170.7116    6369.5232    11586.644    1826.2549 
  119900      289.653    -1163.373    6359.4762    11384.095    1783.5156 
  120000    301.82102   -1167.3339    6385.3832    11665.992    1852.8667 
  120100    299.08581   -1167.0626    6425.7131     11648.16    1898.9024 
  120200     302.4156   -1162.7235    6407.4513    11705.373    1890.1753 
  120300    301.50498   -1162.7404    6446.6242    11725.075      1886.08 
  120400    297.50372   -1158.5858     6425.381    11622.506    1873.3363 
  120500    304.00565   -1162.4043    6360.2598     11692.47    1873.2373 
  120600    298.81172    -1156.809    6456.8158    11683.661    1941.9363 
  120700    297.74434   -1161.0914    6478.5273    11678.287    1913.6849 
  120800    300.29763   -1158.8775    6512.3666    11768.887    1886.2132 
  120900    298.42819   -1157.4133    6479.5382    11697.585    1899.4554 
  121000    303.31887   -1155.7138    6359.5655    11683.794    1855.9828 
  121100    294.12424   -1158.7865    6402.4049    11527.132    1916.2339 
  121200    300.95975   -1154.3655    6389.2349    11664.413    1919.3927 
  121300    301.33667   -1155.3512    6404.1989    11686.443    1873.7972 
  121400    295.58432   -1156.7604    6429.0029    11586.948    1867.5533 
  121500    295.43368   -1153.2908    6510.4328    11668.629    1965.2002 
  121600    300.22286   -1156.8058    6420.6372    11677.632    1887.7885 
  121700    300.11532   -1156.0597    6486.4829    11741.927     1927.802 
  121800    299.96924    -1158.742    6441.8268    11691.467    1945.5323 
  121900    303.60291   -1167.7038    6294.6016    11612.908    1883.3454 
  122000    298.19289   -1164.4743    6446.0718    11652.031    1915.5068 
  122100    296.11555   -1162.4934    6443.7032    11607.264    1917.3394 
  122200    299.54533   -1165.0868    6422.3639    11656.603    1897.1385 
  122300    302.57966   -1165.5764    6376.5569    11675.131    1897.3055 
  122400    297.52011   -1165.6362    6392.8763    11583.301    1946.9547 
  122500    296.20678   -1160.8904    6494.1413    11661.254    1979.4012 
  122600    304.11041   -1174.6293    6442.7035    11764.926    1896.7659 
  122700     301.4195   -1172.4291    6407.7575    11674.693    1929.2395 
  122800    302.65495   -1172.5279    6334.1859    11627.417    1866.5289 
  122900    299.78763   -1176.5658    6441.5395    11669.476     1851.639 
  123000    296.98312   -1168.3667    6490.2927    11666.515    1883.5149 
  123100    301.79169   -1166.8252    6417.7968    11698.288    1942.9027 
  123200    301.30934   -1165.8108    6276.7901    11547.991    1954.6132 
  123300    298.62534   -1167.7317    6454.2431    11666.183    1941.7951 
  123400    302.38406   -1165.1023    6480.3528    11775.222    1914.8993 
  123500    298.18352   -1161.7445    6318.1065    11526.595    1818.3454 
  123600    301.84469   -1165.9505    6385.4312    11667.929     1910.545 
  123700    301.37873   -1164.9509    6396.1241    11669.667    1863.6057 
  123800    299.05315   -1167.6167     6595.027    11816.222     1883.008 
  123900    307.88758   -1166.1724     6356.659    11768.032    1900.4543 
  124000    303.92804   -1166.2104    6303.1666    11629.913    1881.5779 
  124100    297.18696   -1160.7195    6406.3516    11594.576    1898.0104 
  124200    304.10946   -1160.7978    6494.6315    11830.666    1949.1165 
  124300    298.76795   -1155.7999      6449.59    11676.509    1949.3965 
  124400    297.02949   -1154.0097    6405.5395    11597.109    1928.1641 
  124500    298.21464   -1152.8535    6324.0003    11542.045    1924.9702 
  124600     303.7037   -1159.8814    6388.1556    11716.438    1924.7409 
  124700    293.79361   -1154.6083    6581.7246    11703.566    1923.1106 
  124800    300.39026   -1155.5138    6549.2801    11811.143    1909.7519 
  124900    298.63107   -1162.1372    6442.3979    11660.055    1934.4607 
  125000    297.55487   -1159.0588    6343.9149    11541.659    1855.2859 
  125100    302.14563   -1157.6738    6382.6519    11679.856     1920.184 
  125200    297.91721   -1158.0967    6446.0275    11652.475    1902.1709 
  125300    301.30562    -1160.119    6482.6188    11759.432    1859.3433 
  125400    296.40101   -1159.0836    6426.3604     11599.43    1898.2227 
  125500    302.13156   -1160.3432    6354.8642    11649.098    1911.3603 
  125600    299.55267   -1166.6325    6387.3676    11620.218    1904.7006 
  125700    302.99685   -1170.2431    6420.3925    11723.212    1934.5392 
  125800    295.98261   -1166.1087    6440.8405    11597.946    1911.1093 
  125900    303.21973   -1174.6108    6470.8541    11774.068    1911.5061 
  126000    299.66951   -1172.5677    6393.2724    11622.684    1921.2159 
  126100    295.25049   -1169.7425    6426.5697    11564.401    1935.9391 
  126200    300.22405   -1167.9383    6398.3731    11644.261    1865.8878 
  126300    292.61873   -1164.8535    6455.0133     11541.51    1866.3169 
  126400    304.18959   -1165.6684    6488.9181    11821.793    1943.3768 
  126500    296.01617   -1174.7722    6354.6781    11503.837    1932.3979 
  126600    301.73541   -1171.0962     6277.136    11552.154    1873.3117 
  126700    297.33663   -1170.3641    6458.5153    11640.292    1903.2463 
  126800     302.1336   -1165.9856    6570.6397    11859.275    1916.6971 
  126900    301.99641   -1172.0647    6417.7419    11697.367    1866.4293 
  127000    299.14346   -1172.7256     6371.788    11589.803    1897.3728 
  127100    300.14024   -1163.1541    6384.8225    11633.704     1903.602 
  127200    300.09805   -1168.1416      6475.64    11718.633    1915.0408 
  127300    300.33066   -1165.3673    6387.2045    11637.941     1918.211 
  127400    298.74371   -1164.8732     6338.973    11556.301    1857.8236 
  127500    299.23869   -1161.2853    6573.2257    11804.716    1966.8679 
  127600    300.62959   -1159.2216    6430.1272    11693.396    1976.9777 
  127700    297.04877   -1164.7939    6293.0864    11474.284    1957.2146 
  127800    298.14774   -1159.1054    6404.4875    11614.851    1929.4432 
  127900    302.74942   -1151.8654    6560.3788     11876.29    1937.0945 
  128000    304.79287   -1157.0416    6411.3312    11765.722    1932.6698 
  128100    299.38236   -1161.6099    6498.7747     11733.01    1908.3314 
  128200    301.29853   -1160.3319    6481.2246    11757.674    1883.6716 
  128300    300.88991   -1155.7109    6541.2283    11813.569    1957.0942 
  128400    299.33738   -1164.2099    6418.2771    11648.951    1919.4299 
  128500     297.9547   -1165.1976     6404.413     11604.56    1939.4095 
  128600    300.59417   -1158.9187    6337.7576    11600.572    1937.0144 
  128700      299.224   -1159.7753     6404.207    11636.893    1931.8405 
  128800    296.98149   -1162.5327    6447.8423    11629.863    1917.4409 
  128900    300.56237   -1160.2117    6465.4051    11726.247    1884.9516 
  129000    302.50887   -1167.0107    6422.2109    11717.838    1867.6068 
  129100    295.69611   -1164.5594    6410.2402    11562.774    1875.0348 
  129200    299.20898   -1167.6464    6457.1666    11681.661    1901.6158 
  129300    296.26328   -1170.4156    6449.3134    11608.108     1906.174 
  129400    295.76325   -1168.1418    6403.3904    11553.777    1885.0441 
  129500    302.32511   -1170.3661    6380.0475    11668.393     1847.142 
  129600    298.92268   -1171.5371    6381.7238    11596.211    1891.7938 
  129700    297.46821   -1164.2598    6439.6337    11630.326     1934.587 
  129800    303.14026   -1164.1489    6492.0339    11804.012    1963.4022 
  129900    300.72443   -1167.7808    6432.8338    11689.569    1943.0263 
  130000    306.04491   -1165.5765    6421.4721    11794.076     1952.244 
  130100    299.91767   -1169.7499    6394.0054    11631.536    1912.4542 
  130200    299.87487   -1171.0781    6291.3826    11526.671    1857.3498 
  130300    302.96689   -1164.1502    6430.0967    11738.369    1903.6017 
  130400    297.89888   -1170.8433    6361.9714    11555.281    1811.6507 
  130500    296.99867    -1165.187    6499.4523    11679.186    1922.5934 
  130600    302.39801   -1170.7746    6371.7065    11661.201    1883.2425 
  130700    294.73507   -1163.4502    6421.1025    11554.215    1909.2449 
  130800     300.1997   -1163.4111    6490.2571    11740.152    1891.0969 
  130900    297.71566   -1159.8113    6439.0656    11639.493    1886.3618 
  131000    307.92654   -1161.4309    6383.0207    11799.968    1935.2609 
  131100    299.01663   -1161.5305    6411.9406    11638.442    1934.6956 
  131200     300.0722   -1160.8612    6409.6379    11659.359    1902.3009 
  131300    299.68712   -1160.1422    6467.4358    11709.649    1868.0644 
  131400    301.28886   -1159.4955    6467.0829    11744.162    1922.6335 
  131500    300.73065   -1164.1256    6272.4836    11533.007    1928.4289 
  131600    302.58275   -1161.3851     6377.664    11680.495    1915.6358 
  131700    300.61132   -1159.1621    6495.1161    11758.054    1922.8733 
  131800     299.5204   -1164.7247    6464.8873    11698.956    1864.0903 
  131900    303.61238   -1155.3553    6536.4841    11867.342    1921.4167 
  132000    299.66682   -1160.6712    6466.3163    11707.567     1919.054 
  132100    303.49914   -1163.8216    6303.6703    11623.642    1923.3811 
  132200    295.59035   -1165.4802    6378.9343    11528.288    1960.6436 
  132300    303.34853   -1168.0752    6474.9927    11787.493    1962.1994 
  132400    297.69467   -1163.3197    6451.6849    11648.155    1882.2925 
  132500    301.88934   -1170.8028    6498.1517    11776.752    1956.9197 
  132600    300.22858   -1172.3224    6387.6436    11629.244    1869.7962 
  132700    299.23022   -1167.1092    6341.1405    11566.626    1861.0081 
  132800    301.75332   -1165.6227    6467.7989    11748.673    1909.3977 
  132900    305.43905   -1165.8449    6460.0961    11819.488    1941.6632 
  133000    297.97191   -1174.6339    6455.1567    11646.235    1977.5676 
  133100    299.87354   -1164.2067    6354.8446    11596.976    1917.7548 
  133200    301.03035   -1171.8122    6468.0378    11727.277    1938.2243 
  133300    299.19273   -1169.9696     6419.887    11641.711    1916.5186 
  133400    298.03968   -1165.2319    6405.1325    11607.061    1864.9107 
  133500    297.20235   -1165.9102    6426.2876     11609.65    1909.2714 
  133600    299.34221   -1172.5775    6364.1972    11586.607    1855.1932 
  133700    301.29042   -1165.9805    6470.4034    11741.031    1932.6648 
  133800    303.92543   -1169.2141    6464.0092    11787.696    1910.6127 
  133900    304.32691   -1162.3146    6439.3169     11778.48    1932.6576 
  134000    294.76576   -1161.1632    6334.3253     11470.38    1909.6614 
  134100    300.11955   -1163.3564     6415.633     11663.87     1932.511 
  134200    301.14085   -1160.5157    6437.7792    11710.676    1904.8212 
  134300    297.29863    -1165.506    6454.7386    11640.562    1934.8178 
  134400    302.01445   -1163.6411    6348.7169    11637.151    1860.9378 
  134500    298.54005   -1152.8467    6518.6727    11743.676    1945.4241 
  134600     298.7304   -1161.9886    6374.1946    11594.123    1912.1753 
  134700    299.68336    -1162.726    6375.1165    11614.666    1842.9804 
  134800    303.16847   -1156.4743    6532.7435    11852.999    1898.1994 
  134900    295.22311   -1156.9096    6477.9031    11627.982    1927.5915 
  135000    302.74951    -1157.842     6366.802    11676.739    1932.0625 
  135100     301.2423   -1162.4629    6400.9126    11674.029     1968.085 
  135200     301.3257   -1155.4527    6445.5801    11727.489     1965.544 
  135300    295.01322   -1157.4739    6528.6956    11673.727    1907.7693 
  135400    302.37471   -1161.6131    6437.3574    11735.516    1879.9701 
  135500    297.18629   -1165.3854     6429.104    11612.648    1860.1069 
  135600    299.69732   -1159.5574    6408.9626    11651.979    1796.2055 
  135700    302.20895   -1158.9923    6496.6947    11793.933    1903.6467 
  135800    302.14452   -1159.2943     6400.058    11695.618    1873.6892 
  135900     294.2314    -1161.779    6371.3394    11495.363    1902.5729 
  136000    302.45343   -1164.3395    6447.9547    11745.069    1919.6672 
  136100    295.51648   -1166.9843    6452.0433    11598.315     1843.875 
  136200    297.91738    -1166.498    6419.9812    11618.031    1866.5063 
  136300    305.16668   -1163.2878    6394.6331    11750.763      1878.84 
  136400    298.59865   -1168.4529    6494.4339    11705.083    1896.1929 
  136500    297.32478   -1173.8089    6437.8661    11615.945    1851.1546 
  136600    302.50913   -1172.0809    6413.9339    11704.497    1878.4263 
  136700    300.39357   -1164.7933    6448.1649    11700.819    1944.0145 
  136800    298.79961   -1169.6107    6329.5975    11543.382    1865.3915 
  136900    306.24295   -1165.8776    6372.5644    11749.098    1962.3519 
  137000    298.52262   -1163.5562    6447.8769    11661.799    1916.9846 
  137100    301.07534   -1167.3057    6500.0197    11764.727    1878.4925 
  137200    298.38456    -1167.926    6306.7196    11513.322    1818.1438 
  137300    300.67892   -1161.0521    6371.8311    11634.323    1888.3962 
  137400    298.37271   -1166.9672    6432.8108    11640.119    1895.9757 
  137500    305.61645   -1162.7354    6488.5505    11854.842     1968.502 
  137600      296.756   -1170.7714    6473.3291    11642.294    1941.8304 
  137700    305.25462   -1167.1041    6325.2825    11679.475    1926.5021 
  137800    292.87022    -1164.983    6500.1632    11591.903      1995.71 
  137900    300.07928   -1160.6078    6417.3646     11667.49    1983.7066 
  138000    302.58135   -1160.8759    6393.7353    11697.046    1904.6647 
  138100    300.19516   -1158.5172    6468.7166    11723.409    1881.7185 
  138200    301.97777   -1158.4334    6429.5709    11722.429    1929.5586 
  138300    293.06705   -1163.6168    6334.9415    11432.253    1867.0752 
  138400     302.8029   -1164.9023    6333.4816    11637.499    1885.1208 
  138500    294.53467   -1161.1028    6423.6245    11554.803    1899.8519 
  138600    298.00556   -1168.2026    6422.6306    11620.859    1855.9932 
  138700    300.74617   -1163.5339    6446.8288    11708.275    1864.0223 
  138800    301.83811   -1160.4641    6412.4841    11700.328      1878.66 
  138900    299.32494   -1159.5397    6495.6468    11730.725    1928.4345 
  139000     301.9266   -1158.5548    6317.1078    11608.752    1848.4474 
  139100    298.34055   -1162.9837     6489.274    11699.878    1925.1999 
  139200    302.87938   -1162.2883    6377.0324    11685.297    1935.3564 
  139300    298.03358   -1169.7808    6341.3077    11538.557    1880.8661 
  139400    301.40664   -1163.9525    6455.6356    11730.774    1897.5204 
  139500    302.95195   -1170.1413     6411.171    11713.133    1843.9164 
  139600     302.8522   -1174.1288    6502.9602    11798.804    1851.8172 
  139700    297.87059   -1168.9572    6419.3724    11613.963    1846.6258 
  139800    299.67919   -1162.0447    6382.0463    11622.188    1917.7894 
  139900    301.09062   -1171.5148    6424.5868    11685.411    2000.2358 
  140000    299.69332    -1162.865    6531.7323    11771.355    1950.8611 
  140100    294.51711   -1166.0399    6492.5696    11618.436    1909.0977 
  140200    295.70814   -1169.1793    6359.6843    11507.856    1970.2375 
  140300    301.90911   -1164.6518    6466.9777    11752.151    2005.7852 
  140400    299.12055    -1164.045    6484.7437     11710.95    1972.7636 
  140500    303.27993   -1166.5214    6302.7028    11615.292    1934.1945 
  140600    295.10028   -1167.0007    6499.2826    11636.647    1984.6103 
  140700    302.56812   -1169.0845    6456.8973    11751.716    1854.6388 
  140800    298.41017   -1166.0017    6442.4212    11651.495    1876.2231 
  140900    304.01479   -1164.4084    6420.2524    11750.653    1911.5182 
  141000    300.06831   -1167.3938    6480.9283    11724.034    1884.1004 
  141100    301.80224   -1160.0443    6380.7353    11668.233    1787.8002 
  141200    298.40396   -1162.1134    6493.7163    11706.546    1998.3009 
  141300    300.44316   -1163.7007    6344.6571    11599.463    1890.6477 
  141400    301.59273   -1162.5208    6402.4598    11683.005    1874.4209 
  141500    299.95578   -1158.5575    6411.8658    11661.403    1911.0353 
  141600    293.19949    -1153.907    6456.1346    11565.985    1880.1221 
  141700    303.36158   -1165.2195    6389.9912    11705.626    1910.3102 
  141800    304.02214   -1161.8474    6414.3834    11747.503    1968.4567 
  141900     295.2775   -1165.5651    6354.2205    11496.806    1955.0493 
  142000    300.94036   -1163.0807    6429.1899    11695.238    1942.6641 
  142100    300.46827   -1166.9733    6488.8173    11740.887    1909.0818 
  142200    296.47872   -1168.6695    6450.2596    11615.403    1851.0178 
  142300    304.15608   -1162.4144    6318.9051    11654.319    1807.9266 
  142400    296.56141   -1161.7975    6457.4878     11631.27    1909.1294 
  142500    298.46045   -1161.4562    6509.1099    11723.803    1923.6497 
  142600    302.73667   -1165.9126    6478.0464    11779.638    1954.6907 
  142700    298.52297    -1165.445     6357.103    11569.143    1811.2715 
  142800    296.93332   -1170.4116    6460.1148    11633.228    1920.7349 
  142900    301.76369   -1173.3455    6391.0498    11664.422    1938.9852 
  143000    298.54199   -1167.6955    6384.6221    11594.818    1902.4805 
  143100    298.36331   -1168.0514    6440.5163    11646.539    1945.1135 
  143200    296.14369   -1168.4281    6380.5166    11538.744    1920.2434 
  143300    303.25518   -1165.5993    6446.0925    11759.075    2002.0012 
  143400    295.04496   -1168.7381    6390.1005    11524.545    1946.1682 
  143500    307.41247   -1169.4941    6423.9241    11821.826    2031.0004 
  143600     300.5704   -1162.3835    6415.8874    11674.729    1968.0852 
  143700     301.3535    -1166.067    6482.5848    11754.473    1942.2611 
  143800    298.64025   -1165.0671    6377.2342    11592.158    1880.0641 
  143900    297.77007   -1164.9955    6482.4509    11678.856    1887.4638 
  144000    298.99641   -1168.1864    6400.0637    11619.477    1887.6451 
  144100    301.75731   -1164.7733    6313.4999    11595.309    1873.1132 
  144200    299.11743    -1163.747    6392.4261    11618.864    1903.8338 
  144300    301.46311   -1162.5604    6534.8616    11812.598    1894.0066 
  144400    300.93553   -1159.9844     6380.202    11649.244    1815.1182 
  144500    301.18549    -1164.463    6422.7189    11692.622    1922.3078 
  144600    299.18217   -1159.3426     6388.987    11621.212    1951.5873 
  144700    296.60321   -1157.8201    6365.9956    11544.648     1914.379 
  144800    297.79251   -1160.2335    6513.1037     11714.75    1949.8084 
  144900    296.47519   -1157.7887    6414.9057    11590.855    1950.9598 
  145000    300.85185   -1162.3719    6444.2154    11709.082    1998.0116 
  145100    302.38943   -1154.7183    6340.8044    11646.172    1902.9184 
  145200    299.79753   -1158.2608    6432.8045    11679.258    1883.5399 
  145300     301.9441    -1157.264    6535.8836    11829.192    1894.5703 
  145400    299.52661   -1159.8483    6473.3081    11712.386    1852.2463 
  145500    299.99007   -1162.2663    6446.0875    11692.649    1890.2473 
  145600    295.91388   -1165.0281    6286.8407    11443.559    1803.8074 
  145700    299.04843   -1165.3147    6450.7439     11674.14     1943.099 
  145800    299.06971   -1160.9537    6423.3407    11651.552     1943.839 
  145900    296.59027    -1158.188    6427.7534    11605.761    1910.4252 
  146000     298.7211   -1164.1127    6360.1429    11577.748    1892.5664 
  146100    306.94435   -1161.5255     6417.825    11813.695    1940.9636 
  146200    296.11171   -1167.6184    6354.0177    11512.372    1884.0845 
  146300    299.89921   -1163.8882    6553.1874    11796.186    1955.2306 
  146400    302.96413   -1169.0877    6338.0956    11641.372    1821.8328 
  146500    301.38499   -1170.2601    6352.9526     11621.32    1905.4536 
  146600    297.48201   -1162.0384    6438.3949    11631.603    1848.5042 
  146700    297.96306   -1169.1659    6555.9483    11752.306    1939.6856 
  146800    298.59744   -1172.9759    6393.1817    11599.282    1945.4034 
  146900    302.42303   -1166.7643    6334.4757    11628.515    1859.9365 
  147000    302.54721   -1161.9771    6414.5759    11716.056    1894.4642 
  147100      304.186   -1166.0795    6435.3992    11767.787    1951.3074 
  147200    296.86539   -1164.4807    6449.9089    11627.502    1906.8727 
  147300    300.71707   -1166.5991     6404.439    11662.199    1904.5363 
  147400    296.65763   -1164.7443    6409.9748    11582.866    1928.4387 
  147500    303.94055   -1164.0858    6356.9772    11686.115     1975.175 
  147600    298.84542   -1163.7894    6369.4318    11590.016    1898.2422 
  147700     295.0758   -1162.7659    6361.6285    11502.704     1874.545 
  147800    300.84497   -1163.4569    6490.2701    11753.904    1867.3647 
  147900    298.26713   -1159.4862    6504.0551    11716.588    1874.0209 
  148000    305.70665   -1162.6133    6293.1002     11661.44    1895.5846 
  148100    297.57993   -1155.2586    6369.7416    11571.822    1939.1158 
  148200     299.4859   -1157.4588    6457.5551    11698.153    1859.3564 
  148300    298.76012   -1162.5399    6474.2807    11694.292     1896.183 
  148400    301.23599   -1165.1303    6358.6776    11628.992     1842.969 
  148500    292.73068   -1166.7982     6518.581    11605.525    1855.7183 
  148600    300.14578   -1161.5146     6443.468    11694.107    1888.6214 
  148700    297.32618   -1158.2323    6460.0133    11653.699     1945.919 
  148800    301.42609   -1159.7136     6294.005    11573.797    1844.9987 
  148900    296.39356   -1153.3886    6468.5722    11647.177    1906.7451 
  149000    304.28427   -1159.4391    6543.3954    11884.523    1995.5161 
  149100    302.95855   -1155.8783    6426.5838     11742.95    1958.1561 
  149200    299.66758   -1165.3368    6308.3879    11544.989    1877.0598 
  149300    301.47853   -1167.9258    6449.2636    11721.964    1935.7617 
  149400    301.42726    -1165.288    6402.5457    11676.789    1902.4079 
  149500    299.13855   -1167.4713    6464.3946    11687.559    1886.1486 
  149600    298.93913    -1166.936    6511.8239    11731.264    1925.5194 
  149700    305.78754   -1163.4727    6274.6036    11643.812    1940.8509 
  149800    301.64264   -1159.9885    6378.0898    11662.234    1976.4852 
  149900    297.14305   -1158.4844    6560.5922    11750.113     1956.263 
  150000    300.90707    -1158.436    6507.7998    11777.782    1954.8239 
  150100    298.54505   -1166.5036    6243.4383    11454.892    1886.3792 
  150200    301.19206   -1164.3198    6419.8256    11690.012    1948.2254 
  150300    301.35948   -1169.1605    6459.8368    11728.759    1946.9783 
  150400    298.07477   -1167.8303    6404.6041    11604.684    1903.3339 
  150500    303.02069   -1171.7392    6410.0283    11711.861    1949.0241 
  150600    300.61074   -1168.8841     6443.648    11696.851    1882.9309 
  150700    296.72166   -1167.9323    6487.4954    11658.566    1936.3927 
  150800    303.91208   -1162.3583    6431.1048    11761.362    1907.3863 
  150900    301.09403   -1162.0017    6460.8243    11731.235    1887.8613 
  151000     307.3504   -1160.4016    6301.0251    11706.693    1894.7152 
  151100    301.21678   -1164.2323    6383.0979      11653.9    1920.6592 
  151200    298.63951   -1163.0182    6442.6149    11659.571    1868.2016 
  151300    301.15461   -1169.8211    6534.1069    11797.992    1922.3024 
  151400    298.38938   -1171.6521    6375.8626    11578.842    1889.2336 
  151500    300.59516   -1168.3639    6292.9051    11546.295    1872.8128 
  151600    297.13779   -1172.3639    6559.5711      11735.1     1924.219 
  151700    301.90155   -1165.4962    6506.3302    11790.497     1917.282 
  151800    299.37868   -1161.5146    6425.8676    11660.119    1883.9114 
  151900    297.08972   -1155.2536    6383.7579     11575.37    1889.2779 
  152000    302.97096   -1159.2042    6432.3501    11745.656    2045.0288 
  152100    298.88699   -1162.7226    6346.3781    11568.918    1924.6454 
  152200    300.88892   -1164.2555    6387.2636    11651.038    1918.2907 
  152300    303.75398   -1165.4546     6469.785    11793.568    2017.2211 
  152400    300.37219   -1162.8711    6360.9123    11615.032     1918.039 
  152500    300.06299   -1166.5696    6431.3812    11675.197    1940.2871 
  152600    303.32779   -1157.6742    6515.5223    11837.981    2015.6639 
  152700    299.21735    -1164.859    6424.8822    11652.343     1923.816 
  152800    302.64713    -1162.022    6384.7142    11688.284    1868.7276 
  152900    298.59769   -1158.5028    6505.3189    11725.898    1919.8531 
  153000    300.71105   -1160.4484    6341.9183      11605.7    1880.1689 
  153100    305.56537   -1157.4613    6420.2275    11790.702    1892.5477 
  153200    300.13548   -1159.5392    6460.2975    11712.692    1900.5102 
  153300    300.15953   -1160.0476    6363.7162    11616.116    1850.8566 
  153400    297.50176   -1162.0911    6393.3155    11586.893    1866.9025 
  153500    304.26165   -1160.9075     6454.172    11793.348    1853.4549 
  153600    304.13494   -1163.6939    6415.9273     11749.61    1833.5794 
  153700    305.28462   -1160.9128    6431.8211    11792.846    1877.9784 
  153800    297.62008   -1158.3835     6396.447     11596.26    1851.9709 
  153900    306.94301   -1160.2746    6396.2974    11793.389     1926.918 
  154000    299.70365   -1151.0953    6518.1847    11769.798    1899.4531 
  154100    299.85686    -1157.244    6338.9698    11587.707    1813.1585 
  154200    302.90557   -1161.1248    6442.4743    11752.462    1809.4143 
  154300     295.1633   -1160.9805    6538.3943    11683.125     1832.062 
  154400    303.54118   -1160.4689    6405.1478     11729.37    1840.0875 
  154500     295.3908   -1164.2718    6352.3709     11498.67    1872.0652 
  154600    299.52275   -1165.5146    6420.3453    11653.675     1873.128 
  154700    298.17464   -1161.9572    6462.4343    11670.521    1881.7617 
  154800    300.27356   -1162.9392    6422.5317    11674.476    1904.2774 
  154900    296.05804   -1163.9804    6385.2715    11546.117    1831.2698 
  155000    299.00714   -1163.8321    6418.5587    11642.555    1902.9993 
  155100    296.91976   -1158.4586    6445.5055    11630.282    1958.6762 
  155200    299.94113   -1163.0862    6338.2944     11582.99    1943.4039 
  155300    300.87248   -1162.6038     6444.161    11709.236    1880.0071 
  155400    297.88474   -1171.7153     6439.266    11631.401    1879.5253 
  155500    300.93701   -1169.6473    6426.5683    11685.978    1893.8425 
  155600    299.17376   -1168.5096    6420.5903    11643.469    1883.8409 
  155700    302.53259   -1163.5002    6426.2671    11725.911    1911.2702 
  155800    301.97039   -1166.3895    6346.3813    11631.126    1858.5256 
  155900    296.59735   -1162.1226     6380.645     11554.87    1873.3041 
  156000     305.6452    -1164.258    6426.3697    11791.752    1895.6352 
  156100     298.1391   -1162.0967     6453.318    11660.506    1917.6731 
  156200    299.49929   -1154.3732    6471.0539    11715.023     1954.533 
  156300    300.71281   -1152.9409     6369.897    11641.224    1911.0208 
  156400    295.27591   -1167.0026    6356.9077    11498.022    1845.6706 
  156500    300.57668    -1165.142    6473.1751    11729.393    1897.2365 
  156600    302.50483   -1161.3669    6466.6303    11767.815    1900.1161 
  156700    299.54718   -1163.1539    6428.2943    11664.506    1837.6708 
  156800    301.78566   -1165.6213    6445.3047    11726.871    1901.0409 
  156900    292.17448   -1158.6409    6347.5387    11430.757    1836.8865 
  157000    303.25761   -1153.1111    6486.0002    11811.523    1909.4615 
  157100    297.30703   -1150.6323    6400.7779    11601.654    1874.5572 
  157200    303.65288   -1153.9179    6353.3117    11686.472    1936.7484 
  157300    298.02471   -1154.4575    6451.5965     11663.98    1873.1057 
  157400    299.54346   -1160.8778     6543.501     11781.91    1917.0732 
  157500    300.35458   -1164.1006    6365.4368    11617.951    1831.1649 
  157600    295.07198   -1166.6146    6423.6136    11560.759    1846.7861 
  157700    303.36023   -1163.9696     6471.739    11788.595    1939.7983 
  157800    300.39208   -1167.9213    6448.3188    11697.813    1955.9887 
  157900    299.57659   -1165.9757    6382.9809        11617    1864.5782 
  158000     299.1545    -1161.574    6450.7718    11680.175     1867.629 
  158100    301.37355   -1159.2391    6562.0184    11841.163    1952.6612 
  158200    299.63843   -1165.3991    6315.5252    11551.441    1836.1586 
  158300    297.34829   -1164.8393    6401.7442    11589.295    1988.7864 
  158400    303.36516   -1168.7033    6372.7323     11684.96     1976.895 
  158500    299.09334   -1166.4576    6389.6981    11612.911    1938.0563 
  158600    296.54758   -1167.5011    6467.4138    11635.197    1945.1406 
  158700    298.85436   -1164.8951    6383.3445    11603.014    1974.4316 
  158800    298.33742   -1171.5317     6353.215    11555.204    1914.2851 
  158900    295.96026   -1168.9933    6452.7594    11606.503    1919.7342 
  159000     301.2696   -1164.3506     6469.786    11741.598    1888.2628 
  159100    293.95299   -1171.1571    6434.9398    11543.637    1985.8307 
  159200     302.1902   -1158.6377    6320.8855    11618.078    1937.9188 
  159300    303.26335   -1165.6079    6370.1895    11683.338    1961.9292 
  159400    298.63736   -1171.2954    6474.2601    11682.894    1958.8434 
  159500    297.92333   -1166.1151    6426.6928    11625.252    1937.9368 
  159600    301.40089   -1161.1782    6376.2465    11654.036    1912.8331 
  159700     302.8248   -1161.8537    6373.7319    11681.265    1948.7584 
  159800    296.56486   -1163.7967    6459.3457    11631.202    1938.4478 
  159900    300.43407   -1160.0768    6438.6222    11696.858    1878.6437 
  160000    300.59959   -1159.1607    6361.8069    11624.495    1849.5826 
  160100    298.66673   -1163.8361     6421.525    11638.245    1907.6707 
  160200    303.79587   -1163.8617    6467.3131    11793.584    1934.6875 
  160300    297.72469   -1157.1027    6465.3356    11668.664    1880.3698 
  160400    303.59292   -1160.0361    6348.6211    11674.382    1902.1072 
  160500    295.80916   -1157.1584    6359.2262    11521.577    1879.4734 
  160600    300.49757   -1159.7702    6435.0783    11694.978    1915.2218 
  160700    301.31388   -1157.7113    6467.2695    11746.667     1958.285 
  160800    303.59285   -1159.5599    6309.5344     11635.77    1884.8491 
  160900    300.62178   -1162.9229    6420.9986    11680.399    1881.3996 
  161000    297.96647   -1163.2598    6555.4657    11757.802    1946.9358 
  161100    300.17906   -1164.4282    6490.5135     11738.95    1938.6684 
  161200    299.24279   -1165.1479    6356.4493    11584.164    1881.3601 
  161300    295.97907   -1159.9275    6398.9563    11562.167    1880.3289 
  161400    298.63356   -1160.7929    6405.7141    11624.769    1917.3841 
  161500     300.5156   -1163.1743    6426.2515    11683.132     1916.212 
  161600    299.44675   -1163.8409    6404.8246    11638.204    1854.1628 
  161700    299.64128   -1170.1924    6439.1516    11670.335    1912.7693 
  161800    299.23363   -1164.3881    6375.0971    11603.376    1903.1472 
  161900    303.16322    -1164.123     6454.185    11766.679    1972.5795 
  162000    297.13909   -1164.1079    6342.9332    11526.746    1899.6573 
  162100    298.19983   -1169.8768    6364.6752     11565.38    1879.3371 
  162200    300.97092   -1161.7643     6363.897    11631.915     1851.315 
  162300    292.77707   -1163.3559    6438.3042    11529.681    1945.1832 
  162400     301.4894   -1163.4778    6437.4558    11714.837    1907.0814 
  162500    296.05301   -1164.7974    6360.7365    11520.657    1868.0948 
  162600    300.56262    -1163.712    6328.7105    11586.058      1876.44 
  162700    299.56816   -1157.9673      6374.89    11616.737    1853.4561 
  162800    299.79929   -1163.0579    6456.0134    11697.707    1884.6793 
  162900    299.65827   -1162.4544     6438.878    11678.163    1917.9348 
  163000    295.59089   -1162.3386    6413.2325     11565.74    1871.7495 
  163100    306.51919   -1154.5678    6456.5605    11850.305     1900.503 
  163200    300.18556   -1151.4204    6487.3893    11748.973     1888.061 
  163300    298.54067    -1160.407    6389.7536     11607.21    1899.9001 
  163400    303.60315   -1157.7773    6380.4675    11708.706    1928.3715 
  163500    294.98362   -1152.7934    6483.4984    11632.577    1875.8215 
  163600    302.91227   -1158.7458    6500.4318    11812.942    1926.2182 
  163700    298.70123   -1153.2233    6323.4963    11551.567    1896.3121 
  163800    297.64619   -1157.6878    6371.4827    11572.549    1885.3327 
  163900    300.42181   -1158.9259    6507.3053     11766.43    1937.3237 
  164000    297.16334   -1155.0881    6383.3468    11576.697    1893.4291 
  164100    297.34716   -1156.9243    6474.7437    11670.185    1866.9582 
  164200    301.69595   -1160.2827    6442.5263    11727.515     1874.052 
  164300    299.43595   -1162.2089    6436.4763    11671.257     1897.316 
  164400    301.29354   -1161.3621    6303.9626    11579.275    1841.3805 
  164500    298.35232   -1162.9196    6498.2955    11709.215    1938.8414 
  164600    307.42068   -1168.3337    6397.3595    11796.597    1864.2282 
  164700    300.35521    -1164.774    6444.8977    11696.752    1878.1005 
  164800     302.5975   -1165.2785    6515.2862    11814.539    1985.9256 
  164900    304.18161   -1165.2457    6307.7278    11640.855    1942.8649 
  165000    296.18145   -1168.8797    6334.7227    11493.305    1904.3931 
  165100    299.34471   -1163.6745    6446.3114    11677.677    1864.2737 
  165200    300.97339   -1176.1061    6519.1412     11772.87    1897.9949 
  165300    295.51573    -1171.731    6370.1022    11511.611    1829.3277 
  165400    301.25129   -1175.3558     6445.167    11705.583    1852.5789 
  165500    298.88385   -1173.7399    6502.4422    11713.897    1856.5072 
  165600    301.87785   -1164.8729    6404.6418    11688.926    1855.6847 
  165700    298.61048   -1169.8447    6308.6645    11518.175    1874.8913 
  165800    300.46794    -1163.105    6336.7034    11592.635    1894.9961 
  165900    298.19443   -1164.4702    6423.5777    11629.574    1827.9935 
  166000    302.91027   -1154.4388    6573.2357     11890.01    1908.2932 
  166100    298.80404   -1165.5579    6403.4537    11621.386    1892.0438 
  166200    300.35117   -1159.1522    6356.1553    11613.545    1916.1428 
  166300    303.62731   -1164.4716    6378.7968    11700.857    1930.9203 
  166400    297.33443   -1157.0829    6396.3758    11591.387    1902.3213 
  166500    301.84604   -1158.3617      6454.93    11745.046    1933.6713 
  166600    295.86639    -1160.891    6435.5781    11595.419    1887.7801 
  166700    296.81218   -1156.0767    6337.2935    11522.154    1895.8079 
  166800     304.0927     -1153.09    6442.7503    11786.134    1977.1445 
  166900    294.59507   -1158.9907    6449.5432    11584.124    1923.0357 
  167000    301.24841   -1161.1764     6350.455    11624.989    1915.7142 
  167100    300.84101   -1157.2957    6419.2682    11688.979     1910.288 
  167200    304.74461   -1153.6525    6512.4298    11869.178    1885.6897 
  167300    299.83544   -1163.4311    6424.4628    11666.556    1813.3774 
  167400    299.42418   -1156.3928    6417.6281    11657.974    1879.1163 
  167500    294.63279   -1153.1828    6356.4661    11497.661    1843.0846 
  167600    300.58271    -1162.377     6411.827    11670.938    1922.8766 
  167700    301.76379   -1165.1666    6470.7681    11752.322    1928.7699 
  167800    296.79446   -1160.6821    6453.6045    11633.481     1862.338 
  167900    298.13017   -1162.3549    6396.7182    11603.457    1852.7371 
  168000    301.31719   -1161.1048    6403.7419    11679.817    1860.6803 
  168100    292.68173   -1170.8563    6384.6234    11466.463    1823.5064 
  168200    301.42344   -1169.0566    6429.5796    11699.972    1862.6458 
  168300    298.84976   -1166.4981    6468.8537    11686.822    1886.1165 
  168400    304.70338   -1172.9056    6525.0512    11861.666    1913.9506 
  168500    296.63145   -1165.3833    6378.1471     11549.84    1911.1868 
  168600    299.65328   -1166.5233    6330.8312     11565.94    1912.3974 
  168700    301.80549   -1163.3866     6381.228    11665.453    1922.1229 
  168800    303.75143   -1163.4888    6390.9033    11716.598    1896.3646 
  168900    298.59895   -1166.4347    6438.2516    11650.925    1878.6823 
  169000    300.66206   -1161.5993    6441.8614    11703.446    1952.7775 
  169100    301.65456   -1166.2526    6358.4988    11636.633    1907.9519 
  169200     300.8448   -1161.2354    6380.0891    11645.941    1905.8555 
  169300    299.97511   -1161.1293    6536.7491    11784.128    1927.8537 
  169400    305.10893   -1157.0982    6533.8101    11894.896    1863.4394 
  169500    299.60924   -1159.3228    6434.1333    11675.502    1920.3811 
  169600      300.243   -1156.4068    6371.4874    11629.312    1968.4466 
  169700    302.07284   -1159.5767    6418.7287    11712.475     1951.265 
  169800    297.46393    -1150.339    6521.2754    11725.797    1954.1822 
  169900    299.99107   -1155.3089    6507.4433    11760.983    1993.6686 
  170000    299.59996   -1154.9805    6370.9257    11616.439    1889.8785 
  170100    297.85043   -1154.8136    6385.4147    11593.719    1845.6395 
  170200    297.30511   -1157.6158    6424.7249    11618.577    1947.7709 
  170300     297.4382   -1155.8653    6529.1885    11727.634    1896.2338 
  170400    301.29783   -1153.8417    6491.9906    11774.915    1849.7465 
  170500    299.30482   -1157.5996    6448.3899    11684.978    1933.3738 
  170600    298.52589   -1156.1615    6286.3136      11507.7    1811.6937 
  170700    304.58714   -1159.7156    6444.0099    11791.331    1912.0465 
  170800    295.54264   -1153.9205    6405.4792    11565.374    1937.8473 
  170900    300.28792   -1162.8966    6450.6366    11702.931    1991.0731 
  171000    304.21146    -1159.891    6398.1971    11737.317    1839.4815 
  171100    297.94274   -1164.6522    6507.1152    11707.553    1896.9975 
  171200    300.26106    -1165.481    6448.3862    11697.522    1853.7235 
  171300    298.24559   -1169.8406    6390.5183    11592.237    1873.8347 
  171400    294.39986   -1171.9327     6368.559    11486.028    1862.7002 
  171500    301.55923    -1168.188    6399.1888    11673.351    1880.5237 
  171600    297.10977   -1167.7763    6525.1653    11704.683      1866.88 
  171700    301.03598   -1175.3519    6405.6309    11661.451    1835.3239 
  171800    299.73389   -1167.8878    6444.8555    11680.322    1939.5059 
  171900    299.42504   -1171.5168    6323.5408     11548.78    1858.9177 
  172000    300.59525   -1170.6147    6332.1814    11583.323    1823.3974 
  172100    296.68203   -1160.7765    6518.1238    11695.504    1893.6726 
  172200    303.04197   -1165.4894    6455.5185    11764.056    1874.0497 
  172300    297.17627   -1170.9621    6345.8169     11523.57    1866.3832 
  172400     293.1659   -1169.4423    6361.4488    11455.046    1814.0135 
  172500     299.7888    -1163.608    6509.4648    11750.385    1908.4802 
  172600    293.68891   -1163.9255    6466.4593    11576.747     1939.887 
  172700    298.37077    -1161.181    6351.4928    11564.545    1885.3906 
  172800    303.92628   -1161.5107    6414.0601    11745.468    1915.7379 
  172900     294.7209   -1159.5846    6468.8368    11605.512    1954.2638 
  173000    302.12996   -1162.7694    6436.5028    11728.276    1886.4945 
  173100    301.13926   -1157.0139    6369.3582    11645.723    1859.3154 
  173200    296.29375   -1161.5138    6398.7505    11567.098    1939.3942 
  173300    302.51385   -1153.8049    6417.2681    11726.207     1931.707 
  173400     298.7358   -1155.7122     6395.255    11621.575    1822.1334 
  173500     300.7723    -1162.109    6500.5213    11763.951    1921.2187 
  173600    299.14475   -1163.0324     6554.547    11782.283    2006.9639 
  173700    303.53556   -1159.4743    6315.8332     11640.93    1872.0559 
  173800    299.35541    -1160.608     6401.126    11635.787    1860.2358 
  173900    298.96321   -1158.1675    6501.1626    11729.885    1846.1991 
  174000    298.48951   -1156.5469    6537.6944    11757.918    1891.1315 
  174100    300.52621   -1158.2778    6281.4654    11543.469     1829.048 
  174200    299.11523   -1155.0782    6412.7086    11647.768    1957.4704 
  174300    301.94441   -1156.1448    6407.8319    11702.266    1879.4329 
  174400    298.21228   -1163.1845     6454.502    11662.165    1896.1518 
  174500    302.75937   -1161.5173    6413.0615    11719.534    1819.8911 
  174600    299.58996   -1165.6982    6481.2111    11715.793    1870.3643 
  174700    300.12887   -1165.0247    6334.9468    11581.715    1883.7871 
  174800    299.30889   -1168.3495    6293.6791    11519.605    1845.6867 
  174900    302.58118   -1161.6223    6523.2109    11825.771    1994.0599 
  175000    299.66693   -1168.5656    6496.4139    11729.772    1985.8803 
  175100    296.88925   -1166.7768    6329.8455    11505.652    1900.2347 
  175200    300.72193   -1163.4131    6430.3972    11691.447    1910.2747 
  175300    297.97692   -1168.5308    6413.1907     11610.48     1945.234 
  175400    300.94672   -1165.7606    6368.5282    11632.032    1864.7297 
  175500    294.16653   -1158.5623    6454.5662     11580.42    1905.5124 
  175600    301.80914    -1161.019    6358.4449    11645.115    1888.7422 
  175700    293.96469   -1161.4492    6482.6569    11601.312     1872.905 
  175800    299.84301   -1170.5459    6488.1092    11723.249    1885.4523 
  175900    302.76556   -1162.3994    6472.2643    11777.986    1903.8297 
  176000    299.54853   -1166.4748    6404.3811    11637.301    1887.1387 
  176100    299.84892   -1162.2024    6360.7209    11604.331    1931.7939 
  176200     300.1162   -1162.3861    6417.4453    11666.581    1921.3198 
  176300    304.38036   -1158.9271    6437.0464    11780.739    1877.7414 
  176400    299.11752   -1153.2903    6420.2265    11657.123    1876.7125 
  176500    297.31708   -1160.0045    6415.3424    11607.061    1847.1026 
  176600    302.63209   -1159.4816    6391.1371    11696.926    1873.2634 
  176700    302.00018   -1162.4042    6425.4723    11714.839    1831.2114 
  176800     296.7771   -1159.9566    6390.7687        11571    1804.4714 
  176900    298.71282   -1157.6348    6463.6742    11687.581    1841.1215 
  177000    299.28185   -1162.4228    6509.1739    11740.449    1859.8268 
  177100    302.17503   -1166.2935    6439.2362    11728.449    1885.1295 
  177200    297.35815   -1160.0763    6268.9209    11461.445    1826.4308 
  177300    300.16222   -1158.4962    6483.8164    11737.826     1822.687 
  177400    299.21767   -1164.6111    6517.1034    11744.819    1823.4976 
  177500     303.2821   -1163.4129     6446.405    11762.149    1878.8329 
  177600    297.92131   -1160.2987    6353.5924    11557.925    1871.2778 
  177700    295.79097   -1157.7856    6497.1234    11658.458    1889.4712 
  177800    303.47613   -1167.2949    6434.5566    11750.564    1903.5974 
  177900    304.98979    -1170.704    6408.8166    11753.751    1896.4585 
  178000     297.1694   -1171.8691    6482.1936    11658.893    1922.5732 
  178100    301.88281   -1169.7424    6465.8559    11745.377    1908.8608 
  178200    298.06962   -1170.8768    6415.1306    11612.054    1910.8845 
  178300    300.31699   -1169.9659    6356.9185    11602.764    1853.9978 
  178400    299.75869   -1165.2207    6411.6744    11650.338    1918.0789 
  178500    310.52144    -1162.604    6442.3403     11913.55    1997.8208 
  178600    296.90779   -1164.4171    6510.1333    11688.696    1985.7198 
  178700    303.27576   -1164.0262    6325.5894    11640.585    1887.0247 
  178800    301.50658   -1167.5042    6354.8612    11628.582    1872.0088 
  178900    296.36026   -1165.1414    6417.9141    11584.055    1814.0592 
  179000    301.86941   -1171.4019    6526.8891    11804.464    1858.6207 
  179100    301.07469   -1162.0329    6476.6918    11746.658    1793.2878 
  179200    296.17936   -1167.4512    6375.6689    11535.635    1833.3423 
  179300    300.23399   -1162.5501    6402.4334    11653.922    1918.7603 
  179400    301.09051   -1166.2126    6398.6603    11664.784    1906.0769 
  179500    299.46585   -1159.0812    6428.9631     11667.51    1895.3414 
  179600    299.58929   -1164.9851    6314.2325    11549.513    1847.6425 
  179700    299.67777   -1162.7685    6452.7056    11692.093    1875.0091 
  179800    297.67393   -1157.1325    6520.6086    11722.823    1867.9536 
  179900    301.72646   -1164.6477    6464.9528    11746.228    1870.6695 
  180000    297.14323   -1162.9141    6356.8504    11541.946    1793.5738 
  180100    299.91204   -1163.2871    6378.9668     11622.84    1792.7613 
  180200     296.0618   -1155.9677    6504.5895    11673.528    1860.0936 
  180300    302.10125     -1157.08    6406.9736    11703.823    1857.0509 
  180400    296.47382   -1157.1337    6440.9093    11617.484    1864.8941 
  180500    301.98705   -1160.6355    6423.4391    11714.294    1911.7962 
  180600    293.79821     -1156.39    6455.8075    11575.965    1956.7001 
  180700    296.87459   -1158.6748    6389.2198    11572.815    1912.9553 
  180800    298.18446   -1164.9857    6375.4446    11580.712     1873.998 
  180900    301.62731   -1163.3795    6434.6684    11715.094    1886.9195 
  181000    300.88359   -1158.9813    6295.9546    11564.889    1804.0468 
  181100    298.53901    -1161.256    6495.6883     11712.26    1892.8174 
  181200    300.81755    -1164.871     6409.363    11670.998    1896.9386 
  181300    298.42462   -1162.2627    6406.2894    11619.411    1899.4978 
  181400    298.40406    -1158.149    6409.3463    11626.142    1870.1894 
  181500     303.5689   -1155.4607    6489.1956    11819.019    1912.5532 
  181600    292.97988   -1160.2203    6429.5872    11528.432    1859.2819 
  181700     305.6635   -1163.9973     6303.368    11669.402    1828.2224 
  181800     302.3942   -1165.8691    6488.1687    11782.488    1851.3147 
  181900    299.60898   -1163.3114    6485.6091    11722.984    1845.4607 
  182000    299.30538   -1164.7408    6390.9271    11620.386     1862.086 
  182100    300.94305   -1161.5095    6483.0046    11750.682    1917.5623 
  182200    299.46041   -1163.8069     6393.768    11627.473    1853.0601 
  182300    295.68084   -1161.0018    6397.7203    11553.486    1910.9415 
  182400    295.14471   -1164.0077    6401.9883    11543.295    1903.6808 
  182500    300.80021   -1170.3581      6409.73    11665.507    1895.1536 
  182600    300.61305   -1162.5259    6468.7096     11728.32    1936.7375 
  182700    304.34008   -1166.4582    6437.2942    11772.595    1912.3517 
  182800    298.03013   -1163.0622     6388.791    11592.685    1856.8101 
  182900    301.77451   -1161.6292    6437.2725    11722.593    1890.6115 
  183000    299.90599   -1163.6521    6424.3356    11667.715    1912.5997 
  183100    302.62633   -1159.2891    6385.5503    11691.408    1857.2915 
  183200    297.48776    -1158.874    6404.7387    11601.234    1882.8433 
  183300    299.03972   -1164.4492    6372.1441     11596.22    1837.7662 
  183400    300.97362   -1171.0093    6507.0066    11765.837    1826.6425 
  183500    297.78531    -1169.598    6411.7955    11603.924    1860.3294 
  183600     299.5546   -1164.1216    6341.4663    11576.869    1938.6014 
  183700    299.76607   -1161.0115    6493.4084    11736.439    1944.9291 
  183800    298.82323   -1156.8121    6462.2715    11689.359    1887.8965 
  183900    301.56022   -1159.5496    6378.5909    11661.413    1901.7543 
  184000    302.92731   -1156.3021    6442.5228    11757.798    1959.6009 
  184100    298.37374   -1162.4854    6387.7731    11599.585    1997.4951 
  184200    297.26147   -1169.5265    6346.3858    11527.395     1944.267 
  184300    303.67711   -1166.8118    6506.2468     11827.03    1956.9278 
  184400    298.45593   -1167.5399    6537.4121    11745.925    1966.7263 
  184500    303.45725   -1165.6935    6381.5121    11698.717    1918.4253 
  184600    299.85596   -1164.1283    6509.9586    11751.793    1992.4398 
  184700    304.02442   -1161.4682    6421.9801    11755.527    1916.6071 
  184800    304.95665   -1153.3655    6369.2182    11730.784    1864.9416 
  184900    294.74645   -1157.2574    6540.0682    11679.617    1935.6217 
  185000     298.4454   -1166.2141    6295.1732    11504.787    1881.5181 
  185100    301.76577   -1163.5173    6526.2109    11809.456    1968.7171 
  185200     300.3713   -1165.1771    6394.4216    11646.216    1912.1042 
  185300    302.04305   -1159.4992       6330.6    11623.787    1926.2597 
  185400    298.55008   -1164.9386    6548.1205    11761.246    1986.5228 
  185500    303.32975   -1156.9357    6456.5421    11779.781    1873.0221 
  185600    296.75082   -1159.3145    6405.0336    11585.345    1864.5485 
  185700    301.70031   -1158.0222    6380.7602    11668.102      1916.81 
  185800    292.47668   -1161.7849    6451.6807    11538.211    1882.2478 
  185900    302.82616   -1162.3199    6418.0611    11725.157    1928.3613 
  186000    299.66179   -1165.2112     6498.986    11735.589    1909.4572 
  186100    298.83054   -1166.1092     6393.415    11611.362    1835.1685 
  186200     301.1502   -1165.6394    6478.9901    11746.963    1909.8931 
  186300    302.44782   -1167.7046     6375.718    11669.347    1839.6804 
  186400    298.01081   -1162.0528    6434.1613    11638.652    1880.7143 
  186500    302.74755   -1163.0076    6355.5929    11660.322    1897.8638 
  186600    296.55129   -1162.2801    6386.3254    11559.409    1938.2014 
  186700    302.77289   -1156.5439    6425.5316    11737.266     1956.432 
  186800    301.58329   -1168.7083    6432.8769    11707.033    1939.6492 
  186900    295.97966   -1168.0355    6369.1183    11524.234    1848.6541 
  187000    301.80919   -1173.0925    6508.4349    11783.033    1931.9116 
  187100    299.15491   -1171.3552    6427.7912    11647.422    1928.6978 
  187200    301.98904   -1167.1952    6485.1908    11769.528    1972.0347 
  187300    297.02651   -1168.3789    6386.1773    11563.314    1926.9644 
  187400     298.7587   -1166.3486    6332.2907    11548.463    1928.2334 
  187500    301.02056   -1165.5796    6411.7156    11676.978    1908.3103 
  187600    300.86795    -1167.281    6483.1845    11743.486    1932.2887 
  187700    299.00018    -1169.214    6466.9264    11685.392    1884.1109 
  187800    301.30763   -1170.0389    6438.5014    11705.438    1841.8694 
  187900    299.00416    -1170.325    6437.0024    11654.442    1829.3951 
  188000    302.09906    -1178.151    6439.7017    11715.433    1857.3144 
  188100    301.66966   -1172.7646    6463.4016    11735.346    1925.2483 
  188200    299.42978   -1169.3974     6433.273    11660.733     1881.832 
  188300    301.53978    -1165.412     6366.259    11642.782    1892.0495 
  188400    290.64251   -1161.1748    6467.9934     11515.95    1878.3567 
  188500    296.79191   -1159.9729    6337.6846    11518.215    1834.0108 
  188600     300.4323   -1156.8394    6422.0501    11683.486    1937.6306 
  188700    300.61808   -1165.2903    6406.5698    11663.524    1912.4993 
  188800    298.44407   -1162.2199    6399.1009    11612.681    1846.7746 
  188900    302.15345   -1161.8161    6482.5446    11775.773    1905.9049 
  189000    305.42987   -1162.0137    6456.3299    11819.357    1852.1947 
  189100    299.49154   -1162.5303    6493.6011    11729.248     1910.604 
  189200    296.86476   -1159.6915    6406.9477    11589.316    1876.1072 
  189300     294.8199    -1156.115    6412.5838    11554.844     1888.964 
  189400    299.53013   -1159.9127    6341.0238    11580.113    1850.1669 
  189500    299.45122     -1156.82    6452.3349    11692.831    1919.9175 
  189600    299.02614   -1153.4693    6482.4596    11717.225    1872.2978 
  189700    295.53836   -1158.1495    6340.6251    11496.199    1866.6864 
  189800    305.45167   -1162.1892    6415.1912    11778.508    1921.4456 
  189900    299.57068   -1166.8583    6506.2887    11739.298     1967.207 
  190000    307.18429   -1165.5844    6457.8849    11854.822    1895.5834 
  190100    298.38921   -1161.9455    6580.0673    11792.749    1898.0364 
  190200    302.51351    -1165.833    6435.0083    11731.912    1865.1809 
  190300    302.15867   -1164.6514    6388.7876    11679.293    1855.6238 
  190400    299.39573   -1163.3229    6399.1246    11631.932     1859.807 
  190500    298.12229   -1163.7669    6488.5535    11693.712    1950.7991 
  190600    296.87883   -1162.7999    6406.9837    11586.545    1862.4179 
  190700    304.20691   -1168.8896    6418.1937    11748.218    1935.5673 
  190800    297.22699   -1165.6737    6431.5848     11615.71     1971.677 
  190900    304.03504   -1170.4928    6430.5718    11755.321    1931.8545 
  191000    305.14649   -1167.8095    6366.2573    11717.435    1930.6673 
  191100    303.91961   -1170.4912    6460.5508    11782.836    1921.6877 
  191200    300.64437   -1170.2326    6528.3018    11780.875    1873.9512 
  191300    304.13913   -1169.5371    6341.7137    11669.642    1842.2474 
  191400    297.13581   -1166.1059    6373.8679    11555.613    1904.5577 
  191500    302.19924     -1162.71    6431.5673     11724.88    1921.5761 
  191600     299.4745   -1170.0766    6392.8541    11620.591    1847.2163 
  191700    298.40527   -1165.7231     6459.223     11668.47    1967.5611 
  191800    301.48245   -1163.0375    6397.7445    11675.417    1923.8771 
  191900    293.55524   -1163.0696    6444.6189    11552.907    1861.3329 
  192000    298.58259   -1163.3821    6416.7983    11632.175    1901.9788 
  192100    304.10968    -1161.257    6364.4612    11700.041    1922.2549 
  192200    299.25632   -1162.2082    6471.4505    11702.394     1924.489 
  192300    301.87079   -1161.9218     6407.537    11694.622    1857.2439 
  192400    301.59617   -1159.0432    6539.9001    11823.996    1960.9974 
  192500    296.26105   -1163.3896    6495.5064     11661.28    1889.0259 
  192600    300.18176   -1158.6075    6377.7841    11632.099    1888.7733 
  192700    299.07048   -1160.2464    6401.7507    11630.686    1888.3963 
  192800    302.43429   -1156.0519    6486.4699    11791.462    1901.9231 
  192900    298.73957   -1158.6223    6444.5508    11668.041    1871.8705 
  193000    296.51216   -1160.3646    6334.0697    11508.232     1920.661 
  193100    301.65368   -1161.9082    6377.6735    11660.133    1855.9497 
  193200    300.49782   -1160.0102     6504.937    11764.602    1839.6812 
  193300    299.67152   -1163.9901    6370.8236    11608.856    1811.6918 
  193400    300.29959   -1163.3602    6538.8217    11790.902    1889.7141 
  193500    303.17264   -1163.5646     6371.965    11685.219    1872.9944 
  193600    294.06625   -1159.6075    6270.3975    11393.064    1849.9219 
  193700    299.80062   -1164.6854    6440.3174    11680.412    1915.6147 
  193800     304.4346   -1164.8989     6456.819    11795.698     1864.887 
  193900    302.37203    -1161.996    6461.5927    11759.311    1825.2056 
  194000    296.96982   -1161.9856    6455.6393    11637.958    1875.7241 
  194100    301.80492   -1168.2008    6399.5906    11678.989    1855.8013 
  194200    299.53663   -1163.9002    6330.7774    11566.018     1811.418 
  194300    304.12663   -1167.1811    6500.5715    11830.589    1946.0043 
  194400     299.4945   -1166.7722    6470.2449    11701.713    1914.0058 
  194500    298.91951   -1168.9155    6334.1982    11551.239    1820.1982 
  194600    299.17301   -1169.7876    6424.3304    11645.915    1886.6384 
  194700    303.37927   -1164.3447    6404.5994    11721.487    1933.0524 
  194800     298.8983   -1165.3871    6461.4942    11681.611     1878.862 
  194900    298.80908   -1165.0664    6398.3312    11616.862    1844.9526 
  195000    300.35219   -1166.3292    6448.1011    11698.335      1971.35 
  195100    302.11993   -1165.4927    6359.4216    11648.258    1930.4253 
  195200    301.80976   -1162.6908    6483.2599    11768.271    1914.7618 
  195300    293.08065   -1162.6783    6363.5659    11462.106    1880.6617 
  195400    303.63275   -1165.9529      6475.29    11795.985    1902.7175 
  195500    296.74396   -1158.3873    6579.5721    11760.664    1869.6672 
  195600    301.16654   -1165.2287    6379.2733    11648.006    1893.4551 
  195700    303.63048   -1163.8979    6365.2812    11687.983    1881.3481 
  195800    295.04108   -1159.1598    6515.1566    11659.097    1812.4171 
  195900    300.61936   -1164.1684    6465.8785    11723.982    1828.6847 
  196000    301.59329   -1163.1377    6407.6684    11687.609    1842.4634 
  196100     295.8897   -1158.9407    6377.2876    11539.576    1846.8063 
  196200    302.71634   -1149.0735    6405.8041    11723.801    1857.0827 
  196300    306.32685   -1156.3172    6353.3756    11741.262    1863.9643 
  196400    297.31069   -1156.6987    6455.3061    11650.194     1901.176 
  196500    299.75913   -1167.1903    6415.2461     11651.95    1824.2894 
  196600    296.09261   -1160.3372    6476.8943    11642.121    1878.4272 
  196700    299.72089   -1161.6087    6393.8235    11635.292    1884.3661 
  196800     297.4257   -1160.2612       6393.3    11587.082     1821.292 
  196900    298.24041   -1163.5504    6477.0965    11684.995    1931.7041 
  197000    300.65089   -1165.5549    6397.5777    11654.968    1972.9162 
  197100    293.57876   -1162.5847    6326.1977    11435.473    1847.8562 
  197200    300.71065   -1161.0083    6481.6711    11744.885    1911.8418 
  197300    298.30474   -1162.1454    6417.0611    11627.739    1945.1167 
  197400    302.56489    -1161.668    6391.4755    11693.642      1956.78 
  197500    304.20202   -1163.1049    6285.1057     11620.81    1897.4725 
  197600    301.16667    -1169.744    6403.2291    11667.449    1998.2842 
  197700    298.66854   -1163.3221    6451.6425    11668.915    1906.3889 
  197800    293.85057   -1168.4904    6475.8263    11585.003    1840.6371 
  197900    302.77233   -1168.6829    6332.4731    11632.057    1831.6866 
  198000     296.1709   -1167.9226    6476.0722    11635.386    1839.2396 
  198100    300.11979   -1169.1264    6412.8766    11655.349    1854.3074 
  198200    298.59938   -1167.9139    6441.2659     11652.47    1886.4586 
  198300    299.71033    -1159.803    6549.0829    11792.131     1891.346 
  198400    305.00892      -1162.4    6328.6669    11682.314    1796.2249 
  198500    302.36471   -1165.8334    6325.0774    11618.802    1848.8104 
  198600    297.14326   -1165.1259    6581.8525    11764.737    1887.5901 
  198700    300.93945   -1168.9339    6437.0777    11697.253     1785.831 
  198800    299.55487   -1165.0583    6498.8712    11733.343    1884.2093 
  198900     301.1009   -1163.7496     6351.391      11620.2      1913.62 
  199000     298.6531    -1162.448    6239.3014    11457.119    1895.5548 
  199100    302.72374   -1162.1641    6436.6161     11741.68    1934.2092 
  199200    295.18283   -1155.9092    6526.5216    11676.741    1898.2426 
  199300    302.91673   -1157.2047    6383.5229    11697.669    1825.4612 
  199400    303.27112   -1159.2861    6406.2886    11725.925    1888.7984 
  199500    300.24321    -1159.497    6402.4151    11657.154    1881.2259 
  199600    296.81103   -1160.4505    6435.7165    11616.178    1868.9075 
  199700     303.7672   -1161.0126     6334.709    11663.217    1904.0674 
  199800    300.60334   -1155.8292    6453.4065    11719.506     1921.324 
  199900    298.45816   -1159.9119    6521.7635    11737.952    1886.7498 
  200000    294.76857   -1158.9441    6478.8025    11617.137    1911.6084 
  200100    303.11593   -1161.0553    6374.7572    11689.309    1873.3626 
  200200     296.2312   -1159.1451    6475.3243    11644.704    1868.6377 
  200300    300.91453   -1160.0662    6496.1147    11764.626     1916.778 
  200400    297.38686    -1159.077    6420.5585    11614.695    1846.4366 
  200500    300.76772   -1158.5706     6395.543    11662.413     1899.127 
  200600    295.99875   -1168.1673    6347.5327    11502.924    1876.8401 
  200700    303.18934   -1165.5279    6332.6321    11644.279    1894.9141 
  200800      298.274    -1162.698    6453.1468    11662.615     1808.334 
  200900    302.01937   -1162.4608     6472.095    11761.815    1812.1973 
  201000    299.87077   -1171.9881    6405.6705    11639.961    1876.7637 
  201100    301.08738     -1165.67    6476.0198     11742.62    1875.8825 
  201200    301.72341   -1169.0726    6454.8561    11731.641    1919.8926 
  201300    296.81914   -1168.1846    6390.2398    11563.141     1919.551 
  201400    301.77256   -1167.8906    6415.1162    11694.133      1891.73 
  201500    301.78908   -1167.1441     6436.464    11716.581    1876.2078 
  201600    298.02491   -1169.8828    6288.0465    11485.009    1805.0617 
  201700     299.3946   -1163.7859    6491.7793      11724.1    1898.4076 
  201800    299.23954   -1163.0691    6364.6925    11594.417    1807.1344 
  201900     293.3179   -1162.3554    6470.9883     11574.92    1868.5454 
  202000    303.39588   -1167.5072    6361.1667    11675.247    1847.9077 
  202100    300.75089   -1166.7855    6329.1613    11587.457    1803.1732 
  202200    300.64051   -1164.9956    6379.5253    11637.253     1853.987 
  202300    298.05085   -1166.7725     6550.133    11750.759     1888.131 
  202400    300.18117   -1168.6381    6519.6689    11763.941     1873.819 
  202500    302.65342   -1163.5211    6334.5192    11636.724    1892.9751 
  202600    293.86755   -1164.6873    6376.8856    11490.228    1960.2502 
  202700    297.66272   -1159.6866    6308.2026    11507.623    1805.2133 
  202800    304.80906   -1161.6834    6530.7858     11880.88    1941.1026 
  202900    294.66564   -1159.4494    6404.5025    11540.132    1853.2497 
  203000    299.58997   -1160.6801    6438.6367    11678.237    1843.2729 
  203100    304.06308   -1154.7046    6441.5374    11782.674    1853.8769 
  203200    297.10254   -1158.6851    6430.4286    11618.883    1910.3872 
  203300    303.73312   -1154.5185    6421.1793    11755.453    1861.9171 
  203400    297.75983   -1155.5618    6470.8258    11676.446    1845.2084 
  203500    301.42506   -1162.5901    6404.4483    11681.342    1892.6453 
  203600    300.92144   -1160.1012     6437.411    11706.035    1878.7776 
  203700    302.65998   -1160.3394    6358.6888    11664.215    1895.5716 
  203800    300.43323    -1158.414     6396.912    11656.793    1868.8883 
  203900    295.55709    -1160.984    6499.8039    11652.944    1906.8937 
  204000    304.33163   -1158.1131    6479.0845     11822.55    1823.4741 
  204100    295.52751   -1162.1271    6380.4529    11531.818    1824.3153 
  204200    302.35239   -1165.5731    6375.8723    11669.594    1839.9253 
  204300    299.52938   -1161.2117    6431.8288    11669.603    1890.6479 
  204400    300.40611   -1161.8923    6388.9911    11644.814    1788.6653 
  204500    298.43913   -1161.7467    6490.3329     11704.28    1818.6356 
  204600    298.37941   -1169.2292    6443.0284    11648.218    1845.3773 
  204700    298.61495   -1167.3308    6362.6679    11574.787    1879.2587 
  204800    297.63186   -1167.3896    6312.5702    11503.629    1849.0245 
  204900     304.2711    -1165.106    6452.9543    11788.133    1915.7173 
  205000    303.27837   -1161.3268     6334.865    11652.615    1829.4901 
  205100    298.82241   -1164.0216    6414.1829    11634.044    1892.5357 
  205200    302.55466     -1164.18    6460.1954    11759.632    1938.6337 
  205300    300.26213   -1167.6442    6331.3733    11578.369    1908.3284 
  205400    297.27434   -1163.5594    6446.9346    11634.185    1884.7185 
  205500    297.11202    -1162.815    6393.8919    11578.419    1865.9465 
  205600    298.78567   -1161.9984    6262.7405     11483.84    1811.0197 
  205700    305.06687    -1162.294    6441.2157    11796.207    1893.5497 
  205800    303.92116   -1163.5672    6452.8615    11782.103    1922.6226 
  205900    297.90944   -1162.5431      6453.98    11655.815    1862.7128 
  206000    296.78822   -1162.0517    6337.9181    11516.291    1759.9237 
  206100    301.14202   -1163.6912     6550.758    11820.504    1869.5946 
  206200    299.95376   -1156.4195    6469.0672      11720.7     1833.225 
  206300    297.77284   -1157.7897    6410.9604     11614.63    1847.1519 
  206400    303.37801   -1158.9072    6344.2146    11666.513    1877.4051 
  206500    297.87995   -1162.0184    6391.4323    11593.162    1869.8891 
  206600    300.83689   -1160.7459    6428.6611    11694.834    1862.5387 
  206700    303.66789   -1160.2889    6526.9472    11854.057    1883.8485 
  206800     296.3467   -1158.8992    6340.1852    11512.279    1805.6221 
  206900    301.06469   -1163.1756    6402.2488    11670.858    1876.4534 
  207000    297.35241   -1158.4461    6562.2652    11756.297    1838.2916 
  207100    297.07533   -1161.1278    6409.1078    11594.538    1874.9356 
  207200    300.91952    -1161.853    6281.7838    11548.615    1928.3733 
  207300    298.53772   -1160.7129    6450.2418    11667.329    1978.9381 
  207400    305.09645    -1161.061    6422.5131     11779.37    1917.5348 
  207500    297.67076   -1164.6884    6522.9089    11717.499    1941.3514 
  207600    301.48278    -1166.221    6424.6118    11699.108    1855.9832 
  207700    302.36016   -1169.3171    6341.8388    11631.983    1885.4347 
  207800    296.99096   -1166.6294    6441.8613    11619.988    1910.4654 
  207900    302.98384   -1167.7627    6440.9215    11745.944    1930.6295 
  208000    301.87533   -1155.3299    6433.0015    11726.775    1926.8246 
  208100    302.31187   -1159.8286    6403.8913    11702.492    1928.5815 
  208200    292.71091   -1165.0123    6440.5854    11528.892    1931.9575 
  208300    300.40177   -1160.7977    6359.2584    11616.084    1888.3422 
  208400    298.55743    -1164.745    6412.1148    11625.591    1899.2675 
  208500    302.36168   -1165.7196    6525.5638    11819.338    1931.7649 
  208600    302.02718   -1164.2239    6272.7122    11560.836    1833.1021 
  208700    297.78045   -1169.7422    6464.1177    11655.998    1917.6803 
  208800    296.52378   -1163.7175    6508.8753    11679.933    1932.5738 
  208900    302.56713   -1165.0379    6330.7169    11629.562    1854.9195 
  209000    296.73661   -1165.5919    6426.6854    11600.416    1887.9102 
  209100    301.17605   -1161.0708    6513.4807    11786.574    1961.6299 
  209200    296.21354   -1162.0277     6442.431    11608.551    1877.7081 
  209300    301.95865   -1164.7699    6392.1686    11678.282    1854.4039 
  209400    304.90402    -1159.828    6334.2965    11688.275    1905.3322 
  209500    299.69642   -1164.0371    6488.1621    11726.679     1905.746 
  209600    295.97076   -1160.0396    6524.5211    11687.443    1879.5484 
  209700    301.71591   -1167.1628    6352.3433    11630.878    1847.9201 
  209800    292.91802   -1162.8235    6432.2341    11527.155    1867.1515 
  209900    301.65692   -1165.4607    6449.8732     11728.85     1860.257 
  210000    295.35187   -1159.1151    6469.9683    11620.593    1897.7792 
  210100    300.15711   -1161.2685    6408.9651    11660.093    1919.2676 
  210200      302.894   -1160.0217    6437.6452    11748.489    1868.5951 
  210300    297.98875   -1166.9191    6386.6399    11585.793    1842.4204 
  210400    301.30312   -1163.3814     6426.969    11700.467    1906.1243 
  210500    304.68886   -1175.3332    6436.9781    11770.855    1890.2348 
  210600    295.41914   -1163.6994    6451.6856    11599.163    1814.7711 
  210700    300.69847   -1168.9223    6506.3943    11761.434    1897.5862 
  210800     293.7709    -1171.133    6402.7999    11507.631    1861.0499 
  210900    303.82952   -1164.2639    6408.8375    11735.425    1916.2211 
  211000    296.10691   -1163.5271    6422.2006    11584.543    1946.6253 
  211100    296.89399   -1163.6746    6497.9679    11676.978    1982.5158 
  211200    300.75855   -1164.2188     6459.604     11720.63    1898.7023 
  211300    305.60293   -1167.0517    6408.2543     11769.94    1882.5931 
  211400    298.13931   -1165.7399    6367.4836    11571.033    1904.5409 
  211500    297.14035   -1170.0477    6481.3732    11659.273    1954.0578 
  211600     304.6076   -1167.9151    6318.7335    11658.292    1848.3762 
  211700    298.88263   -1170.2603    6457.6014     11672.51    1943.1017 
  211800    299.93398   -1169.8977    6429.3159    11667.047    1981.7031 
  211900    301.66331   -1164.4439    6421.2607    11701.391    1912.4446 
  212000    302.26767   -1164.0215    6439.8475    11733.311    1933.7048 
  212100    296.20471   -1168.6995    6510.1013    11669.361    1917.6985 
  212200    300.30768   -1163.3407    6465.0092    11717.281    1880.1749 
  212300    300.91261   -1164.8831    6349.5146    11613.168    1887.1396 
  212400    301.22186   -1166.4656    6475.3867    11744.064    1948.1421 
  212500    296.09979   -1161.4352    6490.9487    11655.231     1890.093 
  212600    301.51809   -1161.8421    6544.1588    11823.788    1960.1223 
  212700    305.76692   -1160.0207    6403.2009    11775.421    1971.1307 
  212800    300.25625   -1166.6961    6340.3723     11588.19    1845.7958 
  212900    294.40308   -1160.1534    6467.0078    11596.324    1911.7806 
  213000     296.4956   -1159.5395    6410.9153    11585.549    1922.8728 
  213100    299.29582   -1164.5577     6370.921    11600.359    1835.2592 
  213200    299.10632   -1163.4629    6495.1732    11721.658    1906.3399 
  213300    301.82707   -1160.4317     6446.408    11734.049    1961.4531 
  213400    298.13257   -1166.5141    6367.9693      11570.6    1915.4217 
  213500    305.53389   -1166.8185    6462.1007    11822.545    1965.5002 
  213600    299.36964   -1163.2679    6406.2341    11638.539    1930.6016 
  213700    298.85476   -1155.1246    6398.4162    11627.865     1891.757 
  213800    301.37265   -1163.6791    6547.9002    11822.585    1990.9078 
  213900    299.07498   -1164.6933    6337.2535    11561.838    1879.6358 
  214000    300.22071   -1163.2026    6445.3805    11695.933    1904.6811 
  214100    302.94623   -1168.9951    6398.3433     11701.33    1867.2798 
  214200    298.84434   -1168.7605     6522.835    11738.425    1967.5437 
  214300    298.01536   -1163.5819    6406.5859    11609.645    1835.2839 
  214400    302.88918    -1164.152    6402.7917    11709.402    1847.9763 
  214500    294.38332   -1165.2566    6467.5125    11591.304    1852.1715 
  214600    297.70315   -1167.5778    6455.7373    11648.131    1926.4057 
  214700    300.65269   -1171.4459    6315.1049    11566.642    1937.5986 
  214800    294.96031   -1162.6075    6359.6124    11498.379    1886.1092 
  214900    300.21173   -1160.9256    6448.6389    11701.276    1956.9165 
  215000    299.60551    -1171.565    6423.1608    11652.208    1919.6328 
  215100    298.85457   -1163.0411    6393.2829    11614.811    1831.4127 
  215200    298.03302   -1161.3414    6400.2601    11605.937    1894.6351 
  215300    302.16461   -1163.1454    6376.2306    11668.368    1910.9913 
  215400    295.53254   -1162.1626    6424.9652    11576.402    1918.9105 
  215500     303.0788   -1159.4775    6456.0479    11771.384    1932.7981 
  215600    296.44074   -1151.7888    6365.3857    11546.598    1897.4228 
  215700    303.49409    -1158.611    6533.0236    11858.098    1929.7793 
  215800    297.14225   -1161.4439    6360.4441    11546.989     1887.748 
  215900    299.82193   -1166.4857     6375.607    11614.357    1913.6151 
  216000    305.13475   -1159.0638    6451.3704    11811.042    1959.4524 
  216100    298.10028   -1162.7724    6355.6322    11561.315    1842.1698 
  216200    301.31137   -1156.3801     6593.524    11874.199    1950.1416 
  216300    303.39177   -1154.0224    6433.0876    11760.565     1924.155 
  216400    295.95388   -1152.4762    6401.5931    11571.717    1943.6162 
  216500    300.56982   -1159.4729     6342.673    11604.413    1904.8665 
  216600    299.72427    -1160.046    6472.5131    11715.616    1940.9967 
  216700    298.74051   -1161.7634    6432.4696    11652.839    1915.4389 
  216800    300.02713   -1161.0814     6472.108    11720.646    1873.1854 
  216900    301.87637   -1163.9903    6485.2751     11770.41    1885.5931 
  217000    294.40657   -1166.3976    6396.6994    11519.846    1837.3786 
  217100    301.26726   -1167.4963    6299.9687    11568.585    1859.4651 
  217200    299.70166   -1161.6204    6519.3101    11760.356    1941.2388 
  217300     301.0544   -1159.6938    6447.3066    11719.178     1934.358 
  217400    299.98038   -1157.9866    6312.6729    11563.307    1864.1578 
  217500    307.01375   -1159.3064    6436.9824    11836.554    1956.3824 
  217600    296.52915   -1162.5444    6472.7286    11645.075    1979.5585 
  217700    296.84161   -1168.0337     6416.089    11589.621    1931.6397 
  217800    305.99422   -1166.1493    6404.9291    11775.877    1914.1178 
  217900    299.63266   -1170.5268    6406.6127    11637.278    1910.7577 
  218000    295.47761   -1170.9075    6518.0793    11659.597    1894.1859 
  218100    299.39798   -1167.3414    6390.8753    11619.712    1813.2912 
  218200    300.58607   -1164.1698    6487.4689    11744.859    1904.6904 
  218300    301.85218   -1159.6342    6495.1601    11784.135    1967.2273 
  218400    294.89116    -1161.726    6292.6869    11430.858     1852.326 
  218500    302.17409   -1161.1533    6367.9908    11662.323    1856.8051 
  218600    300.30203   -1159.9352     6469.331    11724.888     1995.403 
  218700    300.41927    -1163.707    6486.0982    11740.388      1991.13 
  218800    297.18404   -1166.3694     6430.958     11613.47     1886.019 
  218900    306.63621   -1169.0355    6383.4003    11765.177    1864.3214 
  219000    297.86453   -1161.3345    6401.6697    11603.754    1845.8804 
  219100    303.03993   -1160.6576    6440.3114    11753.637    1879.6172 
  219200    294.63641   -1156.7557    6412.2216    11549.921    1905.3358 
  219300    301.96332   -1157.0087    6415.4087    11709.383    1898.7913 
  219400    297.57622   -1156.4977    6430.3568    11631.119    1886.0192 
  219500    302.08849   -1156.8703    6375.0352    11671.822    1894.3288 
  219600    303.30329   -1158.9524    6433.9345    11754.591    1923.1462 
  219700    298.01885   -1156.4608     6477.675     11687.93    1878.0414 
  219800    302.62203    -1155.799    6451.5953    11760.852    1818.2017 
  219900    298.21161   -1156.0022    6568.2447    11783.076    1982.6029 
  220000    301.94364    -1157.367    6236.7312    11529.927     1823.835 
  220100    295.16198   -1162.9635    6420.9909     11563.71    1856.2201 
  220200    307.32484   -1160.9497    6498.8827    11903.457    1989.0942 
  220300    298.41074   -1158.5933    6427.9966    11644.491    1908.8505 
  220400    307.30344    -1161.189     6304.577    11708.455    1880.3678 
  220500    297.03457    -1155.636    6475.6022    11665.654    1935.3089 
  220600    303.26639    -1166.264    6410.5247    11723.082    1910.4453 
  220700    294.60057   -1159.1128    6458.7922    11593.369    1888.9281 
  220800    300.25847   -1160.6635    6457.7595    11711.657    1939.6729 
  220900    300.54901    -1160.258    6405.8341    11666.344    1912.7515 
  221000    302.30492   -1163.6684    6335.8918    11630.504    1856.1176 
  221100    298.27455   -1158.1073    6424.0012    11638.072    1876.2267 
  221200    304.23192   -1154.8768    6461.7091     11806.28    1980.2234 
  221300    293.22751   -1165.2758    6394.7044    11493.784     1890.897 
  221400     301.0698   -1167.2881    6364.2166    11628.823    1879.0627 
  221500    301.95125   -1161.0429    6411.5057    11701.188     1870.708 
  221600     303.5984   -1165.2797    6514.5469    11835.181    1913.6501 
  221700    294.63513   -1159.3512    6492.8145    11627.891    1869.7481 
  221800    300.25661   -1161.4592    6374.3763    11627.439    1883.2121 
  221900     302.1358   -1162.0366    6496.6308    11789.262    1960.6731 
  222000    305.54694   -1160.1728    6411.0442    11778.413    1849.8954 
  222100    300.08551   -1161.9413     6503.347    11752.272     1961.947 
  222200    298.63266   -1159.6788    6388.0987    11608.248    1889.5792 
  222300    302.60261   -1158.0366     6508.695    11815.299    1922.8439 
  222400    295.42646   -1159.7111    6461.3069    11612.929    1853.8686 
  222500    303.37098   -1162.9837    6353.5871    11671.659    1917.3194 
  222600    295.62307    -1159.422    6345.8125    11501.924    1865.1515 
  222700    301.50655   -1158.7911    6471.0445    11753.478     1860.439 
  222800     304.3357   -1160.9026    6516.9937    11857.756    1889.6897 
  222900      299.315   -1161.3189     6403.864    11636.951    1856.9066 
  223000    300.66582   -1159.5179    6390.7207    11654.467    1872.0789 
  223100    303.41694   -1162.3255    6332.4612    11652.173    1866.9829 
  223200    299.93848   -1162.6731     6432.521    11677.573    1981.8093 
  223300    301.68984   -1163.1091    6455.1309    11737.162    1906.7804 
  223400    300.87743   -1163.1604     6432.844    11697.468    1886.6368 
  223500    301.88772   -1165.9017    6408.6083    11692.075    1863.3148 
  223600    300.41541   -1163.8908    6409.6565     11663.68    1910.5808 
  223700    298.92555    -1167.208    6525.4152    11744.293    1948.2686 
  223800    304.50337   -1163.9551    6491.2169    11832.509    1919.7712 
  223900    297.88873   -1163.8115    6404.1104    11604.235    1878.4457 
  224000    298.78249   -1169.3424    6273.2778    11486.965    1856.6624 
  224100    300.43482   -1171.7327    6410.5928    11657.189    1885.6347 
  224200    301.32386   -1162.8948    6408.8986    11683.326    1889.8182 
  224300    298.57262    -1173.819    6404.6441    11609.371    1911.5827 
  224400    303.90876   -1167.8232    6492.0042    11816.725    1921.9512 
  224500    295.21424   -1165.9747    6555.3893    11696.214    1936.3028 
  224600    299.62983   -1166.8021    6406.2445    11640.574    1970.7059 
  224700    301.95191   -1168.3856    6326.3194    11608.673    1941.5971 
  224800    298.40773   -1158.7905    6417.8115    11634.044    1917.1252 
  224900    301.71276   -1161.5678    6470.7575     11754.82    1893.3474 
  225000    298.71173   -1161.3495    6479.1676    11699.336    1888.6792 
  225100    298.24264   -1163.3236    6333.2664    11541.439     1930.035 
  225200    302.31931    -1159.289     6306.227    11605.526    1899.0596 
  225300    299.72051   -1161.8162    6436.3642    11677.617    1873.6963 
  225400    296.72463   -1163.0837    6608.9942    11784.977    1908.5945 
  225500    300.86907   -1165.1694     6471.673     11734.11    1840.8733 
  225600    300.01611   -1154.9921    6386.1578     11640.55    1814.2439 
  225700     306.6459   -1158.5331     6391.042    11783.528    1927.5061 
  225800    296.69304   -1156.8849    6455.8793    11637.386    1926.4315 
  225900    303.97138   -1150.7311    6427.6676    11770.819    1890.1643 
  226000    300.41033   -1153.8284    6447.0118    11710.989    1875.2324 
  226100    298.98756   -1155.4052    6460.0255    11692.031    1853.3122 
  226200    300.68903   -1157.2731    6439.8705    11706.357    1838.3838 
  226300    297.88532   -1164.5299    6377.8886    11577.222    1877.8549 
  226400    295.11956    -1161.403    6407.3561     11550.73    1868.9382 
  226500    298.68161   -1159.6225    6537.5967    11758.849    1847.2251 
  226600    297.98009   -1161.0599     6512.133    11716.961    1924.4867 
  226700    296.40148   -1162.1876     6393.512    11563.487    1851.5525 
  226800    304.99503   -1158.0283    6375.5872     11733.31    1865.0975 
  226900    299.83722   -1157.4308    6411.5054    11659.637    1918.4273 
  227000    300.62514   -1166.9926    6427.0583    11682.461     1938.208 
  227100    294.90205   -1168.6874    6419.8791    11551.321    1888.7589 
  227200    299.11971   -1159.6785     6382.422    11612.977     1924.542 
  227300    300.68309   -1166.6572    6364.2709    11621.247    1880.0172 
  227400    297.78869   -1166.7683    6601.2296     11796.26    1911.5564 
  227500    302.29867   -1172.8961    6512.6894    11797.941    1894.0853 
  227600    301.56059   -1169.6267    6281.8013    11554.554    1871.8979 
  227700    298.93389   -1166.6961    6456.1478    11675.716    1890.7296 
  227800    300.62306   -1170.4081    6456.7822    11708.725    1911.4054 
  227900    303.86019   -1168.4082    6362.8417     11685.94    1963.1317 
  228000    301.68772   -1163.6302    6470.8997    11752.365    1924.0223 
  228100    300.27228   -1168.6235     6471.436    11717.669    1909.5635 
  228200    308.72282   -1164.8786    6403.6713    11834.182    1964.1256 
  228300    301.26569    -1168.676    6405.6907    11673.094    1909.9863 
  228400    301.57086   -1167.8166    6375.9014    11650.684     1827.732 
  228500    298.31814   -1161.6109    6487.0102    11698.509    1920.2163 
  228600    303.99847   -1166.5838    6366.3153    11694.192    1878.0763 
  228700    298.67021   -1164.3416    6451.9423    11668.232    1859.9983 
  228800    297.22525   -1164.0826    6514.6231    11700.302    1846.8167 
  228900    296.97375   -1163.0355    6406.4369     11587.79    1824.7888 
  229000    305.41642   -1161.7911    6373.4578     11736.42    1822.0172 
  229100    300.57318   -1156.8864    6520.0112     11784.41    1974.0898 
  229200    299.59489   -1159.7775    6392.2004    11632.808    1919.0176 
  229300    297.95493   -1163.8547    6442.8038    11644.299     1907.874 
  229400     301.2163   -1159.4423    6560.3001    11835.882     1947.521 
  229500     300.8987   -1156.7176    6439.8589     11711.38    1897.1676 
  229600    302.26887   -1161.7206    6468.2649    11764.055    1915.7305 
  229700    298.81969   -1160.3365    6316.1441    11539.632    1873.3597 
  229800    304.83546   -1162.5536    6437.1011    11786.889    1963.8803 
  229900    303.01627   -1156.5292    6424.6507    11741.599    1888.9929 
  230000    300.59761   -1156.8014    6560.2468    11825.252    1894.4312 
  230100    306.55729   -1166.0094    6422.8557    11805.972    1962.4835 
  230200    298.29683   -1166.7326    6403.2816    11609.203    1955.4636 
  230300    299.59523   -1152.0966    6440.1535    11688.449     1971.842 
  230400    300.92344   -1165.7942      6354.61    11617.583     1918.811 
  230500    297.68584   -1172.3055     6432.324     11619.62     1889.913 
  230600    299.38943   -1163.0451     6392.694    11625.645    1834.4492 
  230700    300.50067   -1167.0633    6516.6788    11769.351    1945.6501 
  230800    300.71288   -1167.8645    6455.5894    11711.994     1968.987 
  230900    299.00311   -1167.9246    6361.7516     11581.57    1903.6039 
  231000    306.68008    -1167.776    6324.0629    11708.036    1892.5822 
  231100    308.05651   -1169.7262    6356.0842    11767.513    1931.1729 
  231200    301.25384   -1172.3349    6516.6676    11780.159    1892.0703 
  231300    298.97636   -1169.2092    6472.4198    11690.382    1899.8135 
  231400    301.97913   -1169.0252    6477.8598    11760.155    1912.5144 
  231500    300.06685   -1173.4987    6349.5415    11586.511    1890.1332 
  231600    301.73086   -1174.6223    6459.4692    11730.864    1995.8011 
  231700     306.0255   -1167.1838    6361.2383     11731.82    1940.4459 
  231800    299.15034   -1160.6722    6455.7999    11686.016    1955.9645 
  231900    296.29041   -1163.7003    6487.4279    11653.518    1943.0778 
  232000    301.43343   -1168.6367    6331.3503    11602.376    1891.1145 
  232100    297.52429   -1165.6103    6336.9401     11527.48    1908.6297 
  232200    301.37639   -1165.3129     6576.362    11849.493    1945.6818 
  232300    301.93976   -1167.9313    6446.3907    11728.939    1907.4692 
  232400     297.9767   -1166.6308    6332.7728    11531.957    1919.7757 
  232500    298.98177   -1166.7861    6504.4197     11724.92    1990.5232 
  232600    300.52105   -1163.4035    6431.9561    11688.724     1958.272 
  232700    300.01118   -1161.0219    6381.6334     11629.89    1917.9122 
  232800    299.57149   -1164.6949    6498.1005    11733.291    1941.6952 
  232900    302.45957   -1165.4285     6487.678    11783.834    1941.2193 
  233000    302.63016    -1161.948    6393.6171    11696.898     1955.022 
  233100    298.72287   -1167.1003    6479.2386    11693.894    1958.9016 
  233200    299.73849   -1167.1484    6400.0928    11636.397    1908.5081 
  233300    298.95168   -1165.3788    6459.2994    11680.565    1937.8549 
  233400    303.47382   -1166.4349    6406.7049    11723.523    1882.6133 
  233500    299.11391   -1164.7521    6444.1261    11669.484    1921.3545 
  233600    296.86667   -1170.7404    6341.9591    11513.319    1913.6399 
  233700    302.70469   -1167.8847    6494.0888    11793.025    1976.2524 
  233800    300.61069   -1161.0044    6465.9001    11726.982    1895.5962 
  233900     299.5358   -1170.0782    6412.1198    11641.164    1958.3367 
  234000    297.60724   -1164.7492    6371.0777     11564.25    1918.8198 
  234100    304.95429   -1167.5596    6395.1488     11742.47     1938.291 
  234200    301.22385   -1171.5312    6391.2787    11654.933      1961.72 
  234300    300.93579    -1168.798    6433.4744    11693.708    1971.7364 
  234400    302.61212   -1170.0707    6500.4458    11795.219     2001.049 
  234500    300.61362   -1172.2147     6406.642    11656.576     1957.081 
  234600     303.6328   -1169.6512    6366.0414    11683.039    1919.9929 
  234700    301.02937   -1171.4624    6431.4318        11691    1909.1664 
  234800    299.60876    -1168.932    6410.1317    11641.881    1926.9475 
  234900    302.71908   -1170.4112    6497.1339    11793.851    1971.6055 
  235000    301.66784   -1168.1456    6491.5524    11768.077    1917.4598 
  235100    305.00346   -1169.3536    6386.4707    11733.048    1936.8471 
  235200    300.18533   -1167.8168    6375.3462    11620.528    1969.1545 
  235300    292.54015   -1168.8006    6459.6532    11540.524    1971.6109 
  235400    300.59514   -1164.4479    6424.1902    11681.496     1858.017 
  235500    300.43974   -1171.9036    6505.3184    11751.849    1859.0366 
  235600    300.91884   -1164.7212    6379.1948    11643.143    1866.7442 
  235700    294.53591   -1167.4941    6425.3826    11550.196    1860.5701 
  235800    301.20638   -1163.8243    6460.9071    11731.895    1938.7607 
  235900    300.74687   -1163.8609     6412.063    11673.198    1944.4427 
  236000    294.55352   -1161.5193    6388.8912    11520.056    1888.1095 
  236100    301.01363   -1159.8716    6360.0814    11630.904    1837.8541 
  236200    300.16612   -1166.4341    6446.8694    11693.024    1942.6994 
  236300    300.92116   -1161.7293    6544.5246    11811.514    1958.3488 
  236400    304.90914   -1163.2295    6410.6922    11761.379    1859.4482 
  236500    299.37623   -1165.8042    6485.1948    11715.104    1947.3291 
  236600    299.96023   -1165.3816    6429.6273    11672.436    1911.0316 
  236700    303.06029   -1163.6345    6416.2139    11726.997    1899.6246 
  236800    303.64889   -1163.6202     6383.406    11706.779    1896.5288 
  236900    298.28014   -1160.7698    6466.7731    11678.301    1923.9053 
  237000    299.22882   -1159.5637    6509.7606    11742.761    2010.4505 
  237100    300.36044   -1165.0508    6307.7388    11559.428    1885.0105 
  237200    291.88374   -1171.3051    6393.4955    11457.839    1859.8297 
  237300     299.6464   -1169.2345    6464.7239    11696.975    1952.6047 
  237400    296.70951    -1169.875    6479.1597    11648.028    1922.0071 
  237500    302.38148   -1171.8909    6383.3807    11671.406    1899.1244 
  237600    303.79993   -1166.2918    6409.6986    11733.626    1946.8918 
  237700    296.12771   -1167.9283    6353.6625    11512.048    1838.6333 
  237800    303.95759   -1169.8437    6445.1632    11768.907    1944.9122 
  237900    298.27493   -1170.6811    6410.9747     11612.48    1932.9504 
  238000    307.58221   -1163.9606    6464.4415    11871.503    1907.0089 
  238100    297.12302   -1165.9174    6541.9642    11723.624    1927.8278 
  238200    301.99846   -1173.9451    6361.7631    11639.552    1897.2773 
  238300    300.41668   -1171.1822    6369.0489    11615.808    1945.2225 
  238400    305.36877   -1163.5668    6369.3682    11729.537    1959.5729 
  238500    301.28525   -1167.1194    6510.7528    11780.131    1969.5579 
  238600    299.90375   -1164.8735     6431.717    11673.827    1943.4881 
  238700     293.6589   -1159.6326    6441.0668    11555.006    1924.4492 
  238800    302.32421   -1164.7729    6461.4911    11755.411    1882.3073 
  238900    296.80799   -1170.5467    6396.8259    11567.127      1853.58 
  239000    306.60566   -1171.0135    6359.4022    11738.548    1835.2334 
  239100     296.9245   -1165.6501    6484.4541     11662.14    1874.8458 
  239200    299.26297   -1156.5534     6414.548    11651.289    1807.1431 
  239300    296.90647    -1161.636    6339.9153     11521.23    1879.3237 
  239400    300.40726   -1160.2554    6400.7353     11658.22     1929.666 
  239500    304.46921   -1158.4665    6445.5382    11791.589    1892.1693 
  239600    300.12717   -1160.1596    6463.8402    11715.437    1922.9205 
  239700    296.77508   -1158.8378    6422.0366    11603.343    1952.8575 
  239800    303.77578   -1162.0803    6333.3351    11660.958    1842.0641 
  239900    297.82892   -1158.8382    6411.0316    11614.851    1840.1037 
  240000    304.58136   -1162.7536    6579.6842    11923.844     1903.848 
  240100    299.08073   -1160.7708    6458.9756    11687.606    1836.8966 
  240200     305.4124   -1154.0695    6309.8048    11680.403    1810.5625 
  240300    296.71318   -1160.9745    6459.7297    11637.577      1918.31 
  240400     299.3147   -1163.2935    6394.1411    11625.247     1892.847 
  240500    300.04139   -1167.5776    6441.5179    11683.864    1914.2138 
  240600    300.38602   -1162.6926    6443.2525    11697.846    1830.1648 
  240700    296.21494   -1164.4002    6477.1264    11640.904    1878.9568 
  240800    297.19811   -1162.4441    6426.5926     11613.33    1820.2852 
  240900    302.62479   -1164.2144    6375.9452    11676.845    1895.5499 
  241000    298.10879   -1166.4678    6417.5812     11619.75    1854.2127 
  241100     303.0286   -1169.9373    6461.3284    11765.132     1868.246 
  241200    302.58887   -1170.1053    6298.3467    11592.588    1873.0242 
  241300    294.91006   -1168.1142    6444.6094    11576.796    1904.3427 
  241400    302.33983   -1164.0252    6511.5682     11806.57    1951.2514 
  241500    302.68581   -1165.7242    6445.5623    11746.256    1936.7707 
  241600    301.97327   -1164.8747    6374.1558    11660.477    1923.8118 
  241700    298.59051   -1170.1875    6441.5411    11650.282    1922.3644 
  241800    300.40649   -1169.3831    6465.1635    11713.504    1911.9169 
  241900    302.51101   -1166.2825    6361.1827    11657.584    1877.4324 
  242000    301.85276   -1166.6006     6424.398    11706.419    1860.4162 
  242100    300.12406   -1165.4081    6401.6242    11647.906    1902.5829 
  242200    296.56105   -1167.9264    6421.2225    11588.868     1903.306 
  242300    305.28637   -1169.1123    6409.1103    11761.973    1889.4153 
  242400    297.92534   -1162.8095    6433.9767    11635.885    1920.6139 
  242500    303.06475   -1166.0337    6429.4007     11737.88    1924.7388 
  242600    300.84547   -1170.0222     6426.748    11683.828     1893.612 
  242700     299.0238   -1169.5226    6478.6032    11697.265    1889.0187 
  242800    302.21635    -1165.974    6472.0059    11762.421    1904.6138 
  242900    301.65824   -1163.3896     6458.052    11739.128    1945.7358 
  243000    302.58545   -1161.5976    6375.5315    11678.208    1899.6976 
  243100    297.66525   -1164.3924    6535.3159    11730.085    1928.3091 
  243200    302.86914   -1163.6065    6410.1203    11716.848    1861.4575 
  243300    298.77379   -1160.6528    6383.7703    11605.961    1868.9152 
  243400    297.37524   -1166.3112    6344.5512    11531.206    1869.4051 
  243500     301.7656   -1160.9584    6399.8591     11685.66    1901.7251 
  243600    295.59175    -1164.691    6564.8656    11715.039    1901.9175 
  243700    302.24676   -1161.8836    6366.9882    11662.143    1828.6592 
  243800    301.85097   -1164.1665    6302.0938     11586.51    1874.1031 
  243900     299.4237   -1159.4244    6332.0997    11569.403    1852.2909 
  244000    299.13331   -1158.5758    6482.7623    11714.711    1846.3867 
  244100    301.50057   -1162.4285    6567.8405    11846.509    1912.5008 
  244200     295.9335   -1169.0096    6363.9025    11517.058    1835.1517 
  244300     297.8942   -1166.1012    6427.8799    11625.831    1864.5018 
  244400    296.95957   -1164.7421     6405.973    11585.317    1819.1696 
  244500    301.98588   -1169.8662    6426.6333    11708.232     1916.543 
  244600    302.35079   -1165.6159    6501.5498    11795.195    1904.5473 
  244700    301.90685   -1166.1677    6446.2253    11729.834    1899.8581 
  244800    297.73896   -1158.0654    6357.6108    11560.282    1856.2954 
  244900     298.4865   -1166.2121    6436.6177    11647.112    1876.2628 
  245000    299.75962   -1163.4342    6425.0515    11665.522    1857.1641 
  245100    297.33627   -1160.9493     6542.746     11733.93    1899.6205 
  245200    297.80928   -1163.0879    6355.9457    11555.096    1878.2612 
  245300    301.13835    -1162.163    6411.4145     11682.61    1860.1257 
  245400    298.85019   -1162.2197    6523.5636     11745.82    1890.3729 
  245500    303.66131   -1159.8585    6442.2658    11769.665    1869.9743 
  245600    303.14277     -1167.91    6436.2983    11744.568    1882.5668 
  245700    298.50793   -1161.9402    6461.2477    11676.471    1874.9739 
  245800     300.1704   -1157.7997     6454.669    11709.549    1909.5891 
  245900    304.69597   -1159.4023    6357.3341    11707.294    1811.1798 
  246000    296.99192   -1160.7587    6432.1722     11616.19    1823.2907 
  246100    302.38613   -1158.0677    6449.9778    11751.926    1867.9991 
  246200    297.74513   -1156.1294    6444.4872    11649.226    1838.9295 
  246300    301.13083   -1156.3714    6432.2556    11709.082    1871.0045 
  246400    296.84008   -1162.3946    6378.5443    11557.683    1886.4724 
  246500    305.69383   -1159.8136    6466.5284    11837.394    1895.0469 
  246600    300.90271   -1157.3297    6527.2907    11798.286    1887.1988 
  246700    296.88465   -1159.0964    6295.1224    11478.511    1792.0951 
  246800     292.7637   -1163.3476    6405.2572    11496.357    1877.3033 
  246900    297.69383   -1155.5417    6353.2513    11557.482    1835.1145 
  247000    299.18927   -1152.2872    6447.2011    11686.634    1884.9041 
  247100    300.02868   -1158.4413    6463.0888      11714.3    1920.2629 
  247200    301.67522   -1165.2856    6445.2581    11724.801    1855.8009 
  247300    295.93928   -1164.7064    6344.0402    11501.622    1765.5905 
  247400    300.53718   -1165.5577    6397.2557    11652.214     1876.175 
  247500     300.1603   -1163.8646    6450.7613    11699.361    1846.4822 
  247600    300.01034   -1170.5047     6381.101    11619.857    1797.8236 
  247700    297.35355   -1167.0878     6443.596    11629.011    1835.1133 
  247800    298.96601    -1157.921    6466.7879    11695.817    1862.3994 
  247900    299.24697   -1164.4402    6304.4852    11532.997    1801.9761 
  248000    294.77838   -1166.3575     6413.452    11544.582    1859.0317 
  248100    302.60598   -1168.5908    6394.3814    11690.503    1907.6667 
  248200    301.39508     -1170.68    6382.1053    11650.269    1797.5098 
  248300    297.11363   -1165.4019    6562.7162    11744.691     1843.869 
  248400    297.28935   -1176.7379    6436.3432    11610.736    1766.8005 
  248500    303.11036   -1173.2953    6360.1677     11662.36    1775.3259 
  248600    303.91987   -1167.7957     6382.715    11707.701    1846.0037 
  248700    300.35262   -1164.7297    6369.4721    11621.315    1918.1327 
  248800    295.86847   -1165.6377    6434.4021     11589.54    1899.2703 
  248900    306.20048   -1167.8723    6425.3827    11799.014    1839.2807 
  249000    297.38039   -1166.7103    6523.4852    11709.851     1894.634 
  249100    301.34219   -1167.4481    6304.6954    11574.961    1847.5821 
  249200     298.6345    -1170.424    6411.1201    11620.564    1898.4074 
  249300    297.51555   -1169.3446     6511.591     11698.21    1919.2181 
  249400    302.31642   -1165.6698    6354.7936     11647.65    1893.0868 
  249500    296.92591   -1164.6542    6381.6099    11560.322    1891.0504 
  249600    299.97076   -1167.8832    6418.9386     11659.47    1864.4753 
  249700    297.68018   -1162.4881    6552.9079      11749.9    1915.4875 
  249800     298.7382   -1164.7309    6289.8282     11507.18    1793.4379 
  249900    296.44274   -1161.5235    6454.8775    11626.398    1894.2044 
  250000    302.04531   -1161.8623    6439.2561    11730.128    1859.3997 
  250100    298.97173   -1159.5445     6432.301    11659.829    1863.4604 
  250200     301.5466   -1160.6774    6385.6195    11667.023    1890.4641 
  250300    298.92748   -1164.7794    6432.9928     11654.34     1932.797 
  250400    302.59351   -1160.2313    6400.5444    11704.759    1876.1582 
  250500    301.89204   -1165.0389    6372.8805    11657.302    1909.0758 
  250600    296.02996    -1158.758    6450.6527     11616.12    1958.2068 
  250700    302.37012   -1160.5772    6367.5539     11666.65    1900.9016 
  250800    296.24783   -1155.1738      6474.38    11648.086    1890.3599 
  250900    301.27578   -1158.8047    6542.7337    11820.224    1907.2022 
  251000    296.22494   -1163.1585    6361.2613    11526.494    1785.1235 
  251100    295.96563   -1160.0498    6425.7893    11588.591    1875.6146 
  251200    302.07078   -1159.9851     6459.081    11752.375    1864.6053 
  251300    299.14986   -1164.1788    6486.4346    11713.134    1836.9514 
  251400    298.56605   -1160.8026     6460.381    11677.984    1837.3908 
  251500    295.00276   -1167.7079    6309.9543    11444.528     1827.375 
  251600    299.76345   -1167.5603    6441.9478    11678.374    1922.7083 
  251700    297.71991   -1165.5995    6433.5006     11628.23    1787.6489 
  251800    299.19837    -1162.781    6454.2845    11683.418    1840.7874 
  251900    306.37788   -1160.5288    6532.5238    11917.288    1924.2362 
  252000    297.21375   -1166.7865    6310.8414    11493.571    1838.8644 
  252100    302.74009   -1163.0104    6380.1008    11684.668    1899.0358 
  252200    299.34104   -1166.1439    6464.0378    11692.856     1941.913 
  252300    298.70621   -1166.2085    6352.9424    11568.134    1818.1064 
  252400    301.24595   -1168.1326    6473.0956     11740.62    1844.7892 
  252500    297.50904   -1163.8979    6489.2163    11681.143    1892.5985 
  252600    300.11347   -1164.2285    6391.4112    11638.646    1851.3453 
  252700    299.43573   -1163.5185    6394.9774    11628.444    1883.5096 
  252800    299.33118   -1162.9326    6431.5913     11663.41    1956.4096 
  252900    297.06473   -1158.6651     6471.297    11658.964    1943.5178 
  253000    296.15188   -1158.7427    6352.4911    11520.579     1838.013 
  253100     303.8507   -1163.2271     6393.024    11721.101    1961.4336 
  253200    297.98457   -1166.1067    6339.8622    11539.738    1918.1442 
  253300    303.54702   -1164.9615    6468.0517    11787.907    1896.1199 
  253400    296.77502   -1165.2973    6436.0611    11610.907    1854.1633 
  253500    303.82535   -1164.5219    6536.3939    11862.634    1913.7476 
  253600    296.42047   -1164.4991    6361.8342    11529.904     1827.747 
  253700    303.86943   -1161.5404    6307.2825    11637.446    1852.5104 
  253800    300.28826   -1160.8217    6562.6883    11817.065     1978.075 
  253900    299.72914   -1160.2295    6439.2031    11682.227    1890.4769 
  254000    300.65738   -1158.6289    6479.6416    11744.096    1945.4056 
  254100    293.51747   -1159.7539    6379.6915    11490.488    1887.1252 
  254200    301.69323   -1167.9402    6402.0173     11679.29    1848.0998 
  254300    307.21746   -1161.7105    6428.2678    11829.787    1876.8378 
  254400    303.23635    -1159.354    6473.4847     11792.31    1842.8511 
  254500    296.75573   -1162.7359    6493.7748     11670.77    1885.2918 
  254600    304.76717   -1161.3157    6398.5848    11748.152    1862.9019 
  254700    296.73806   -1165.6293    6419.4411    11593.165    1851.4722 
  254800    300.79248   -1159.6287    6462.4146    11728.756      1909.33 
  254900    300.72739   -1165.2161    6372.5213    11631.884    1971.0636 
  255000    299.65355    -1165.628    6394.3556    11630.366    1894.3256 
  255100    299.70186   -1164.6759    6459.7203    11697.715    1887.0171 
  255200    302.84423   -1162.3211    6527.3853    11834.867    1914.3094 
  255300    295.99887   -1162.2273    6352.6142    11513.948    1833.1951 
  255400    297.28211    -1167.536    6371.1504    11554.591    1913.1975 
  255500    302.50603   -1165.0126    6303.8883    11601.453    1902.6056 
  255600    297.83981   -1160.3597    6560.7796     11763.31     1959.932 
  255700    300.83274   -1165.8745    6475.8909    11736.846    1959.8172 
  255800    295.82587   -1164.1001    6380.8232    11536.589    1921.5132 
  255900    305.87901   -1164.5297    6361.6997    11731.806     1918.332 
  256000    297.69881   -1157.6559    6335.7991    11538.022    1904.6189 
  256100    296.27904   -1162.1034    6422.0424    11589.486    1912.5052 
  256200    302.90796   -1168.0011    6586.4593    11889.622    1926.9468 
  256300    299.53962   -1168.4155    6373.7636    11604.552    1875.0255 
  256400    301.88185   -1166.1818    6394.2154    11677.276    1924.3728 
  256500    297.31185   -1165.9455    6461.9753    11647.641    1898.1189 
  256600    306.60652   -1160.9541    6402.0757    11791.299    1909.3691 
  256700    299.27902   -1166.0942    6429.4206    11656.964    1931.4474 
  256800    303.71534   -1164.6809    6287.4685      11611.2    1827.0227 
  256900    294.33126   -1169.5475    6374.2621     11492.65    1863.4307 
  257000    305.06997   -1163.0521    6434.9697    11789.269     1908.813 
  257100    299.48107   -1159.3156    6418.2355    11656.873    1852.0614 
  257200    297.10738   -1160.2249    6462.1461    11649.164    1850.6265 
  257300     304.3196   -1161.6425    6450.4734    11790.152    1935.0839 
  257400     298.2451   -1157.4156    6408.9039    11623.037    1903.4343 
  257500    298.74081   -1157.1135    6373.4508    11598.476    1897.7865 
  257600    302.66534   -1159.8735    6457.1193    11763.226    1982.4953 
  257700    296.99283   -1164.9422    6524.0806    11703.935    2001.2204 
  257800    303.52302   -1164.1576    6405.5677    11725.714    1917.5528 
  257900    298.97633   -1162.0124    6475.2641    11700.422    1910.3302 
  258000    308.17412   -1166.2409    6390.2399    11807.666     1872.791 
  258100    299.09521   -1161.5307    6436.0825    11664.262    1863.4964 
  258200    301.18321   -1157.9262    6424.4742    11700.865    1864.4984 
  258300    292.81006   -1162.5385    6387.8753    11480.774    1820.6156 
  258400    300.51523   -1164.3146    6381.2612    11636.993    1853.5389 
  258500     299.5943   -1162.8751    6409.4583    11646.956    1913.3841 
  258600    301.42818    -1160.859    6410.6065    11689.298    1948.6339 
  258700    300.64098   -1168.9711    6516.1259    11769.888    1924.7935 
  258800     297.8106   -1167.5134    6400.0833    11594.836    1896.7594 
  258900    298.05468   -1163.5226    6371.1423    11575.101    1894.6222 
  259000    302.14558   -1166.3917    6430.5602    11719.045    1914.1451 
  259100    301.06902   -1158.2351    6369.1806    11642.823    1896.9751 
  259200    300.60594   -1159.7996    6387.0173    11649.202    1887.1877 
  259300    297.70679   -1162.2073    6535.0751    11732.917    1887.0183 
  259400    301.25119   -1167.8607    6466.7705    11734.679     1906.347 
  259500    304.38757   -1165.9846    6361.9866    11698.775    1889.2226 
  259600     300.8724   -1166.4723    6371.7261    11632.931    1859.6483 
  259700    296.71904   -1165.7796    6536.9914    11710.159    1906.1045 
  259800    301.03312   -1162.7813    6344.3549    11612.684    1923.2932 
  259900    300.48143    -1165.783    6354.0899    11607.632     1952.418 
  260000    294.75847   -1159.5702    6444.6009    11582.093    1894.0816 
  260100     303.1847   -1163.9275    6467.9788    11781.127    1941.8431 
  260200    299.21707   -1163.2772    6404.5593    11633.596    1897.1001 
  260300    301.70396   -1163.7037    6417.7723    11699.511    1907.6509 
  260400    292.75754    -1160.521    6483.5567    11577.351    1948.0428 
  260500    302.72889   -1165.4559     6420.068     11721.95    1900.0475 
  260600    293.56503   -1166.4692    6456.6582    11561.755    1838.9183 
  260700    300.42901   -1159.9997    6465.5541    11723.759    1922.6469 
  260800     300.8499   -1166.2233    6321.0776    11582.051    1904.4725 
  260900    302.19581   -1161.2302    6369.8332    11664.553    1887.6527 
  261000    295.34646   -1162.0825    6583.2722    11730.814    1965.3906 
  261100    304.83461   -1158.1654    6313.4805    11667.639    1846.3106 
  261200    302.87823   -1158.8213    6338.8169    11650.524    1878.4699 
  261300    291.21608   -1164.3299    6485.0522    11542.107     1943.216 
  261400    301.85896   -1163.1529    6442.5186    11728.119    1980.0496 
  261500     297.7415   -1162.6819    6340.8669    11538.975    1908.2815 
  261600    298.56793   -1159.8755    6467.4504     11686.02    1920.9722 
  261700    299.73935   -1161.4953    6397.5243      11639.5    1882.3269 
  261800    303.23263   -1168.9084    6513.5977    11822.789    1908.3558 
  261900    295.77338    -1166.097    6430.8301    11583.478    1853.3754 
  262000    302.07105   -1161.8166    6389.4975    11680.965    1923.7933 
  262100    300.07114   -1159.3766    6442.6611    11693.844    1940.3584 
  262200    299.54286   -1162.5941    6482.9469    11719.626    1958.0161 
  262300    299.35346   -1167.4643    6373.8695    11601.633    1879.2574 
  262400    297.41623   -1164.4932    6407.4212    11596.769    1831.6164 
  262500    303.62938   -1165.7354    6441.8813    11762.722    1867.7057 
  262600    297.81852   -1164.2445    6446.4613    11644.652    1815.6452 
  262700    300.23632   -1161.3768    6506.3489     11759.06     1817.584 
  262800     297.5517   -1166.2177    6386.4066    11576.924    1802.0077 
  262900     304.6014   -1170.7899    6350.5824    11687.134    1859.2681 
  263000    296.56128     -1162.85    6363.7608    11536.488    1834.4557 
  263100    300.84759    -1163.531    6452.1756    11715.792    1873.9263 
  263200    297.53665   -1165.3013    6391.4492    11582.562    1852.9899 
  263300    300.83338   -1166.5761    6477.7318    11737.999      1899.05 
  263400    299.72975   -1158.3602    6324.0631    11568.969    1797.5096 
  263500    296.54244   -1164.9896     6478.449    11648.634    1889.4327 
  263600    303.14118   -1157.5505    6502.7229    11821.319     1881.546 
  263700    296.30854   -1164.5307    6420.7159    11586.362    1807.0416 
  263800    306.16443   -1161.1293     6424.956     11804.56    1846.8866 
  263900    299.43602   -1163.8845    6414.4936      11647.6    1890.3731 
  264000    298.48711   -1163.1526    6320.7517    11534.318    1835.9192 
  264100    303.95109   -1161.0142    6397.2613    11729.696    1824.1113 
  264200    299.83997   -1163.8576    6574.3043    11816.068    1886.4466 
  264300    301.18611   -1161.8546    6479.4259     11751.95    1947.3269 
  264400    296.62095   -1162.0034    6338.8128    11513.661    1884.9221 
  264500     303.5808   -1159.9561    6370.9324    11696.514    1879.2108 
  264600    302.66152   -1157.4268    6478.1268    11786.599    1814.8996 
  264700     297.4994   -1165.5205    6446.1606    11636.258    1830.1045 
  264800    299.74676   -1162.6642    6398.5969    11639.562    1883.7459 
  264900    296.41124   -1161.4275    6461.2511    11632.195    1879.7654 
  265000    299.81733   -1158.9381    6488.2152    11734.414     1933.758 
  265100      298.826   -1164.5975    6372.7431    11592.105    1837.4354 
  265200    300.63351   -1159.9169    6484.7581    11747.415    1885.7289 
  265300    291.51587   -1167.7683    6420.3334    11480.354    1887.4004 
  265400    302.48006   -1168.8766    6310.8163    11603.962    1839.1326 
  265500     299.2025   -1158.9264    6539.1049    11772.181    1846.0504 
  265600    302.90117   -1160.7931    6558.3955    11868.621    1847.3511 
  265700    300.13835   -1159.5066    6354.9331    11607.422    1883.8311 
  265800    302.40034   -1159.9293    6348.4496     11648.84    1847.9889 
  265900    295.68489   -1161.7723    6451.0437    11606.125    1931.3486 
  266000    300.92097   -1163.5587    6467.5583    11732.714     1913.283 
  266100    302.19759   -1169.8166    6444.1085     11730.28    1873.8475 
  266200    298.39155   -1165.1336    6399.8465    11609.391    1846.0444 
  266300    303.90915   -1169.1151    6374.6362    11698.074    1831.1111 
  266400    294.68544   -1167.6408     6416.772    11544.634    1837.5655 
  266500      300.428   -1162.1265    6504.5454    11760.602    1870.7731 
  266600    295.29906   -1161.8645     6458.898    11605.645    1837.1683 
  266700    304.49684   -1160.0501    6390.9041    11735.962    1821.6564 
  266800    297.23168   -1164.5724    6448.7477    11634.074    1881.5713 
  266900    296.74065   -1167.2226    6346.5646    11518.751    1891.7487 
  267000    302.96286   -1165.7684    6442.9005    11749.469    1910.8456 
  267100    301.75869   -1158.4934    6403.0555    11691.174    1834.2357 
  267200    301.24888   -1163.6404      6412.76     11684.84    1890.1409 
  267300    299.11844   -1169.0479    6400.8621    11622.021    1867.8943 
  267400    301.23384    -1164.211    6395.8137    11667.002    1844.8801 
  267500    300.07022   -1162.6668    6432.4471     11680.32     1875.709 
  267600    302.97491   -1164.9584    6439.4459    11747.082    1913.8948 
  267700    303.44602   -1163.1694    6455.0914    11774.581    1882.1867 
  267800      297.682   -1165.6533     6415.777    11609.643    1843.9708 
  267900    297.27472    -1164.667    6395.5649    11581.716    1848.0832 
  268000    302.97561   -1161.8652    6336.6426    11647.386    1858.1721 
  268100    296.11095   -1160.7827    6392.7706    11557.944    1802.6912 
  268200    303.29711   -1156.3935    6650.4538    11973.538    1915.8492 
  268300    296.06245   -1158.7257    6360.5793    11526.774    1804.1187 
  268400    301.24937   -1169.2732    6324.2176    11590.675    1858.2499 
  268500     299.1033   -1163.8901    6483.6109    11709.604    1931.3472 
  268600    301.52975   -1166.2257    6502.9495    11778.444    1893.9258 
  268700    295.33833   -1163.8839    6487.0644    11632.631    1841.6045 
  268800    297.93236   -1162.3501    6480.5623     11683.08    1889.3452 
  268900    305.07038   -1158.3785    6405.4183      11764.4    1898.5793 
  269000    301.68295   -1158.7653    6338.5516     11624.78    1859.5432 
  269100    298.07067   -1159.9298      6399.52    11607.413    1900.5131 
  269200    300.38438   -1161.1767     6476.895     11732.97    1880.4525 
  269300    296.48671   -1166.5126    6309.6407    11477.112     1796.799 
  269400    301.79456   -1165.2592    6486.0292    11768.148    1883.8792 
  269500    303.18922   -1164.4026    6463.7111    11776.481    1895.4018 
  269600    303.92609   -1166.3097    6547.4619    11874.067    1916.9967 
  269700     297.0746   -1166.0169    6274.2457    11454.772    1821.6087 
  269800    297.80972   -1160.7119    6392.0735    11593.609    1914.8677 
  269900    300.51148   -1157.3821    6463.8932    11726.478    1941.9514 
  270000     299.8536   -1161.6065    6400.7862    11645.092    1850.8943 
  270100    301.74446   -1160.0465    6429.5143    11715.775    1898.2078 
  270200    298.39472   -1167.6757    6392.4205     11599.49    1869.4184 
  270300    299.94977   -1164.8344    6380.0729    11623.205    1831.8723 
  270400     302.0618   -1170.2906    6454.3376    11737.134    1875.6673 
  270500    300.00121   -1171.2871    6423.9593    11661.738    1875.5575 
  270600    298.03565   -1165.4985    6414.5467    11616.123    1776.0067 
  270700    302.70767   -1162.9696    6409.4948     11713.41    1814.4907 
  270800    303.31612   -1163.2321     6494.274    11810.925     1972.417 
  270900     298.6372   -1159.3155    6445.9182    11666.528    1882.6536 
  271000    298.29305   -1164.8036     6399.013    11606.783    1831.4378 
  271100    302.20724   -1173.2998    6407.2638    11690.158    1912.4794 
  271200    294.55122   -1166.6318    6449.4115    11575.415    1869.1484 
  271300    302.24239   -1165.6366    6449.8904    11741.199    1855.5456 
  271400    298.09473   -1160.6173    6378.1456    11585.865    1869.5247 
  271500    303.74587   -1163.8586    6390.7143     11715.92    1904.5313 
  271600    298.12201   -1170.4625    6411.4198    11609.877    1844.3571 
  271700    295.76826   -1165.6155    6491.5715    11644.591    1954.5482 
  271800    299.96323    -1167.714    6484.0709    11724.611    1927.6768 
  271900    301.62921   -1166.4741     6388.588    11665.959    1885.9708 
  272000    294.64238    -1162.072    6387.3274    11519.838    1841.8533 
  272100    301.54105   -1164.4726    6488.3911     11765.88    1921.3742 
  272200    301.58269   -1158.2303    6410.2562    11694.877    1882.6045 
  272300    298.42185   -1162.7601    6432.1886    11644.754    1882.9846 
  272400    302.82206   -1163.8311    6401.1146    11706.612    1891.0342 
  272500    299.72095   -1171.1136     6474.091    11706.056    1892.8998 
  272600    299.30022   -1167.6059    6393.5201    11620.004     1836.538 
  272700    307.58775   -1164.5127    6444.0752    11850.703    1865.8924 
  272800    302.07569   -1166.5415    6441.1692    11728.011    1857.1228 
  272900    303.16734   -1166.6573    6419.5802    11729.628    1893.7953 
  273000    302.40847   -1162.2512    6463.7768    11762.019    1906.8773 
  273100    295.55266   -1161.2586     6515.571    11668.341    1896.7921 
  273200    298.90513   -1159.4773    6427.7142    11653.886    1871.1072 
  273300     303.7795   -1164.9864    6468.3059    11793.102    1944.7122 
  273400    300.68979   -1169.1327    6313.9404    11568.584    1920.4291 
  273500    295.63936    -1169.157    6468.1825    11614.907    1896.6706 
  273600    308.58538   -1166.4328    6480.7597     11906.78    1846.0256 
  273700    292.74809   -1167.3478    6440.0535    11526.819    1807.5975 
  273800    300.63387   -1166.2886    6401.7311    11658.024    1868.3455 
  273900    299.96966   -1159.2506    6480.8308    11729.972    1944.2386 
  274000    298.81604   -1164.5344    6440.8559    11660.068    1908.4814 
  274100    302.02552   -1161.3323    6504.8842    11795.864    1905.5824 
  274200     295.6245   -1167.2517    6347.5561    11495.868    1853.7071 
  274300    302.42303   -1164.6597    6420.6558      11716.8     1945.346 
  274400    298.74457   -1166.3963    6457.3975    11673.221    1891.8357 
  274500     302.1295   -1172.3789    6442.5992    11724.753    1836.8237 
  274600    304.10581   -1167.1439    6476.3962    11806.006    1881.8884 
  274700    298.37504    -1164.323    6438.5924    11648.594    1833.5131 
  274800    302.51001   -1165.0385    6360.4454    11658.069    1859.0191 
  274900    302.69211      -1164.2    6434.7281    11737.081    1901.7719 
  275000    297.80516   -1162.0027    6419.3379    11619.485    1843.0261 
  275100    302.08115   -1160.7475    6465.1919    11757.945    1888.7176 
  275200    296.28263   -1167.6459    6344.7574    11506.735     1877.033 
  275300    304.00425   -1167.9524    6404.5596    11731.191    1918.3944 
  275400    302.06539    -1166.427    6389.3557    11676.092    1921.9579 
  275500    301.72834   -1163.2887    6419.5201    11702.195    1838.4738 
  275600    299.21702   -1162.2728    6534.6593    11764.699    1944.9727 
  275700    302.74733    -1162.007    6399.0841    11704.809    1907.3243 
  275800    296.24173   -1165.2305    6319.5007     11483.02    1865.0196 
  275900    298.64517   -1162.8352    6387.6011    11604.862    1894.8331 
  276000    298.33156   -1159.5534    6429.2756    11643.118    1909.9815 
  276100    304.66298   -1161.8306    6398.4501    11745.277    1841.9299 
  276200    297.75776   -1158.8341    6452.1409    11654.445    1850.2437 
  276300    304.50273   -1162.8911    6400.3133    11742.656    1874.3751 
  276400    303.63825   -1163.3965    6408.6479    11732.017    1838.0367 
  276500    295.01168   -1162.5342    6415.7796    11555.717    1860.0513 
  276600    303.62561   -1170.3077    6358.3242    11674.512    1843.3916 
  276700    307.56807   -1166.9571    6466.3851    11870.148      1825.43 
  276800    298.55212   -1160.8183    6572.8322    11790.122    1849.3519 
  276900    303.25907   -1159.3015    6471.2345    11790.598    1841.1005 
  277000    297.32545   -1154.9855    6432.8125    11629.729    1863.8341 
  277100    299.18507   -1162.5219    6308.5332    11537.641    1786.9401 
  277200    302.38649   -1152.6916    6477.6254    11784.957    1937.7762 
  277300    297.14264   -1159.1462    6487.9436    11676.794    1894.6291 
  277400    296.75937   -1164.1387    6400.6938    11576.364    1816.1799 
  277500    300.55485   -1162.3357    6382.5704    11641.128    1830.0727 
  277600    295.40243   -1165.6955    6485.0963     11630.22    1891.2403 
  277700    296.23774   -1161.2661    6388.6768    11556.075    1855.9792 
  277800    301.87511   -1162.6601    6425.5751    11712.014    1857.8625 
  277900    296.75865   -1166.8745    6411.7615     11584.68    1848.0852 
  278000    301.48531   -1161.8757    6469.8611    11748.757    1894.4536 
  278100    302.09676   -1158.7188    6378.7935    11673.908    1950.1684 
  278200    303.72277   -1159.3081    6460.0779    11789.341    1968.7989 
  278300    296.44814    -1158.206     6396.507    11571.461    1850.3429 
  278400     297.5637   -1166.4965    6528.2923    11718.788    1918.4905 
  278500    299.96897   -1165.6558    6371.3722    11614.093    1898.7084 
  278600    303.19978   -1167.7264    6438.9938    11748.666    1971.1863 
  278700    302.70985   -1160.8455    6403.7082    11709.794    1873.4136 
  278800    300.62028   -1162.0244    6439.5589    11699.826    1875.8765 
  278900    300.74319   -1164.4338    6467.3805    11727.863    1907.6666 
  279000    302.97693   -1160.1221    6427.5846      11740.1    1952.0575 
  279100    303.64968   -1160.7739    6333.5534    11659.789    1868.2546 
  279200    299.27925   -1159.8503    6466.4128    11700.204    1889.6663 
  279300    301.42535   -1165.2314    6333.9499    11608.209    1895.4554 
  279400     300.3488   -1167.4468    6425.4919    11674.536    1963.7191 
  279500    298.35925   -1168.6752    6372.0757    11577.388    1833.8995 
  279600    304.81336   -1169.6274    6492.0963    11834.339    1936.2616 
  279700    301.92389   -1165.5983    6351.0139    11635.556    1875.2645 
  279800    301.00296   -1167.7742    6416.8262    11679.518    1945.6584 
  279900    302.81392   -1165.6149    6437.1121    11740.652    1987.3921 
  280000    295.73349   -1164.3981    6410.2173    11563.711    1925.8373 
  280100    303.23395   -1163.8657    6336.2695    11650.532    1814.6452 
  280200    301.39549   -1161.1348    6446.4232    11724.141    1851.1931 
  280300    296.45081   -1165.2409    6438.1276    11606.104    1876.2426 
  280400    302.20723   -1164.0714    6310.0279     11602.15    1826.9103 
  280500    300.78466   -1166.2611    6430.1596    11689.701    1884.6122 
  280600    294.28033   -1169.4637    6395.4831    11512.867    1861.0193 
  280700    300.81763   -1164.3328     6464.878    11727.052    1876.3926 
  280800    304.81915   -1165.4289    6423.8009    11770.365    1837.6614 
  280900    302.60305   -1163.5056    6476.0678    11777.212    1988.4267 
  281000    296.63104   -1167.2667    6373.7091     11543.51    1950.6937 
  281100    302.00469   -1161.3173     6383.525    11674.074    1897.9511 
  281200    302.35183   -1167.5087    6384.7723    11676.547    1945.1225 
  281300    294.46318   -1159.0284    6467.3987    11599.124    1916.5428 
  281400    303.56017   -1165.5099    6516.5769    11836.164    1952.3897 
  281500     298.6045    -1163.324    6333.6589    11549.562    1943.2747 
  281600    300.82697   -1166.9861    6364.1792      11623.9    1907.0026 
  281700    304.32089   -1162.7665    6345.5103    11684.093    1860.1087 
  281800    297.98642   -1165.8653    6461.2464    11661.404    1845.4839 
  281900    303.47493   -1168.1378    6485.1947    11800.333    1904.2074 
  282000    297.51947   -1170.2952    6329.5987     11515.35    1862.5601 
  282100    304.99282   -1169.6314    6463.7007    11809.773    1960.3649 
  282200    299.02319   -1162.1178    6418.3182    11644.372    1881.8159 
  282300    296.48465   -1162.8518    6372.7331    11543.821     1879.123 
  282400    298.96205   -1162.1789    6387.4077    11612.094      1937.65 
  282500    298.96029   -1163.1819    6385.2749    11608.921    1850.3982 
  282600    301.15216   -1167.8189    6487.7178    11753.553    1836.3774 
  282700    295.58883   -1169.3049    6378.9234     11524.42    1832.3215 
  282800    301.48975   -1172.1248     6406.477    11675.218    1854.1218 
  282900    292.92006   -1168.7909    6538.6326    11627.629    1826.8376 
  283000    299.34325   -1167.1132    6414.3901    11642.286    1869.9844 
  283100    302.89203   -1161.1772    6424.9758    11734.622    1915.2064 
  283200    302.20505   -1164.0482    6369.4496    11661.549    1905.1025 
  283300    300.79582   -1166.3351    6495.6233    11755.329    1987.9366 
  283400    296.56946   -1165.6828    6408.6624    11578.731    1956.8426 
  283500    298.99291   -1167.1017    6292.6249    11513.048    1833.4314 
  283600    299.89306   -1162.2583    6538.3517    11782.848     1923.706 
  283700    299.56785   -1161.5502    6602.8329     11841.09    1973.5057 
  283800    302.36794   -1165.5485    6316.3603    11610.439    1912.2916 
  283900    299.47579   -1168.8425    6245.5817     11474.58    1838.4186 
  284000    301.55532   -1168.8321    6564.0625    11837.497    2047.7442 
  284100    300.06584   -1168.6012    6451.9848     11693.83    1998.6506 
  284200    294.67434   -1169.1673    6307.6039    11433.702    1873.7705 
  284300     305.1536   -1164.7436    6478.2654     11832.66    2004.0959 
  284400    296.50853    -1169.967    6425.3786    11589.861    1962.5162 
  284500    303.41288   -1166.3369    6485.3022    11800.916    1951.9061 
  284600    294.05098   -1171.7536    6384.8761    11495.071    1854.5429 
  284700    301.64095   -1174.6831    6433.5584    11702.971     1903.237 
  284800    293.80954   -1173.5202    6326.4748    11429.745    1815.3498 
  284900    299.90772   -1167.8321    6439.3363    11678.572    1819.3563 
  285000    295.02391   -1165.2469    6542.0882    11679.574    1887.9329 
  285100    302.31899    -1164.628     6416.498    11710.451    1859.4709 
  285200    296.93268   -1170.7122    6443.2298    11616.029    1942.6666 
  285300    301.08456   -1169.6498    6371.4578    11634.018    1924.5327 
  285400    303.41536   -1162.3404    6406.9479    11726.611    1867.8537 
  285500    299.30482   -1167.2678    6480.4406    11707.361     1949.654 
  285600    300.73619   -1168.9772    6379.9842    11635.774    1838.1555 
  285700    301.21445   -1167.6036    6418.6595     11686.04    1943.2662 
  285800    297.52834   -1165.4286    6329.3152    11520.123    1942.5401 
  285900    304.15236   -1165.7153    6448.9183    11780.951    1969.9336 
  286000    301.24821   -1162.4456    6458.8783    11732.139    1914.7954 
  286100    302.52237   -1166.6181    6439.5128    11735.821    1979.0315 
  286200    295.72685    -1165.125    6419.1284    11571.754    1938.0965 
  286300    299.54676   -1162.2137    6424.2773     11661.42    1840.3215 
  286400    305.01116   -1165.5859    6500.6023    11851.112    1937.0067 
  286500    300.00806   -1163.9336    6396.2636    11641.542    1911.9404 
  286600    299.16726   -1167.7422    6582.9371    11806.444    1941.6484 
  286700     300.1809   -1165.4922    6378.0149    11625.427    1822.3121 
  286800    296.93333   -1164.6452    6429.4111    11608.291     1954.289 
  286900    303.17495   -1164.3213     6506.171    11818.717    1978.7372 
  287000     299.5609   -1162.5319    6420.4624     11657.59    1938.9193 
  287100    293.87224   -1160.1733    6317.1033     11435.06    1898.0539 
  287200    304.82737   -1150.8918    6469.0602    11830.338     1955.878 
  287300    298.17756   -1159.9378    6477.6205    11687.789    1902.9605 
  287400     299.9597   -1166.3163    6423.2759    11665.138     1914.413 
  287500    300.57571   -1166.3277    6369.6043    11624.615    1921.6114 
  287600    299.03512    -1166.667    6483.4644    11705.224    1915.7629 
  287700    303.22943   -1167.3557    6462.7895    11773.465    1895.8835 
  287800    297.75484   -1161.7376    6453.6076    11652.945    1876.6087 
  287900    302.86772   -1162.0917    6440.5201    11748.732    1902.1241 
  288000    299.81868   -1156.2694    6320.5763    11569.473    1854.3492 
  288100    295.80149    -1162.156    6410.0621    11567.251    1910.2801 
  288200    300.41435   -1167.1715    6348.7829    11599.503    1945.4099 
  288300    295.73312   -1164.5253    6432.2234    11585.582    1936.7871 
  288400    301.85685   -1164.5128    6454.6958    11738.891    1849.3967 
  288500    302.19402   -1161.5211    6429.8784    11724.269    1800.8509 
  288600    299.42158   -1162.6524    6456.9985    11691.029    1816.7592 
  288700     297.0015   -1164.5571     6341.026     11521.45    1811.4851 
  288800      302.249   -1160.8309    6533.0137    11829.269    1967.5173 
  288900    296.77469   -1163.0466    6367.1091    11544.198    1824.5308 
  289000     306.8722    -1165.785    6482.4301    11872.499    1914.2255 
  289100    297.54049   -1163.1027    6335.6046    11528.998    1861.8289 
  289200    300.39662   -1159.5719    6419.3706    11677.312    1906.9504 
  289300    297.76869   -1158.7321    6466.5792    11669.218    1921.9603 
  289400    301.86329   -1155.8711    6381.7842    11674.759    1929.3636 
  289500    295.10784   -1161.4949    6439.2111    11582.242    1874.8771 
  289600    297.20866   -1161.9795    6438.1004    11625.528    1902.4333 
  289700    303.63954   -1163.5426    6367.4681    11690.718     1917.707 
  289800    297.18516   -1166.4709    6445.2066    11627.641    1952.2389 
  289900    300.34561   -1161.1208    6422.1708    11677.473    1872.2293 
  290000    300.29668   -1156.4476    6382.1856    11641.116    1900.0637 
  290100    297.34864   -1160.4003    6346.3735    11538.371    1844.9185 
  290200    302.28775   -1156.8789    6578.4889    11879.524     1919.608 
  290300    299.56294   -1156.9138    6401.2327    11644.022    1921.1971 
  290400    298.20972   -1166.7969    6277.1747    11481.171    1934.2361 
  290500    299.13266   -1160.3069    6372.2302    11602.434    1823.0402 
  290600    303.61023   -1161.7306    6529.2026    11853.639    1866.7322 
  290700    295.85143   -1165.0244    6565.2089    11720.596    1948.3826 
  290800    304.18963   -1172.0871    6311.5356    11637.993    1820.1515 
  290900    296.62776   -1172.0951    6440.7812    11605.683     1753.529 
  291000    300.45258   -1171.8527     6478.718    11725.574    1789.3164 
  291100    299.59144   -1164.0932    6441.5082    11677.726    1794.1267 
  291200    297.21682   -1165.5178    6395.0254    11579.089    1832.8657 
  291300    295.56906   -1160.3543    6442.5382    11596.563     1889.722 
  291400     304.9139   -1168.2552    6384.1016    11729.864    1937.2256 
  291500    300.53856   -1165.3043    6419.0904    11674.331    1933.6122 
  291600    294.92023   -1165.9961    6395.4471    11529.969    1874.4031 
  291700     295.8829   -1169.8887    6395.6885    11546.884    1860.9134 
  291800    303.10471   -1161.0381    6457.6985    11772.027    1860.9101 
  291900    296.77975    -1170.921    6407.5813    11576.904    1854.6563 
  292000    297.05617   -1168.2093    6415.2934    11593.233     1916.857 
  292100    297.99555   -1164.1891    6413.7306    11615.759    1864.8581 
  292200    300.06334   -1158.4757    6461.2242    11713.141    1911.4605 
  292300    300.09893   -1156.7651    6458.2755    11712.664    1867.6935 
  292400    303.52912   -1161.9175    6397.0556    11719.572    1819.2541 
  292500    296.75497   -1159.2331    6470.5524    11651.034    1931.8676 
  292600    301.63623   -1165.8398    6300.1122    11578.268    1803.9565 
  292700    299.66356   -1159.0578    6520.3943    11763.189    1835.5314 
  292800    306.28589   -1159.6608    6596.3584    11980.026    1881.2164 
  292900     293.2779   -1163.7856     6457.127    11558.774    1759.1391 
  293000    298.92022   -1162.7159    6339.6481    11562.904    1764.3036 
  293100    297.33469   -1163.3814    6380.4338    11569.152    1838.5715 
  293200    302.23174   -1162.4758    6500.1266    11794.368    1889.8124 
  293300     294.1482    -1162.936    6400.7569    11521.846    1782.0455 
  293400    301.67456   -1156.8754    6422.3946    11710.333    1892.2695 
  293500    294.07277   -1156.5953    6475.3124    11601.131    1949.2502 
  293600    302.50676   -1158.5664    6443.1762    11747.203    1921.8518 
  293700    297.23513   -1161.8002    6341.6637    11529.836    1911.4895 
  293800    302.80266   -1165.5863    6382.9849    11686.313    1962.5785 
  293900     299.4466   -1167.0312    6561.5372    11791.723      1927.37 
  294000    299.13307   -1171.7928    6396.6469    11615.373     1859.381 
  294100    298.41205   -1166.8115    6350.7843    11559.088    1852.2038 
  294200     299.9674   -1167.2063    6439.7133     11680.85    1899.5656 
  294300    295.11612   -1167.7478    6460.8097    11597.765    1891.8593 
  294400    295.36487   -1161.5998     6301.958    11450.375    1839.3142 
  294500    303.75653   -1161.5137     6394.393    11722.172    1915.0175 
  294600    300.09281   -1163.6345    6429.0642    11676.452    1885.3241 
  294700    296.52713   -1171.0115     6481.877    11645.713    1888.7838 
  294800    298.82007   -1170.6437    6450.8064    11663.995    1951.1005 
  294900     300.6772   -1171.1375    6322.6832    11575.053    1892.9369 
  295000    300.15408   -1176.7996    6419.0276    11654.559     1897.121 
  295100    299.61479   -1166.0234     6475.014    11709.801    1873.1701 
  295200    297.98223   -1165.3092     6420.982    11621.606    1832.7411 
  295300    295.63086   -1164.9288    6331.3993     11482.17    1898.0781 
  295400    303.55328   -1164.0658    6326.9146    11647.799    1933.8988 
  295500    300.97195   -1158.6815    6418.9408    11690.063    1968.6555 
  295600    300.75567   -1163.8884    6433.8519    11695.147    1929.6672 
  295700    297.41505   -1163.9111      6450.37    11640.275    1907.5262 
  295800    302.84844   -1164.5875     6377.652    11682.957    1886.8177 
  295900    296.44121   -1166.9335    6500.0553    11666.133    1929.0628 
  296000    304.23813   -1165.5102    6483.3168    11817.387    1963.2588 
  296100    298.52165   -1157.3621    6466.0799    11686.175    1947.6011 
  296200    297.45354   -1161.5175     6273.281    11466.402    1871.6899 
  296300    301.45753   -1156.4401    6371.0154    11654.753    1947.6675 
  296400     302.7222   -1154.1844    6467.0081    11780.019    1936.9718 
  296500    296.62752   -1155.1562    6380.4806    11562.316    1838.1028 
  296600    297.99862   -1162.2784    6557.2806    11761.285    1914.5577 
  296700    298.34837   -1164.5478    6449.2852    11658.493    1871.1643 
  296800     298.9583   -1164.4314    6416.5693    11638.923    1883.4119 
  296900    301.74089   -1166.9808    6446.4082    11725.658    1866.7348 
  297000    304.11396   -1171.4685    6409.8448    11735.304    1902.7558 
  297100    292.13555   -1162.8237    6415.0491    11493.253     1886.475 
  297200    305.16741   -1160.1927    6564.0935    11923.334    1947.6477 
  297300    298.71964   -1158.6612    6363.2372    11586.263    1857.1008 
  297400    301.94617   -1163.6194    6434.5377    11721.535    1902.5989 
  297500     298.5186   -1165.1874    6420.7707    11632.975    1877.7715 
  297600    304.17806   -1164.9898    6298.9573    11632.265     1862.066 
  297700     302.2614   -1167.4982    6435.9625    11725.815    1927.6256 
  297800    297.83206   -1173.0466    6550.9949    11740.673    1923.0855 
  297900    305.64628   -1173.5192    6399.0568    11755.201    1858.0838 
  298000    296.72015    -1170.279    6495.4973    11664.189    1942.4011 
  298100    302.58904   -1166.0761    6478.2007    11776.475    1969.2366 
  298200    295.52318   -1165.8701    6341.8236    11489.353     1886.561 
  298300    303.69443   -1159.1036    6413.8353    11742.697    1964.6036 
  298400    305.45602   -1165.5738    6438.7643     11798.79    1991.5872 
  298500    297.00051   -1172.0398    6264.8092     11437.73    1841.9988 
  298600    301.32731   -1165.3616    6379.8656      11651.9    1913.0903 
  298700    298.46343   -1171.3411    6438.6773    11643.549    1888.8278 
  298800     304.3108   -1165.3802    6413.2351    11748.988    1848.4159 
  298900    297.68232   -1166.2248    6310.2388     11503.54    1779.6106 
  299000    303.84625   -1165.8431    6444.0598    11769.426    1866.7708 
  299100    302.99755   -1165.1323    6507.2658    11815.211    1867.9724 
  299200    301.00901   -1166.0852    6509.0936    11773.604    1907.5363 
  299300    300.93174   -1162.8278    6461.9899    11728.107    1940.9552 
  299400     301.0623   -1163.3971    6296.6414    11564.978    1874.7193 
  299500    300.40158   -1156.2545    6522.5744    11783.939    1918.0289 
  299600    299.56817    -1163.287     6398.199    11634.726    1895.5728 
  299700    299.90494   -1163.2092    6402.9937    11646.793     1887.151 
  299800    301.36279   -1159.2762    6487.3027     11766.18    1900.4814 
  299900    298.57615   -1159.7106    6504.0666    11722.977    1860.8681 
  300000    302.89897   -1163.1749    6377.6468    11685.444    1884.6015 
Loop time of 285.601 on 8 procs for 300000 steps with 7168 atoms

Pair  time (%) = 137.752 (48.2323)
Bond  time (%) = 81.0236 (28.3695)
Neigh time (%) = 19.5498 (6.84515)
Comm  time (%) = 32.3409 (11.3238)
Outpt time (%) = 0.46166 (0.161645)
Other time (%) = 14.473 (5.06756)

Nlocal:    896 ave 901 max 889 min
Histogram: 1 1 0 1 0 1 1 0 0 3
Nghost:    2848.38 ave 2858 max 2840 min
Histogram: 1 0 2 0 1 2 0 1 0 1
Neighs:    23593.6 ave 23907 max 23341 min
Histogram: 1 2 0 1 2 0 0 0 0 2

Total # of neighbors = 188749
Ave neighs/atom = 26.3322
Ave special neighs/atom = 157.056
Neighbor list builds = 3046
Dangerous builds = 0
unfix           NVT
# −−−−−−−−−−−−−−− Equilibration in nve −−−−−−−−−−−−−−−−−
fix             NVE all nve
run             300000
Memory usage per processor = 11.5453 Mbytes
Step Temp E_pair E_mol TotEng Press 
  300000    302.89897   -1163.1749    6377.6468    11685.444    1884.6015 
  300100    300.07433    -1161.224    6436.0195    11685.423    1902.6666 
  300200    296.24162   -1155.1532    6511.7896    11685.384    1869.9069 
  300300     301.6389   -1157.2118     6398.598    11685.439    1845.8371 
  300400    299.44855   -1156.9682    6445.1546    11685.445    1872.8259 
  300500     301.9835   -1162.5758    6396.7476    11685.586    1929.5767 
  300600    300.11133   -1165.1865    6439.2117    11685.443    1829.1175 
  300700    299.88677        -1165    6443.8913    11685.512    1912.7938 
  300800    299.30342     -1168.71    6460.1776    11685.626    1966.3787 
  300900    300.55331    -1168.334    6433.0847    11685.611    1820.8435 
  301000    298.34618   -1158.9325    6470.7844     11685.56    1814.8356 
  301100    300.16156   -1169.4635    6442.5417    11685.569    1886.8414 
  301200    299.58951   -1168.1711    6453.5556    11685.655      1858.06 
  301300     303.0655   -1167.0795    6378.1853    11685.635    1795.3138 
  301400    302.07329   -1166.5524    6398.8021    11685.582    1857.5336 
  301500    299.58915   -1165.4336    6450.8048    11685.634    1882.2201 
  301600    303.44316   -1163.4406    6366.4301    11685.587    1842.1013 
  301700    298.55158   -1165.8925    6473.4956    11685.699    1968.2761 
  301800    302.33364   -1164.2198    6390.9729    11685.647     1924.527 
  301900     301.9879   -1165.6036    6399.7124    11685.617    1869.6652 
  302000    296.16378    -1169.012    6527.5691    11685.642    1939.7367 
  302100    303.72308   -1170.2755    6367.3219    11685.624    1902.7407 
  302200    296.01529   -1169.5361    6531.2952    11685.672    1887.6262 
  302300    299.96653   -1169.3678    6446.6352    11685.592    1874.3098 
  302400    300.74766   -1165.3617    6425.8888     11685.54    1894.6789 
  302500    298.36147   -1165.4729    6476.9883     11685.55    1902.9646 
  302600    299.89186   -1160.6042    6439.3132    11685.438    1912.6181 
  302700    301.04164   -1160.5134    6414.6496    11685.429    1911.0346 
  302800    301.35117   -1159.8446    6407.3716    11685.432    1849.7953 
  302900    298.12653   -1162.0686    6478.6152    11685.562    1901.6875 
  303000    303.28539   -1163.8559    6370.1498    11685.521    1893.2204 
  303100    299.57715   -1160.5893    6446.0438    11685.461    1947.0222 
  303200    301.99304   -1164.8051    6398.6834    11685.496    1927.1868 
  303300    297.45344   -1163.0532    6493.8178    11685.401    1912.5566 
  303400    298.79968   -1164.2338    6466.2334    11685.396    1905.2158 
  303500    304.51048   -1161.5147     6341.533    11685.417    1845.5687 
  303600    295.92661   -1155.4651    6518.9246    11685.477    1906.4729 
  303700    299.56373   -1156.7578    6442.6207    11685.582    1942.7783 
  303800    299.42128   -1163.7956    6452.7269    11685.608    1909.4937 
  303900    299.95356   -1164.1309    6441.6221    11685.539    2010.0954 
  304000    302.40416   -1168.1422    6393.2139    11685.472     1907.234 
  304100    301.89016   -1168.4713    6404.5824    11685.531    1888.9527 
  304200    301.97033   -1165.1074    6399.5566    11685.582    1929.1916 
  304300    301.28983    -1167.672    6416.6705    11685.593     1926.854 
  304400     297.4628   -1157.8978    6488.6257    11685.564    1906.9932 
  304500    298.35393   -1157.6958    6469.3634    11685.541    1892.1894 
  304600    303.20892   -1159.5192    6367.5569    11685.631    1932.5896 
  304700    296.16835   -1163.9618    6522.4671    11685.688    1889.9794 
  304800    303.93648   -1167.4985    6359.9285    11685.566    1800.5291 
  304900    298.22405   -1171.0581    6485.5572    11685.598    1918.1642 
  305000    302.75405   -1163.2351    6380.8739    11685.514    1839.5495 
  305100    302.20537   -1167.3109    6396.7103    11685.554    1847.9083 
  305200    304.02753   -1165.5093    6355.9597    11685.532    1854.9144 
  305300    296.12542   -1163.0852    6522.3188    11685.499    1868.3342 
  305400    302.39127   -1165.0524    6390.3359    11685.409    1823.1416 
  305500    301.58995    -1159.059      6401.44    11685.388    1858.1025 
  305600    297.13382   -1162.4247    6500.0411    11685.425    1878.1606 
  305700    302.06171   -1158.8329    6391.2628    11685.515    1813.3257 
  305800    300.83391   -1164.9933    6423.6365    11685.498     1786.979 
  305900    301.24199   -1158.6978    6408.5388    11685.414    1862.1076 
  306000     300.9587   -1162.8991    6418.8163    11685.438    1860.4051 
  306100    299.93666   -1160.1073    6437.8361    11685.415    1890.7606 
  306200    301.47731   -1159.1531    6403.9665    11685.414    1925.9342 
  306300    299.41027   -1162.0594    6451.0524    11685.434    1917.1073 
  306400    302.02096   -1159.6029    6392.8087     11685.42    1869.3995 
  306500     297.4597   -1155.6782    6486.2648    11685.357    1859.2009 
  306600    301.78607   -1160.3169    6398.4778    11685.357     1918.894 
  306700    299.69563   -1162.3463     6445.278    11685.469    1920.5131 
  306800    299.71776   -1160.2871      6442.73    11685.453    1872.1358 
  306900    301.67382   -1161.8737    6402.5297    11685.454    1907.9845 
  307000    298.75405   -1166.2343    6469.3035    11685.491    1950.1705 
  307100    301.40023   -1162.3833    6408.9262    11685.496    1889.2876 
  307200     298.6391   -1166.5363    6472.0511    11685.481    1909.7984 
  307300    303.96267   -1162.0798    6353.8124    11685.429     1896.046 
  307400     298.3714   -1161.3465    6472.5267    11685.427    1943.2496 
  307500    298.95398   -1159.8188    6458.4951    11685.369    1859.8292 
  307600    297.56128   -1157.1504    6485.7235    11685.513    1846.4009 
  307700    299.31097   -1159.7389    6450.9271    11685.508     1946.303 
  307800     302.4902   -1164.9204     6388.165    11685.484    1909.4042 
  307900    296.99856   -1165.8539    6506.5001    11685.565    1952.2928 
  308000    304.01788   -1165.5881    6356.2048    11685.492    1895.2847 
  308100    295.42162   -1166.0884    6540.3768    11685.518    1841.8028 
  308200    300.36937   -1166.3641    6434.9434     11685.51    1822.9763 
  308300    304.41801   -1169.3542    6351.4092    11685.479    1915.0783 
  308400     301.9047   -1163.9247    6399.6242     11685.43    1894.5735 
  308500    296.84745   -1160.2606    6504.1397    11685.569    1892.3888 
  308600    301.20289   -1164.4841    6415.2319    11685.485    1913.9897 
  308700     300.0542   -1162.9411    6438.3097    11685.566    1933.7183 
  308800    301.82289   -1160.9538    6398.4861    11685.515    1838.5313 
  308900    299.13621   -1166.3435    6461.3238    11685.566    1845.9331 
  309000    299.80465   -1164.9062    6445.6324    11685.593    1858.4609 
  309100    298.50703   -1162.2393    6470.6208    11685.526    1853.1895 
  309200    301.50744   -1157.3524     6401.673    11685.564    1864.4064 
  309300      300.904   -1161.4074    6418.6328    11685.578    1946.1526 
  309400    298.78692    -1162.307    6464.7584    11685.575    1879.1031 
  309500    302.55333   -1163.3505    6385.2808    11685.518    1851.3827 
  309600    300.89119    -1158.124    6415.5901    11685.545    1887.5605 
  309700    299.30909   -1164.0418    6455.2882    11685.526    1918.4304 
  309800    300.64986   -1163.6489    6426.2843    11685.558    1855.0685 
  309900    300.18463   -1166.9497    6439.4715    11685.506    1942.7631 
  310000    300.46537   -1163.1529    6429.6474    11685.476    1914.4904 
  310100    301.74557   -1166.5559     6405.681    11685.456    1884.8666 
  310200    296.99618    -1160.124    6500.7398    11685.483    1967.3005 
  310300    300.13162    -1159.813    6433.3962    11685.435    1920.5175 
  310400    304.39662   -1161.2518    6343.6864    11685.401    1885.5188 
  310500     297.1292   -1159.8493    6497.5334    11685.394    1931.4253 
  310600    300.84958   -1164.7841    6422.9828    11685.388    1920.0578 
  310700    298.24965    -1159.916    6473.6825    11685.413    1860.7041 
  310800    301.54623   -1163.6251    6406.8839    11685.331    1815.2472 
  310900    300.22919   -1165.5568    6437.0254    11685.405    1790.5742 
  311000    299.59044   -1167.3928    6452.4559    11685.353    1825.2941 
  311100    299.51275   -1166.4385    6453.0849    11685.277    1944.1585 
  311200    300.93082   -1156.3908    6412.6707    11685.205     1877.632 
  311300    299.50746   -1157.4641    6444.2441    11685.297    1855.2972 
  311400    300.34328   -1160.8911    6429.8338    11685.316    1916.2498 
  311500    300.10523   -1166.1093    6440.1118     11685.29    1926.9158 
  311600       303.54   -1159.0101    6359.6514    11685.308    1856.9632 
  311700    301.89479   -1160.5318     6396.375    11685.362    1826.3409 
  311800    299.24944   -1156.1514    6448.4707    11685.324    1850.9653 
  311900    301.21873   -1160.7635    6411.0036    11685.316    1832.0391 
  312000    299.15669   -1160.8857    6455.2596    11685.398    1927.5341 
  312100    300.80516   -1160.6719    6419.8452    11685.414    1898.0069 
  312200    300.55748   -1161.5655    6425.9638    11685.348    1892.4484 
  312300    299.46541   -1163.1817    6451.0623      11685.5    1884.6492 
  312400     298.6909   -1158.0569    6462.4802    11685.496    1932.3069 
  312500    302.96788   -1158.8627    6371.8404    11685.422    1921.9362 
  312600     300.7122   -1159.8616    6421.1567     11685.55    1991.2978 
  312700    300.31556   -1160.4559     6430.123    11685.448    1932.6829 
  312800    301.10032   -1166.2422    6419.2071    11685.511    1864.2618 
  312900     299.8146   -1162.4527    6442.8543    11685.481    1887.2025 
  313000    302.28246   -1165.6799    6393.3544    11685.475    1840.3113 
  313100    301.60667   -1159.5248    6401.6771    11685.516    1843.1942 
  313200    299.27192   -1159.6399    6451.7159    11685.561    1838.3469 
  313300      301.947   -1162.8901    6397.7392    11685.483    1832.2606 
  313400    304.57076   -1160.4335    6339.2392    11685.493    1837.8768 
  313500     298.3007   -1166.8755    6479.7437    11685.605    1893.3611 
  313600    301.87853   -1163.9564    6400.3712    11685.586    1840.0015 
  313700    299.67079   -1162.1659       6445.7    11685.541    1881.0229 
  313800    301.20545   -1168.4475    6419.2228    11685.568    1854.7423 
  313900    301.38718   -1164.0537    6410.9572    11685.578     1774.292 
  314000    300.25568   -1165.3584    6436.3956    11685.539    1800.6809 
  314100    301.37501   -1165.6102    6412.6706    11685.475    1872.7413 
  314200    300.03057   -1157.6921      6433.47    11685.471    1904.8012 
  314300    304.47976   -1154.0114    6334.7732    11685.505    1857.9498 
  314400     298.6478   -1160.5031    6465.8956    11685.545    1910.9799 
  314500    301.09548   -1158.9718    6411.9859    11685.457    1868.4248 
  314600    300.69451   -1158.1473    6419.6744    11685.404    1802.9555 
  314700    301.78075   -1165.0929    6403.4959    11685.486    1832.5438 
  314800    298.92328   -1165.9764    6465.3127    11685.373    1823.8444 
  314900    298.73836   -1165.8254    6469.1698    11685.431    1816.0418 
  315000    300.19998    -1156.019    6428.1328    11685.426    1863.1595 
  315100    300.40124   -1158.9761    6426.7053    11685.341    1908.9159 
  315200    303.78582   -1155.1128      6350.55    11685.355    1881.4929 
  315300    298.75776   -1155.7381    6458.5333    11685.296    1911.1908 
  315400    300.69391   -1152.3351    6413.7911     11685.32    1901.2595 
  315500    296.43558   -1151.4104    6503.8226    11685.304    1946.2008 
  315600    304.16427   -1158.7899    6346.0513    11685.264    1906.2584 
  315700    298.27754   -1156.5698     6469.679    11685.351    1929.8074 
  315800    302.03909   -1157.3857    6390.1707    11685.387    1850.8961 
  315900    302.29664   -1153.6748    6380.8801    11685.309    1809.9625 
  316000    298.98657   -1156.8649    6454.8211    11685.346    1821.1962 
  316100    297.10881   -1160.2711    6498.3422    11685.345     1841.197 
  316200    303.13373   -1159.9427    6369.3023    11685.347    1828.1296 
  316300    299.73482   -1158.6035    6440.6741    11685.445    1869.4687 
  316400    301.19227   -1159.2623    6410.1218     11685.37    1872.2657 
  316500    300.72174   -1156.1074    6417.0907    11685.442    1903.6417 
  316600    301.23935    -1159.117    6408.9093    11685.309    1902.0195 
  316700    300.55843   -1166.5148    6431.0288    11685.484    1911.4715 
  316800    301.06336   -1170.6096    6424.3276    11685.475    1851.0864 
  316900    299.22923   -1164.6776    6457.6561    11685.552    1801.9303 
  317000    300.67358   -1167.6655    6429.8133    11685.577    1875.5695 
  317100    300.53744   -1163.6806    6428.8191     11685.66    1852.9085 
  317200    298.61197   -1157.0968    6463.3086    11685.598    1793.6134 
  317300    303.16364   -1166.6272    6375.6987    11685.698    1838.8837 
  317400    304.13638   -1162.1306    6350.3551    11685.632     1888.132 
  317500    297.68621   -1165.5198    6491.5315    11685.621    1888.1433 
  317600    300.07971    -1169.628    6444.4309    11685.546    1918.2051 
  317700    298.34535   -1167.7432    6479.6713    11685.619    1903.5961 
  317800    298.60548   -1163.7022    6470.0272    11685.573    1799.9602 
  317900    301.20462   -1163.7189    6414.5837    11685.639    1931.4775 
  318000    299.20743   -1164.6168    6458.1006    11685.591     1897.677 
  318100    298.41084   -1164.8307    6475.3299    11685.589    1874.9974 
  318200    302.65579   -1166.7828    6386.5087    11685.502    1857.6218 
  318300    299.22387   -1163.3421    6456.3465    11685.463    1941.5152 
  318400    301.69837   -1162.3024    6402.4397     11685.46    1898.5429 
  318500    297.11822   -1159.9904    6497.9474    11685.432    1890.1761 
  318600    304.71141   -1157.9392    6333.5184    11685.271    1867.9961 
  318700    299.74299   -1151.2174     6433.098     11685.43    1918.1351 
  318800    300.11217   -1158.9919    6432.9445    11685.389     1878.403 
  318900    301.09585   -1159.7977    6412.7435    11685.397    1831.2993 
  319000    302.39784   -1162.9857     6388.106    11685.386    1843.7672 
  319100    297.53449   -1159.4514    6488.4456    11685.362    1798.3701 
  319200    300.40709    -1157.586    6425.2016    11685.352    1841.6408 
  319300    300.02227   -1159.9172    6435.6477    11685.246     1817.948 
  319400    299.31137   -1157.9365    6448.9234    11685.315    1793.8624 
  319500    301.53223    -1157.573    6401.1481    11685.349    1819.1841 
  319600    300.69207   -1157.3698    6418.8098    11685.265    1872.7346 
  319700    298.24228   -1156.4344    6470.2413    11685.296    1836.8252 
  319800    301.04319    -1160.862      6414.91    11685.374    1829.0231 
  319900    298.59232   -1159.6664    6466.0489    11685.349    1842.9551 
  320000    301.35148   -1162.8475    6410.3399    11685.404    1837.6849 
  320100    299.84883   -1160.6941     6440.415    11685.531    1837.9386 
  320200    303.61338   -1164.2382    6363.5762    11685.572    1782.5846 
  320300     298.4254   -1162.0326    6472.1206    11685.489    1826.3788 
  320400     304.1821   -1163.4207    6350.5329    11685.496    1900.6838 
  320500    300.14245    -1163.183    6436.6331    11685.533    1924.5596 
  320600    299.94216   -1159.3808    6437.1414    11685.565    1852.3604 
  320700    300.98487   -1163.9332    6419.4424    11685.589    1824.4369 
  320800    302.45851   -1167.6949    6391.6774    11685.545    1868.6533 
  320900    300.80862   -1164.3561    6423.5833    11685.542    1866.0359 
  321000    296.98163   -1167.1215    6508.0418    11685.477    1841.6314 
  321100    302.21725   -1166.0616    6395.1857    11685.532    1901.6534 
  321200    303.31049   -1167.0083    6372.8589    11685.614    1863.4107 
  321300    299.29152   -1163.8863     6455.507    11685.525    1883.5287 
  321400    301.62938   -1166.6821    6408.3305    11685.497     1859.004 
  321500    297.04653   -1161.9932     6501.571    11685.521    1946.2971 
  321600    302.11424   -1165.1194    6396.2985    11685.386    1916.2503 
  321700     300.4029   -1162.0249    6429.7944    11685.416    1929.8342 
  321800    302.71785   -1155.6224    6373.9423    11685.422    1830.2157 
  321900    296.26172   -1152.8522    6509.1254     11685.45    1932.4947 
  322000    301.54215   -1158.3329    6401.7003    11685.353    1898.9455 
  322100    300.76612   -1157.4169    6417.3587    11685.348    1847.3712 
  322200     304.7431   -1162.8849    6337.9346    11685.419    1759.7097 
  322300    297.69699   -1159.6739    6485.2387    11685.404    1852.2197 
  322400    300.56163   -1161.1645    6425.4198    11685.293    1854.1678 
  322500    299.66014   -1155.4816    6439.0031    11685.301    1813.9402 
  322600    300.85196   -1156.1572    6414.2144    11685.298    1856.1677 
  322700    300.41713     -1149.69    6417.0548    11685.316    1970.7257 
  322800    298.55006   -1151.5548    6458.7439    11685.253    1871.8622 
  322900    300.53115   -1150.1334    6415.1052    11685.359    1868.4405 
  323000    302.51584   -1155.0446    6377.5254    11685.267    1867.7792 
  323100    298.75775   -1156.3063    6459.0889    11685.283    1840.3337 
  323200    301.02815   -1155.1301    6409.4827    11685.357    1866.3176 
  323300    298.46822    -1161.806    6470.8651    11685.375    1882.4553 
  323400     299.0145   -1161.2231    6458.6289    11685.392      1849.25 
  323500    298.64632   -1161.8274    6467.1413    11685.434    1844.5836 
  323600    300.06468   -1161.9331    6436.9461    11685.434    1849.7966 
  323700    301.43654   -1162.2237    6407.9887    11685.494    1903.3039 
  323800    299.92043     -1162.45    6440.5867    11685.476    1931.1445 
  323900    300.37943   -1156.6736    6425.0169    11685.489    1872.3645 
  324000    297.31589    -1161.576    6495.3952    11685.517    1855.3471 
  324100    301.88874   -1167.4295    6403.4939    11685.454     1881.045 
  324200    301.22534   -1167.8701     6418.182    11685.529     1932.558 
  324300     298.7387   -1160.8797    6464.3492    11685.563    1884.0804 
  324400    298.62727   -1167.7564     6473.615    11685.572     1844.758 
  324500    305.60333   -1170.7377    6327.7138    11685.722    1909.5151 
  324600    299.42975   -1168.4621    6457.1973    11685.592    1959.2229 
  324700       299.97   -1161.8399    6438.9506     11685.51     1934.916 
  324800    297.55264   -1163.7071    6492.5698    11685.618    1940.1099 
  324900    302.01979   -1166.9624    6400.4179    11685.645    1898.0363 
  325000    303.94345    -1171.441     6363.741    11685.585    1880.1146 
  325100     301.0924   -1167.1661    6420.3891      11685.6    1921.7823 
  325200    301.11786   -1154.3017    6406.9727    11685.592    1873.0094 
  325300    303.88578   -1165.0384     6358.569    11685.584    1893.8995 
  325400    300.73071   -1157.9473     6418.808    11685.511    1886.2196 
  325500    302.05105   -1163.5388    6396.2133    11685.532    1876.5226 
  325600    302.92614   -1162.5252    6376.4877    11685.515    1890.1678 
  325700    298.59449   -1163.1734     6469.642    11685.482    1877.7187 
  325800    299.12638   -1162.7067     6457.693    11685.362    1876.7115 
  325900     304.7426   -1162.4785    6337.4595    11685.339    1865.6288 
  326000     300.1525   -1163.8646    6436.9777    11685.411    1903.8933 
  326100    301.19281    -1156.782    6407.6277    11685.368    1928.5782 
  326200    298.51679   -1159.9027    6467.9117    11685.362    1915.2496 
  326300    303.60847   -1159.3861    6358.5695    11685.313    1902.3346 
  326400    297.97521   -1162.0118    6481.5784     11685.35    1948.3837 
  326500    298.99139   -1160.7889    6458.6333    11685.337    1990.5465 
  326600    300.60162   -1161.3611    6424.8404    11685.372    1905.0724 
  326700    301.25244   -1161.0221    6410.6185    11685.393    1904.4147 
  326800    299.61999   -1164.1372    6448.5866    11685.371    1920.3295 
  326900    300.78089   -1165.8808    6425.6186     11685.46    1927.4701 
  327000    303.30026    -1167.464     6373.322    11685.403    1883.6183 
  327100    298.89932   -1165.6312    6465.5597    11685.454    1876.4693 
  327200      302.659   -1164.8237    6384.4066    11685.428     1909.715 
  327300    296.39061   -1164.7035    6518.3848    11685.612    1964.7279 
  327400    302.97753   -1169.5744    6382.4375    11685.513    1926.8345 
  327500    301.65755   -1162.3488    6403.4144    11685.516    1959.9948 
  327600    297.07239   -1159.5152    6498.5983    11685.579    1932.5304 
  327700    301.83458   -1168.0157    6405.3957    11685.613    1972.1038 
  327800    303.06577   -1173.2906     6384.315    11685.559    1940.3584 
  327900    298.16823   -1167.2462    6482.9423    11685.603    1890.0905 
  328000    299.44361   -1166.0042    6454.4016    11685.551    1954.1086 
  328100    297.98533    -1169.536    6489.1339    11685.597    1970.2921 
  328200    300.19626    -1163.016     6435.334    11685.551    1967.2095 
  328300    301.71902   -1158.0966    6397.8711    11685.538    1917.8555 
  328400    303.86772   -1160.4852    6354.3001    11685.482    2006.7408 
  328500    297.85431      -1160.6    6482.8584    11685.459    1940.8415 
  328600    300.14608   -1162.4276    6435.6732    11685.406    1868.5349 
  328700    301.72166   -1165.5861    6405.2562    11685.491    1936.9126 
  328800    300.69575    -1160.836    6422.3824     11685.45    1921.8343 
  328900    299.49012   -1164.5191     6451.829    11685.457    1864.0345 
  329000    299.90204   -1161.3103    6439.8265    11685.463    1951.7382 
  329100    302.36619   -1155.9345    6381.7368    11685.392     1908.144 
  329200     299.9651   -1156.1419    6433.1748    11685.327     1844.954 
  329300    298.94489    -1159.123     6458.001    11685.377    1901.4909 
  329400    300.81366   -1158.6604    6417.5803    11685.342     1918.843 
  329500    300.50619   -1159.4551    6424.9642    11685.363    1873.1506 
  329600    298.11798   -1163.3325     6480.048    11685.549    1908.6578 
  329700     299.8007   -1166.7557    6447.4587    11685.485    1833.8088 
  329800    302.95104   -1167.4549     6380.895    11685.524    1811.2133 
  329900     299.1595   -1166.3699    6460.8203    11685.534    1869.6642 
  330000    299.26214   -1167.5143    6459.7598    11685.522    1870.5936 
  330100    301.04518   -1165.2269    6419.4233    11685.565    1777.5521 
  330200    300.38176   -1165.1356    6433.5247    11685.585    1884.1561 
  330300       304.34   -1166.6346    6350.4711    11685.594    1911.9213 
  330400    302.06656   -1161.7622    6394.2081    11685.635    1854.6157 
  330500    296.90896   -1165.1553    6507.7583    11685.607    1900.8849 
  330600    304.21986   -1175.8297    6362.3793     11685.74    1871.2185 
  330700    301.42125    -1173.043    6419.4405      11685.8     1863.514 
  330800    299.58032   -1170.3946      6456.06    11685.739    1876.0295 
  330900    300.12877   -1169.5073    6443.4247    11685.708    1892.7517 
  331000    301.34343   -1175.0287    6423.0407    11685.752    1893.0006 
  331100    302.49374   -1167.3869    6390.8717    11685.799    1916.0924 
  331200    300.62672   -1164.2889    6427.5717    11685.711    1974.9322 
  331300    302.33823   -1165.2765    6391.9269    11685.643    1910.4126 
  331400    297.51749   -1163.1675    6492.8812    11685.718    1855.7635 
  331500    303.50597   -1173.4226    6375.1804    11685.697    1877.0217 
  331600    297.97286   -1167.4287    6487.3454     11685.65    1958.7523 
  331700    301.42824   -1164.3985    6410.5571    11685.711    1885.0936 
  331800    298.99016   -1166.1171    6464.2943    11685.643    1960.0046 
  331900    301.51537    -1161.123    6405.2628    11685.553    1940.8738 
  332000    299.70095   -1160.7012    6443.4461    11685.396    1970.0295 
  332100    297.26038   -1157.8771    6492.7901    11685.425    1961.5024 
  332200    300.05806   -1157.4226    6432.6101    11685.468     1892.851 
  332300    302.74462   -1162.3763    6380.0073    11685.305     1861.119 
  332400    298.67637   -1158.3045    6462.9406    11685.399    1947.9407 
  332500    301.14513   -1160.1235    6412.0954    11685.475    1909.9255 
  332600    299.47103   -1159.9137    6447.6108    11685.436     1919.596 
  332700    302.55472    -1157.452    6379.1757    11685.341    1874.3673 
  332800    299.52814    -1161.172    6447.5339    11685.321    1889.2272 
  332900    297.09688   -1159.5704      6498.06    11685.509    1893.1449 
  333000    304.18642   -1160.3001    6347.2426    11685.419    1861.4061 
  333100    299.60179   -1158.7602    6443.6249    11685.397    1936.0362 
  333200    302.11631   -1161.4544    6392.6249    11685.422    1907.4363 
  333300    295.47622   -1160.1538     6533.277    11685.519    1982.3323 
  333400     304.4792   -1163.5572     6344.319    11685.493    1908.7361 
  333500    303.38224   -1163.7138    6367.8723    11685.454    1865.0693 
  333600    295.71293   -1164.6602    6532.7872     11685.58    1991.9192 
  333700    301.93519   -1163.4387    6398.6413    11685.585    1928.2774 
  333800    302.83592   -1163.3807    6379.2531    11685.497    1893.0184 
  333900    298.38299   -1162.3884    6473.4093    11685.516    1957.1246 
  334000    302.12467   -1165.2286    6396.3624    11685.564    1931.4475 
  334100    298.42995   -1163.5919    6473.6617    11685.568    1923.3324 
  334200    299.67394   -1166.8609    6450.3249    11685.538    1976.7712 
  334300      300.055   -1166.0279    6441.3521    11685.539    1934.0026 
  334400    297.99944   -1169.5708    6488.8193    11685.549    1932.3007 
  334500     300.4072   -1166.3626     6434.218    11685.594    1966.5053 
  334600    302.95579   -1160.8468    6374.0733    11685.412    1963.6065 
  334700    298.29056    -1165.796    6478.7803    11685.504    1888.6802 
  334800    301.31642   -1165.0739    6413.4097    11685.499    1846.9635 
  334900    299.27749   -1169.9598    6461.7616    11685.406    1873.8162 
  335000    297.46218     -1160.74    6491.3837    11685.467    1828.1677 
  335100    303.25429   -1165.2646     6372.128    11685.426    1908.0847 
  335200    300.72926    -1162.017    6422.8231    11685.425    1951.7279 
  335300    297.79119   -1160.1712    6483.8109    11685.492    1905.5565 
  335400     301.6473   -1165.1675    6406.3722    11685.436    1912.8397 
  335500    298.71871   -1161.5029    6465.3312    11685.495    1940.8632 
  335600    299.16537   -1158.1811    6452.5555    11685.584    1867.2482 
  335700    301.54142   -1161.8329    6405.4099    11685.547    1862.3969 
  335800     301.2018   -1163.1612    6413.9422    11685.495    1959.5781 
  335900    296.76089   -1158.5428    6504.2617     11685.56    1969.2281 
  336000    302.39759   -1158.3139    6383.4364    11685.383    1844.1379 
  336100    299.44077   -1165.8624    6454.2474    11685.478    1912.3606 
  336200    304.16386   -1157.0741    6344.5389    11685.459    1903.8246 
  336300    300.04449   -1165.8682    6441.3381     11685.46    1871.1075 
  336400    301.10058   -1162.4031    6415.3874    11685.536    1869.5972 
  336500    301.24457   -1166.1303    6416.0396    11685.537    1922.1323 
  336600    300.14544   -1168.7501    6442.1151    11685.512     1893.713 
  336700    299.60552   -1171.8157    6456.8921    11685.689     1918.007 
  336800    300.07619   -1163.3953    6438.3211    11685.593    1907.6756 
  336900    300.36689   -1170.0203    6438.7096    11685.567    1870.8399 
  337000    300.78089   -1162.9952    6422.8624    11685.589    1901.0589 
  337100    299.78418   -1165.0451    6446.1871    11685.571    1968.9283 
  337200    298.31784   -1160.8585    6473.3106    11685.555    1933.5888 
  337300    299.10906    -1158.294    6453.7178     11685.43    1893.6191 
  337400    300.90839   -1161.9039    6418.9771    11685.519    1973.0167 
  337500    302.86417   -1160.5796    6375.9906    11685.639    1945.2095 
  337600    302.65049   -1165.1957    6385.1379    11685.606     1868.455 
  337700    301.28894   -1167.9713    6417.0101    11685.615    1940.0653 
  337800    301.83922   -1164.5334    6401.8095    11685.608     1924.485 
  337900    297.19814   -1162.6715    6498.9478    11685.459    1844.6928 
  338000    298.99499    -1164.849    6462.7085    11685.429     1897.667 
  338100    302.24543   -1160.8381    6389.2835    11685.455    1853.2567 
  338200    296.99954   -1156.4081    6496.9516    11685.483    1838.5274 
  338300    302.48722   -1161.8939    6385.1334    11685.415    1879.1239 
  338400    300.87136   -1159.8807    6417.6005    11685.375    1949.8763 
  338500    298.06032   -1153.1601    6470.9595    11685.401    1943.2935 
  338600    303.12601   -1163.0962    6372.7246     11685.45    1940.8711 
  338700    298.44815   -1161.2758    6470.8373    11685.448     1983.611 
  338800    298.13007   -1160.1898    6476.4892    11685.391    1909.5115 
  338900    297.97969   -1159.1588    6478.7009    11685.421    1911.7889 
  339000    300.01761   -1162.7435    6438.7777     11685.45    1951.5628 
  339100    300.00829   -1156.1459    6432.3469    11685.418     1877.155 
  339200     300.7702   -1154.7824    6414.6586     11685.37    1910.1814 
  339300     302.2885   -1158.6018    6386.1008    11685.429    2012.8217 
  339400    300.45145   -1155.9975    6422.7235     11685.41    1960.4269 
  339500    298.61088   -1151.7005    6457.7696    11685.432    1914.0384 
  339600    301.16364   -1161.1841    6412.7825    11685.497    1932.0208 
  339700    298.78824   -1163.2943    6465.6463    11685.504    1962.0199 
  339800    301.45816   -1169.3344    6414.5949    11685.451    1910.0923 
  339900    296.50241   -1166.8825    6518.1424    11685.579    1989.0603 
  340000    302.98562   -1169.6357    6382.3373    11685.524    1901.8784 
  340100    295.36105   -1166.5916    6542.2542    11685.598    1870.5047 
  340200     303.9913   -1166.2389    6357.5762    11685.645      1910.79 
  340300    297.82675   -1163.6689    6486.6421    11685.585    1936.0618 
  340400    300.02849   -1165.4656    6441.4041    11685.587    1856.3633 
  340500    301.73938   -1165.8957     6405.216    11685.519    1910.7067 
  340600    298.45017   -1168.0448    6477.6994    11685.584    1925.5102 
  340700    299.43024   -1169.2848    6457.9693    11685.552    1884.0429 
  340800    299.13947   -1163.4816    6458.4513    11685.625    1831.3697 
  340900    301.11608   -1169.2803    6421.9566    11685.559    1842.5734 
  341000    300.09112   -1172.2961    6446.8075    11685.498    1846.0994 
  341100    302.98569   -1166.4494    6379.1658    11685.541    1853.1479 
  341200    297.85583   -1162.4175    6484.7072    11685.523     1909.002 
  341300    297.85184   -1156.8342    6479.1482    11685.462    1885.5016 
  341400    298.72023   -1164.6061    6468.3695    11685.463    1886.6712 
  341500    300.34121   -1155.1022    6424.1536    11685.381    1991.2254 
  341600    297.27469   -1157.6326    6492.2039    11685.389    1942.8813 
  341700    301.39511   -1152.0055    6398.4981    11685.337    1854.4547 
  341800    298.29313   -1166.1342    6479.0352    11685.476    1918.9858 
  341900    300.30797   -1165.5223     6435.315    11685.412    1923.2857 
  342000    303.62752   -1159.1354    6357.8816    11685.282    1786.2869 
  342100    300.17189   -1159.1029    6431.7071    11685.316    1816.9417 
  342200    296.73321   -1165.8219    6511.9259    11685.354    1906.7469 
  342300    301.49168    -1155.692    6400.0538    11685.269     1814.017 
  342400    298.44313   -1149.4034    6458.7683    11685.144     1913.261 
  342500      301.211   -1149.2495    6399.5801    11685.242    1949.7277 
  342600     302.1401   -1152.5976    6383.1286    11685.291    1891.7079 
  342700    298.62996   -1150.7448    6456.2929    11685.319    1848.0919 
  342800    300.50926   -1152.3287    6417.7226    11685.313    1843.9863 
  342900    299.73935   -1162.4996    6444.5063    11685.478    1913.1624 
  343000    299.81133   -1161.1837    6441.5914    11685.417    1870.4193 
  343100    300.03898   -1158.5097      6433.98    11685.343    1838.0473 
  343200    299.55125   -1163.5691     6449.557    11685.441    1900.0483 
  343300     301.7613   -1167.7884    6406.5923    11685.471    1870.7022 
  343400    301.02702   -1158.6182    6413.0468    11685.409    1874.4517 
  343500    298.92452   -1155.8403    6455.2513    11685.475    1983.0489 
  343600    299.82903   -1162.6504    6442.7588    11685.496    1894.8906 
  343700    299.99259   -1163.2202    6439.9345    11685.596    1771.1561 
  343800     300.6508   -1162.1003    6424.6714    11685.514    1900.8608 
  343900    297.99564   -1164.5924     6483.981    11685.608    1901.3369 
  344000    301.68711   -1170.6976    6411.3051     11685.69    1855.6332 
  344100    300.94783   -1173.2429    6429.6082    11685.654    1911.9364 
  344200    301.24577   -1166.6762    6416.6248    11685.602     1882.145 
  344300    298.93941   -1168.0432    6467.2637    11685.602    1818.8034 
  344400    298.65072   -1170.9675     6476.321    11685.568    1887.8972 
  344500    301.66353    -1161.371    6402.3867    11685.594    1944.6227 
  344600     301.6201   -1156.1225    6397.9932    11685.521    1977.3839 
  344700    297.46829   -1156.7952    6487.3884    11685.547     1943.248 
  344800    297.66009    -1158.777    6485.3481    11685.622    1976.7072 
  344900     301.3868   -1163.8666    6410.7339    11685.534    1900.3727 
  345000    299.37513   -1160.9754    6450.8429    11685.558    1926.6058 
  345100    299.66992   -1167.5474    6451.1742    11685.615    1906.2922 
  345200    297.85585   -1172.8173     6495.149    11685.565    1868.0824 
  345300    298.62076   -1163.7245    6469.5677    11685.417     1874.625 
  345400    304.71752   -1155.3415     6330.905    11685.386     1907.125 
  345500    300.50553   -1150.1227    6415.7079    11685.425    1959.8644 
  345600    302.46379   -1155.6979    6379.3547    11685.332    1883.4838 
  345700    298.39832   -1158.4946    6468.9708    11685.298    1908.6072 
  345800    300.38861   -1156.3164    6424.3259    11685.351    1951.1986 
  345900    300.61727   -1155.9848    6419.1458    11685.388    1920.3334 
  346000    298.43213   -1165.5686     6475.534     11685.51    1901.5045 
  346100     299.1462   -1166.3832    6461.1324    11685.549    1900.6176 
  346200    301.81778   -1166.3241     6403.869    11685.419    1850.0015 
  346300    296.96801   -1155.7428    6496.9416    11685.465    1843.1089 
  346400    304.80145   -1164.0855    6337.9473    11685.477    1886.2979 
  346500    296.24058   -1154.4806    6511.2452     11685.49    1959.0861 
  346600    300.54751   -1153.3994    6418.1534     11685.49     1924.899 
  346700    302.64023   -1156.7848    6376.7831    11685.442    1923.4167 
  346800    300.24206   -1161.9743    6433.2846    11685.521    1908.3585 
  346900    297.94363   -1158.4753    6478.9237    11685.557    1828.6439 
  347000    301.94296   -1156.5398    6391.5175    11685.526    1863.4949 
  347100    300.42114   -1171.3588    6438.8772    11685.555    1894.4996 
  347200     302.1309    -1171.005    6402.0083    11685.566    1795.6472 
  347300    299.55067   -1170.0829     6456.276    11685.634    1857.8073 
  347400    300.21109   -1167.3766    6439.4908    11685.663    1951.0849 
  347500    300.55535    -1161.199    6425.8605    11685.565    1940.2341 
  347600    301.73415    -1159.091    6398.4857    11685.482    1893.8291 
  347700    297.94332    -1163.485    6483.9182    11685.535    1977.1324 
  347800    303.44048    -1159.445    6362.4154    11685.511    1956.3753 
  347900    302.11139   -1161.0506    6392.3814    11685.477    1919.2359 
  348000    301.10949   -1165.3401    6418.2224    11685.625    1960.1329 
  348100    300.77286   -1164.0914    6423.9999    11685.459    1926.7092 
  348200     300.0678   -1163.6489    6438.5879    11685.427    1851.7919 
  348300    298.34549   -1166.5836     6478.414    11685.524    1932.1126 
  348400    300.67041   -1164.5262    6426.6611    11685.497    1919.6306 
  348500    300.36285   -1154.1146    6422.7535     11685.43    1896.7298 
  348600    301.04468   -1160.8515    6414.7493    11685.256    1890.7964 
  348700    299.18656   -1158.0048    6451.6777    11685.335      1933.83 
  348800    299.98037   -1149.0546    6425.8114    11685.377     1885.657 
  348900    298.85583   -1156.5862    6457.2609    11685.271    1871.6247 
  349000    302.84736   -1159.4455    6374.8796    11685.303    1920.8493 
  349100    300.45355   -1161.5613    6428.1776    11685.345    1900.8993 
  349200    300.32048    -1164.967    6434.4866    11685.406    1936.4454 
  349300    298.87536   -1159.1888    6459.5384    11685.363    1904.8434 
  349400    298.71769    -1157.535    6461.2769    11685.387    1853.2519 
  349500    299.84699   -1160.2865    6439.9341    11685.418    1848.2807 
  349600    297.92024   -1156.4926    6477.2769    11685.393    1892.3098 
  349700    300.49162   -1154.5106    6420.3551    11685.387    1899.4861 
  349800    302.03575   -1160.6769    6393.5189    11685.372    1868.3009 
  349900    302.32917   -1158.4649    6385.1006    11685.435    1883.9406 
  350000     300.2632   -1161.0188    6431.8261     11685.47    1877.6791 
  350100    300.17012   -1165.3278    6438.1864    11685.533    1861.8096 
  350200    295.88562   -1161.4868    6525.9399    11685.595    1838.0913 
  350300    302.55933   -1168.6824    6390.5626    11685.596    1867.1456 
  350400    304.75191   -1167.4752    6342.4648    11685.547    1898.0081 
  350500    296.77455   -1163.0333    6508.4407     11685.54    1967.4406 
  350600    301.71089   -1166.3637    6406.3844    11685.611    1975.8669 
  350700    297.96828   -1159.2967    6479.3097    11685.648    1994.5037 
  350800     300.2539   -1161.5032    6432.6415    11685.602    1911.9295 
  350900    302.87893   -1165.5605    6380.5929    11685.576    1926.7362 
  351000    302.67701   -1169.0714    6388.4362    11685.595    1910.2565 
  351100    300.91969   -1166.3591    6423.3027    11685.631    1845.7211 
  351200    299.03408   -1159.0708    6456.2824    11685.616    1903.7474 
  351300    297.60314   -1161.0517    6488.8949    11685.678    1949.7425 
  351400    302.28495   -1169.1325    6396.9078    11685.629     1932.092 
  351500    302.08006   -1160.2963    6392.3895     11685.57    1873.6803 
  351600    300.56115   -1158.3091    6422.8545    11685.573    1897.7677 
  351700    300.37056    -1157.554    6426.0709    11685.473    1857.6858 
  351800     297.5199   -1159.9164    6489.3012    11685.441     1911.047 
  351900    302.52419    -1158.154    6380.6585     11685.47     1940.336 
  352000    296.16201   -1155.5994    6513.9732    11685.421    1913.4921 
  352100    302.17901   -1159.6049    6389.4105    11685.396    1853.1089 
  352200    302.00981   -1160.0526    6393.5626    11685.486    1877.4319 
  352300    302.46244   -1165.0517    6388.8819    11685.476     1867.552 
  352400    299.35415   -1157.9413    6448.0796     11685.38    1804.2321 
  352500    301.38386   -1158.9231    6405.6642    11685.345    1799.8992 
  352600    302.22012   -1152.5811     6381.533    11685.421    1877.2464 
  352700    301.28274   -1152.4589    6401.3951     11685.38    1851.4316 
  352800    299.33776   -1155.0561    6445.5341     11685.37    1897.2076 
  352900    300.05495   -1151.5347    6426.7035    11685.382    1900.4639 
  353000    301.67091   -1156.1783    6396.8652    11685.423    1881.0669 
  353100    295.27009   -1160.9085    6538.3458     11685.43    1889.5782 
  353200    300.00993   -1162.1262      6438.31    11685.436     1895.885 
  353300    302.49196   -1160.2723     6383.493    11685.497    1828.2738 
  353400    300.53883   -1159.1414     6424.063    11685.473    1875.4223 
  353500    302.82184    -1159.587    6375.8095    11685.546     1919.869 
  353600    300.00577    -1160.582    6436.9826    11685.563    1912.4341 
  353700    301.72896   -1163.5356    6403.1756    11685.616    1875.6072 
  353800    298.07485   -1167.8629    6485.5653    11685.614    1909.6516 
  353900    298.39651   -1164.5496    6475.4021    11685.636    1981.6432 
  354000    302.54055   -1168.3869    6390.7437    11685.671    1917.6435 
  354100    298.28967   -1169.3017    6482.4875    11685.687    1919.0376 
  354200    302.05055   -1171.2905    6404.1476    11685.704    1898.4672 
  354300    302.02479     -1169.73    6403.0669    11685.633    1892.4551 
  354400    300.98499   -1169.6282    6425.2047    11685.659      1943.12 
  354500     304.0489   -1166.0195    6356.0889    11685.608    1901.4255 
  354600    296.65566   -1163.2134    6511.2737    11685.653    1948.3994 
  354700    300.47784   -1164.0946    6430.5139    11685.667    1947.8026 
  354800     301.8788   -1168.5138    6405.0826    11685.746    1847.1949 
  354900    300.39315   -1172.6715    6440.9537    11685.721    1824.1024 
  355000     300.4905   -1174.3074     6440.367    11685.578    1876.1064 
  355100    299.20737   -1171.3047    6464.8355    11685.637    1945.2009 
  355200     302.3928   -1171.8993    6397.2596    11685.518    1926.1199 
  355300    299.61852   -1160.8075    6445.4317    11685.514    1932.5639 
  355400    300.50603     -1157.91    6423.5545    11685.495    1926.5338 
  355500    302.15843   -1159.5643    6389.8365    11685.423     1947.378 
  355600    305.75394   -1154.9963    6308.4133    11685.381    1920.7721 
  355700    296.53025   -1160.1964    6510.7257    11685.443    1910.6242 
  355800    300.25609   -1159.9902    6430.9123    11685.433    1829.6657 
  355900    295.60681   -1161.8187    6532.1263    11685.493    1857.0445 
  356000    299.95267   -1166.6541    6444.1444    11685.519    1882.1708 
  356100    300.24933   -1165.5677    6436.5685    11685.367    1848.8058 
  356200    301.98296   -1157.7561     6391.711    11685.357    1866.8264 
  356300    298.05946   -1156.1171    6473.9389    11685.405    1897.7282 
  356400    303.15504   -1152.5341    6361.4406    11685.349    1890.9239 
  356500    298.93826   -1153.0043     6451.935    11685.288    1940.6156 
  356600    304.10627   -1152.8189    6341.4193    11685.364    1930.6455 
  356700    299.98205   -1155.1861    6431.9326    11685.403    1884.1532 
  356800    298.65002   -1163.7413    6468.9335    11685.392    1880.0141 
  356900    301.45256   -1167.3843    6412.7358    11685.423    1861.2551 
  357000    302.10365   -1171.3861    6402.9467    11685.541    1880.4834 
  357100    297.87052    -1168.815    6490.8871    11685.619    1907.0209 
  357200    302.68754   -1173.4042    6392.5349    11685.585    1806.5116 
  357300    299.81527   -1166.9775    6447.4998    11685.616    1900.2785 
  357400    302.31873   -1164.3128    6391.2755    11685.538    1915.6786 
  357500    298.24793   -1158.3064    6472.2467     11685.55    1939.6953 
  357600    303.12708   -1163.5962    6373.3272    11685.576    1949.6741 
  357700    302.76978   -1161.8151    6379.2685    11685.665    1932.4318 
  357800    299.78323   -1169.3271    6450.7152    11685.797    1937.5888 
  357900    300.43767   -1175.9969    6443.3727    11685.766     1901.851 
  358000     300.1026     -1172.73    6447.2611    11685.763    1878.0259 
  358100     298.3368    -1173.338    6485.6501     11685.82     1906.922 
  358200    297.69916   -1164.3813    6490.2465    11685.751    1900.0571 
  358300     304.8179   -1165.2052    6338.9568    11685.718    1929.1358 
  358400    295.66836   -1163.3907    6532.6026    11685.713    1942.5114 
  358500      304.063   -1164.1631    6353.8751    11685.551    1819.5275 
  358600    298.49026   -1162.7716    6471.5541    11685.569    1905.7572 
  358700    300.28377    -1164.042    6434.4368    11685.497    1877.6783 
  358800    297.29736   -1157.3103    6491.4494    11685.441    1851.0801 
  358900    302.39992   -1161.9836     6387.132    11685.459    1886.0377 
  359000     302.4245   -1161.6147    6386.1189     11685.34    1902.9622 
  359100    298.97602   -1152.2102    6450.3637    11685.317    1853.1342 
  359200    304.02295   -1160.2712     6350.547     11685.26    1824.2484 
  359300    298.06945   -1158.5262    6476.0063    11685.276    1878.7267 
  359400    298.73623   -1155.3856    6458.6168    11685.272    1834.2028 
  359500    301.10986   -1148.8473    6401.3565    11685.259    1833.8306 
  359600    299.78212    -1151.025    6431.8574    11685.217      1917.61 
  359700    300.88173   -1152.9388    6410.3087    11685.246    1915.5303 
  359800    298.67285   -1152.8551    6457.4226    11685.255    1803.9153 
  359900    300.86419   -1156.5165    6414.2851     11685.27    1823.7791 
  360000    300.10911   -1159.8647    6433.8384    11685.344    1902.6702 
  360100    300.63175   -1162.2614    6425.0764    11685.351    1849.1253 
  360200    298.99904   -1157.2712    6454.9715    11685.356    1901.5579 
  360300     301.0594     -1158.59    6412.3094    11685.392    1897.5868 
  360400    298.62559   -1155.8852    6461.7566    11685.549    1882.9019 
  360500    302.65993   -1165.0549    6384.6708    11685.481    1920.6275 
  360600    299.85911   -1157.0199    6436.5642    11685.574    1941.3235 
  360700    299.65775   -1164.5082     6448.402    11685.622    1877.2812 
  360800     298.8126   -1165.9095    6467.9307    11685.694    1884.4822 
  360900    301.81137   -1168.4069    6406.3819    11685.712    1855.6564 
  361000    299.33293   -1168.8966    6459.7928    11685.685    1828.5675 
  361100    301.53712   -1168.8206    6412.7387    11685.796    1850.6007 
  361200     297.6152   -1166.8693    6494.4847    11685.708    1875.5056 
  361300    303.97312   -1170.0956    6361.8064     11685.63    1843.9513 
  361400    300.06378   -1164.5502    6439.7615    11685.613    1871.7742 
  361500    302.99309   -1165.7979    6378.3619    11685.547    1843.2695 
  361600    303.73895   -1160.5098    6357.2357    11685.643    1854.0704 
  361700    302.75564   -1167.5359    6385.1567     11685.53    1815.5835 
  361800    299.05236   -1165.2032    6462.0518    11685.643    1893.0462 
  361900    297.20355   -1169.6304    6505.9453    11685.613    1902.2457 
  362000    299.28447   -1170.7621    6462.5324    11685.524     1907.991 
  362100     301.1364   -1165.8131    6418.0743    11685.578    1894.9387 
  362200    297.59482   -1164.9985    6492.7717     11685.43    1924.7596 
  362300    298.98255   -1155.3065    6453.4413    11685.438    1890.6915 
  362400    303.43077   -1158.8884    6361.9523    11685.397    1880.1974 
  362500    300.89656   -1154.9671    6412.1628    11685.389    1968.4633 
  362600     303.4637   -1153.7014    6355.9675    11685.302    1919.7132 
  362700      297.291   -1157.0982    6491.2324      11685.3    1889.5491 
  362800     300.7511   -1155.2642    6415.5622    11685.384    1921.3528 
  362900    298.12267   -1159.7895    6476.2342    11685.378    1950.5915 
  363000    302.11318   -1163.4312    6394.5261    11685.279    1866.0519 
  363100    298.83992   -1155.2489    6456.4123     11685.42    1862.0655 
  363200      297.078   -1158.9307    6497.7058    11685.391    1882.3859 
  363300    300.26639   -1162.7251    6433.4109    11685.416    1921.3988 
  363400    301.67269   -1154.3334    6394.8765    11685.317    1948.5564 
  363500    300.56406   -1157.4051    6421.6597    11685.345    1947.8285 
  363600    299.35585   -1156.9615    6447.0707    11685.388    1981.3042 
  363700    302.27765   -1158.9318    6386.6942    11685.461     1916.966 
  363800     299.0064   -1162.1818    6459.8939    11685.525    1942.6988 
  363900    300.66715   -1165.5994    6427.9215    11685.614    1869.8841 
  364000     301.7511   -1174.6086    6413.7903    11685.631    1921.4549 
  364100    298.85786    -1175.001    6476.0178    11685.656    1910.0195 
  364200    300.11324   -1171.9413    6446.1301    11685.648     1859.181 
  364300    299.95084   -1164.7852     6442.373    11685.577     1919.031 
  364400    302.65642   -1157.5129    6377.3929     11685.67      1947.98 
  364500    299.41943   -1154.0767    6443.0018    11685.562    1974.4046 
  364600    301.16931   -1161.9743    6413.6614    11685.707    1988.5587 
  364700     300.3406   -1165.5416    6434.8659     11685.64    1924.0781 
  364800    302.85851   -1173.2243    6388.8478    11685.731    1830.0577 
  364900    300.05744   -1174.0126    6449.3391    11685.593     1842.008 
  365000    300.59116   -1167.7959    6431.8062    11685.679     1872.844 
  365100    300.57183   -1168.6137    6432.9864    11685.629    1836.2992 
  365200    296.78064   -1160.2935    6505.5373    11685.507    1885.6151 
  365300     304.1756   -1158.1529     6345.386    11685.478    1832.0256 
  365400    300.37556   -1156.5404    6424.9565    11685.479    1856.0116 
  365500    303.76404   -1157.1121    6353.1259    11685.466    1913.0966 
  365600    298.09597    -1159.048    6476.0772    11685.392    1964.3923 
  365700    302.12287   -1162.3823    6393.2918    11685.301    1931.0849 
  365800    301.11602   -1153.9905    6406.4312    11685.322    1896.3074 
  365900    299.50092   -1157.6919     6444.584     11685.27    1912.8844 
  366000    303.08459   -1159.0183    6369.4112     11685.33    1851.2254 
  366100     297.1679    -1158.623    6495.3974    11685.311     1879.904 
  366200    299.47429    -1155.949    6443.5146    11685.374     1913.117 
  366300    301.69106    -1155.611    6395.7498    11685.305    1871.1272 
  366400    299.61281    -1151.674    6436.1453    11685.239    1911.8753 
  366500    299.76815   -1152.0022    6433.2354     11685.32     1977.164 
  366600    298.81835   -1152.2995    6453.8299    11685.326    1940.9743 
  366700    300.38504   -1158.9157    6427.0172    11685.367     1893.321 
  366800    300.22476   -1161.1344    6432.8125     11685.52    1911.1228 
  366900    302.27212   -1168.7324    6396.6813    11685.529    1923.9998 
  367000    300.37003   -1165.8704    6434.4796    11685.554    1855.2843 
  367100    299.61362   -1166.7747    6451.5834    11685.594    1869.5618 
  367200    297.79757   -1167.5252    6491.1656    11685.629    1917.5979 
  367300    304.95115   -1166.1573    6336.9907    11685.647    1886.0905 
  367400    301.47344   -1161.7494    6406.7827    11685.551    1911.6443 
  367500    298.53643   -1161.0364    6468.9058    11685.642    1900.5041 
  367600    298.52438   -1166.8691    6474.9525    11685.599    1853.9222 
  367700    300.88803   -1171.6852    6429.3036    11685.629    1844.8675 
  367800    300.05477   -1173.8761    6449.3944    11685.728    1907.6377 
  367900    300.35064   -1175.5474    6444.7665     11685.75    1871.5233 
  368000    302.41284   -1174.7215    6399.8698    11685.735    1794.2019 
  368100    300.49584   -1173.0264    6439.1453    11685.751    1904.7698 
  368200    301.83567   -1167.4471    6404.8601    11685.669     1945.289 
  368300    299.65847   -1162.5637    6446.4724    11685.652    1908.2808 
  368400    301.36476   -1160.2339    6407.6347    11685.596    1935.2796 
  368500    299.94061   -1165.6211    6443.4111    11685.561    1935.0762 
  368600    300.32339   -1163.4953    6433.1461    11685.599    1940.7254 
  368700    303.30905   -1166.7665    6372.7457    11685.712    1941.9191 
  368800    302.34515   -1161.7094    6388.2341    11685.665    1857.2356 
  368900    298.19662   -1162.4529    6477.5912    11685.652    1823.7659 
  369000    302.38208     -1162.06    6387.6305      11685.5    1870.6057 
  369100     301.6424   -1161.9223    6403.2656     11685.47    1926.7918 
  369200    298.61313   -1156.6468    6462.7175    11685.482    1957.1693 
  369300    299.98179    -1158.935    6435.7676    11685.483    1885.6765 
  369400     298.0382   -1151.0021    6469.1911    11685.318    1881.3318 
  369500       300.15   -1154.4055    6427.5575    11685.396    1882.6894 
  369600    300.86697   -1155.8856     6413.741    11685.417    1937.5872 
  369700     302.2383   -1157.8976    6386.4003     11685.36    1884.1436 
  369800     297.7838   -1156.9451    6480.5979    11685.347    1892.2268 
  369900    303.20843   -1161.1294    6368.9518    11685.405    1848.7922 
  370000    296.94663   -1158.7969    6500.3995    11685.412      1911.55 
  370100    301.96054    -1162.252    6396.7047    11685.376    1891.5704 
  370200     300.1108   -1157.9478    6431.9241    11685.383    1864.3236 
  370300    298.15688   -1161.2666    6477.0434    11685.441    1844.7433 
  370400    301.22601   -1161.9814    6412.1122    11685.362    1887.2891 
  370500    300.74497   -1161.5762    6422.0681    11685.447    1959.1047 
  370600    299.48598   -1163.7235    6451.1599    11685.495    1918.7823 
  370700    297.77266   -1165.6637    6489.7603    11685.553    1925.9444 
  370800    302.63295   -1170.2516    6390.5488    11685.586    1893.2394 
  370900    300.66056   -1168.0077    6430.4275    11685.571    1830.1472 
  371000    300.10188   -1168.8331    6443.2202    11685.603    1828.1924 
  371100    302.82226   -1168.2232    6384.4802     11685.59    1896.0625 
  371200    299.50996   -1164.8801    6451.9819    11685.673    1862.8711 
  371300    301.64877   -1166.6777    6408.0629    11685.648    1890.4849 
  371400    303.65968   -1166.3048    6364.6727    11685.591    1917.1284 
  371500    297.41429   -1168.1787    6500.0889     11685.71    1946.2082 
  371600    297.83261   -1163.8771    6486.8014    11685.661    1891.1395 
  371700    303.96958   -1176.8018    6368.5986     11685.64    1876.7481 
  371800    301.97201    -1168.196    6402.7383    11685.711    1888.7727 
  371900    300.58185   -1168.2685     6432.468     11685.67    1861.8816 
  372000    299.74688    -1164.621    6446.6282    11685.639    1870.5947 
  372100     302.4199   -1167.2194    6392.0309    11685.549    1903.2239 
  372200    301.33125   -1165.9876    6414.0897    11685.582     1848.164 
  372300    300.21656    -1163.444    6435.3264    11685.549    1809.8378 
  372400    300.38489   -1158.1151    6426.3689    11685.516    1860.3489 
  372500    302.49397   -1161.3073    6384.4417    11685.454    1960.3534 
  372600    298.46353   -1161.9289    6471.2034     11685.49    1985.9026 
  372700    300.17734   -1153.1522    6425.7367    11685.413    1909.8254 
  372800    302.31608   -1158.1295    6385.0261    11685.416    1968.6337 
  372900    300.28631   -1159.8297    6430.1383    11685.465    1899.4879 
  373000     298.9621   -1163.8731    6462.3859    11685.379    1918.4501 
  373100    298.79844   -1159.0679    6461.1121    11685.414    1926.0557 
  373200    303.14349    -1161.108    6370.3075    11685.395    1890.1495 
  373300    295.47128   -1158.3822    6531.5412     11685.45    1913.9094 
  373400    302.71502   -1158.3721    6376.7264    11685.396    1901.3448 
  373500    297.29432   -1160.2379    6494.3553    11685.354    1885.3354 
  373600      300.133   -1161.0834    6434.7163    11685.514    1867.2384 
  373700      302.094   -1163.5037    6395.1906    11685.462    1833.8532 
  373800    300.25393   -1163.7327    6434.6975    11685.429    1842.6069 
  373900    298.44803   -1159.5246    6469.0654    11685.425    1858.9587 
  374000    302.86049   -1161.7108    6377.0005     11685.44    1934.8232 
  374100    301.64238   -1162.6393     6403.893     11685.38    1932.7324 
  374200    298.46411   -1163.9052     6473.004    11685.326    1885.5285 
  374300     299.0933    -1160.119    6455.8855    11685.436     1895.454 
  374400    298.69929   -1165.7996    6470.0884    11685.541    1935.0733 
  374500    303.17098   -1166.6462    6375.4272    11685.564    1845.0187 
  374600    299.38554   -1160.2829    6449.8684    11685.498    1908.4302 
  374700    303.51403   -1166.6977    6368.1777    11685.592    1856.4353 
  374800    298.85689   -1161.2924    6462.2399    11685.566     1859.585 
  374900     301.4938   -1166.5943     6411.179    11685.537    1875.6374 
  375000    302.03278   -1160.1267    6393.2304    11685.571    1909.3446 
  375100    302.38015   -1158.3536    6383.9248    11685.459    1907.6384 
  375200    300.62642   -1161.0242    6424.0829    11685.481    1944.1154 
  375300    302.46674   -1161.4252    6385.2283    11685.541    2003.9829 
  375400    299.81883    -1160.946    6441.2823    11685.506    1958.5642 
  375500    301.87368   -1162.7169    6399.0549    11685.406    1897.8869 
  375600    297.56583    -1159.338    6487.8343    11685.534    1983.2954 
  375700    302.80641   -1157.4325     6373.889    11685.451    1906.0196 
  375800     299.7753   -1161.8447    6443.0515    11685.446    1869.0234 
  375900    300.81937   -1159.1947    6418.0669    11685.417    1927.5182 
  376000    299.05133   -1159.9278    6456.5666    11685.412    1880.7888 
  376100    298.34323   -1162.8818    6474.6543    11685.418    1869.7433 
  376200    298.35855   -1161.3041    6472.8362    11685.505    1912.9191 
  376300    303.70595   -1158.5978    6355.7923    11685.406    1835.5221 
  376400    299.05692   -1160.7079     6457.231    11685.415    1891.9016 
  376500    298.24355   -1156.4525    6470.3832    11685.446    1898.5057 
  376600    302.60972   -1165.1148    6385.8578    11685.535    1838.0143 
  376700    298.25916   -1158.1391    6471.8087    11685.519    1863.1315 
  376800     301.1352   -1159.7273     6411.926     11685.49    1836.9403 
  376900    299.80284   -1163.9221    6444.7355    11685.641    1870.4805 
  377000    299.35264   -1164.3255    6454.6251     11685.51    1926.6587 
  377100    301.75847   -1167.8433    6406.8173    11685.581    1856.7012 
  377200    298.50866    -1163.745    6472.1863    11685.621    1887.2367 
  377300    303.34027   -1164.2534    6369.3824    11685.528    1883.1771 
  377400    299.52806   -1167.6034    6454.1732    11685.527    1862.6722 
  377500    300.00487   -1158.2324    6434.7002    11685.612    1863.8964 
  377600    301.35612    -1162.834    6410.3678    11685.545    1824.6943 
  377700    301.02721   -1166.9116    6421.4243    11685.497    1882.2984 
  377800    302.04346   -1166.0343    6398.8296     11685.49    1922.8933 
  377900    297.74934   -1163.2128    6487.7974    11685.542    1883.9772 
  378000    298.78161   -1159.8764    6462.3333    11685.467    1900.5275 
  378100    304.34059   -1166.4995    6350.3504     11685.62    1922.3213 
  378200    298.53373   -1168.2098     6475.997    11685.502    1860.3158 
  378300    299.95846   -1165.5877    6442.9411    11685.506    1876.2483 
  378400    304.10091   -1170.0362    6358.8841    11685.497    1892.6633 
  378500    294.69938    -1161.725    6551.5073    11685.582    1913.7402 
  378600    300.68033   -1163.6748    6425.5988    11685.498    1898.1059 
  378700    298.39228   -1160.5733    6471.3612    11685.481    1913.0864 
  378800    300.80489   -1161.0624     6420.353    11685.526    1920.1256 
  378900     299.9891   -1158.4523    6435.1464    11685.501    1865.4252 
  379000    299.49058   -1158.9767    6446.1918    11685.372    1851.1069 
  379100    302.69891   -1162.9054    6381.7043    11685.497    1872.6055 
  379200    300.74033   -1166.0249    6426.7184    11685.549    1904.1417 
  379300    298.33797   -1163.9168    6475.9619    11685.578    1906.8042 
  379400     302.8704   -1165.3043    6380.5097    11685.567    1902.7759 
  379500    299.43799   -1159.4824    6447.9328    11685.484    1913.1694 
  379600    298.47573   -1162.1881    6471.1879    11685.476    1821.9449 
  379700    299.90925   -1162.5669    6441.0079    11685.542     1865.538 
  379800    303.17981   -1162.1456    6370.6931    11685.519    1888.8048 
  379900    300.28529   -1164.9116    6435.3032    11685.526    1831.2032 
  380000    298.77743   -1166.9815    6469.6145    11685.554    1875.7967 
  380100    302.32193   -1166.4402    6393.3307    11685.535     1867.002 
  380200    299.76875   -1165.2603    6446.7002    11685.539    1858.9307 
  380300    299.20691   -1167.7814     6461.312    11685.627    1811.0653 
  380400     301.3146   -1168.1457    6416.6687    11685.647    1886.4035 
  380500    298.80597    -1160.623    6462.7063    11685.614    1841.0305 
  380600    301.36074   -1161.6878    6409.1409    11685.563    1800.8625 
  380700    301.40384   -1163.3625    6409.8899    11685.558    1840.7157 
  380800    302.38668   -1163.6003    6389.0807    11685.508    1901.0697 
  380900     301.2886   -1164.1446    6413.1297    11685.554    1872.6684 
  381000    301.04086   -1164.7435      6419.08    11685.613    1842.7917 
  381100    301.96822   -1165.7623    6400.2876    11685.613    1845.2475 
  381200    299.23901   -1161.0267    6453.6812    11685.437    1840.2275 
  381300    301.90312   -1165.1014    6400.9465    11685.542    1790.4909 
  381400    299.13913   -1167.0407    6461.9808    11685.589    1892.0196 
  381500    301.23158    -1161.047    6411.1928    11685.496    1893.1319 
  381600    300.36327   -1159.5119    6428.1283    11685.417    1835.0636 
  381700    300.65869   -1165.4181    6427.8231    11685.516    1890.7654 
  381800    301.70516   -1165.4883    6405.4689    11685.448    1864.4879 
  381900    297.83748   -1160.3126    6482.8764    11685.405    1830.1067 
  382000    300.66061   -1157.3714    6419.5815    11685.363    1857.3791 
  382100    299.97327   -1162.8017    6439.7812    11685.448    1884.4451 
  382200    298.72995   -1164.0043    6467.4909    11685.394    1895.8407 
  382300    300.13813   -1163.2701    6436.6138    11685.334    1826.0749 
  382400    300.90945   -1167.0201    6424.0422    11685.491    1837.8862 
  382500    301.20429   -1164.3133    6414.9399    11685.394    1842.8275 
  382600    299.33993   -1164.9557    6455.4679    11685.451    1892.9201 
  382700    301.23881   -1163.5079    6413.3899    11685.387    1816.2193 
  382800     298.1555   -1157.6133    6473.4172    11685.439    1835.7819 
  382900    301.97795   -1157.6871    6391.8518     11685.46    1882.6701 
  383000    300.89884   -1164.6253    6421.9171    11685.534    1862.5413 
  383100     301.7452    -1164.524    6403.8426    11685.642    1848.5016 
  383200    299.68253   -1168.8183    6452.2265    11685.666    1808.6991 
  383300    298.73421   -1168.5289    6472.1608     11685.63    1844.8442 
  383400    300.02876   -1169.9652    6446.0286    11685.718     1878.432 
  383500    300.87948   -1172.7086    6430.5502     11685.67    1872.3042 
  383600    299.37847   -1168.4622    6458.4238    11685.723    1869.4047 
  383700    298.67185   -1161.9836    6467.0282     11685.71    1885.7638 
  383800    301.92018   -1163.4362    6399.0569    11685.682    1856.4922 
  383900    300.58571   -1160.8162    6424.9718    11685.708    1830.6933 
  384000    301.95431   -1168.8837    6403.7744    11685.681    1925.6722 
  384100    299.45393    -1165.715    6454.0609     11685.72    1921.9223 
  384200    298.38703   -1174.3855    6485.4537    11685.649    1858.6158 
  384300    303.83986   -1171.7138    6366.2754    11685.634    1844.0407 
  384400    301.05614   -1162.9505    6416.8886     11685.54    1842.4053 
  384500    300.58841   -1160.0549    6423.9969    11685.552    1869.2247 
  384600    297.78527   -1162.9683    6486.7393    11685.496    1861.2839 
  384700    301.58279    -1163.881    6406.3745    11685.347    1821.1322 
  384800    299.82049   -1159.9696    6440.1213    11685.356    1878.6915 
  384900    298.68124   -1160.7992     6465.321    11685.388    1822.1029 
  385000    301.27897   -1160.0473    6409.0851    11685.401    1774.9564 
  385100    301.66396   -1163.3423    6404.0814    11685.327    1821.3556 
  385200    300.23447   -1162.2212    6433.5659    11685.393    1901.8357 
  385300    299.90607   -1159.4107    6437.7907    11685.413    1912.4202 
  385400    299.64408   -1156.1378    6440.0346    11685.333    1926.7069 
  385500    302.81459   -1152.5238    6368.6467    11685.292    1853.1093 
  385600    299.50999   -1157.2295    6443.9527    11685.295    1882.7094 
  385700    297.92298   -1155.8834    6476.4834    11685.267     1816.746 
  385800    301.24072   -1157.7505    6407.4768    11685.272     1823.089 
  385900     300.0958   -1163.8536    6438.0774     11685.31    1898.1611 
  386000    301.12064   -1161.0554    6413.4321    11685.357    1891.3002 
  386100    298.08923   -1160.7348    6477.9463    11685.431    1874.3427 
  386200    301.71299   -1161.8969    6401.6441    11685.382    1837.2009 
  386300    299.79576   -1164.3396    6445.1436     11685.48    1876.0924 
  386400    301.20882   -1167.3273    6417.8758    11685.413    1834.8039 
  386500    300.20399   -1160.5497    6432.7242    11685.572    1946.6733 
  386600    300.98484   -1155.9565    6411.4679    11685.591    1930.2228 
  386700    302.42064   -1166.7487    6391.5507    11685.555    1884.5311 
  386800    302.28925   -1168.2181    6395.9516     11685.68    1841.6911 
  386900    300.07913   -1170.7949    6445.7079    11685.643    1878.2191 
  387000    300.23608   -1173.2352    6444.8872    11685.735    1894.4427 
  387100    300.92453   -1173.4439    6430.3668    11685.714    1839.9742 
  387200    303.77698   -1173.2095    6369.2166    11685.736    1828.9001 
  387300    301.18106    -1167.509    6419.0556    11685.818    1872.4881 
  387400    301.48465   -1171.1849    6416.1512    11685.723    1925.3599 
  387500     303.3456   -1171.6373     6376.772    11685.648    1909.7294 
  387600    299.90989    -1171.126      6449.75    11685.739    1887.3276 
  387700    300.50801    -1171.925    6437.7838    11685.751    1899.6288 
  387800    302.39933   -1165.6651    6391.0325    11685.665    1892.7108 
  387900    300.75018   -1170.7729    6431.3238    11685.617    1845.7857 
  388000    296.30815   -1169.3791    6524.8144    11685.604    1852.1271 
  388100    302.88768   -1167.4222    6382.2646    11685.573     1839.496 
  388200    301.32747   -1166.4156    6414.5459    11685.529    1886.9456 
  388300    299.13125   -1161.2872    6456.2585    11685.451    1838.1775 
  388400    297.99038   -1156.2444    6475.5172     11685.38    1884.1338 
  388500    300.18769   -1156.9498    6429.2402     11685.34    1874.0032 
  388600     300.2076   -1156.5724    6428.3848    11685.287    1838.0729 
  388700    300.00888   -1156.6234    6432.6494    11685.255    1817.9283 
  388800    300.14338   -1154.8403    6428.0426    11685.305    1813.3179 
  388900    301.60836   -1158.0936    6400.0079    11685.314    1810.5693 
  389000    299.98032    -1158.401    6435.0574    11685.276    1828.9345 
  389100     299.7136   -1159.5309    6441.9421    11685.333    1835.9982 
  389200    298.10448   -1156.0285    6472.6903    11685.207     1861.987 
  389300    301.36992   -1157.0761    6403.9483    11685.178    1913.1082 
  389400    300.53461   -1154.4192    6419.1557    11685.197    1888.8845 
  389500    298.69597   -1149.4237    6453.5177    11685.275    1913.7717 
  389600    299.39549   -1156.9559    6446.2008     11685.37    1967.2679 
  389700    301.14646   -1155.1127     6406.848    11685.267    1893.6504 
  389800    301.11913   -1160.9188    6413.2927    11685.322    1856.3469 
  389900    300.24494   -1161.0469    6432.3246     11685.55    1864.7112 
  390000    301.62857   -1168.6233     6410.367    11685.575    1823.1414 
  390100    301.11798   -1166.8271    6419.4856    11685.582     1821.156 
  390200    302.43387   -1167.4452    6392.0019    11685.592    1914.5526 
  390300    300.41179   -1166.3633    6434.1876    11685.661    1938.0194 
  390400    299.12403   -1163.1678    6458.4983    11685.656    1954.9765 
  390500    304.16656   -1166.0496    6353.5967    11685.599    1932.2588 
  390600    298.29219   -1167.5348     6480.637    11685.657    1993.3652 
  390700    305.24466   -1173.0831    6337.6838    11685.685    1869.8353 
  390800    299.41122   -1169.2479    6458.5244    11685.738    1901.4653 
  390900    299.14225   -1176.5024    6471.5441    11685.757     1935.565 
  391000    299.58247   -1176.2928     6461.929    11685.756    1965.7495 
  391100    299.69825   -1175.2962    6458.4531     11685.75    1991.5991 
  391200    301.60561    -1167.121    6409.5049    11685.725    1928.1847 
  391300    302.81201   -1166.4766    6383.1155    11685.753    1915.6859 
  391400    301.14488   -1167.7341     6419.937    11685.701    1952.3118 
  391500    297.88615   -1166.0923     6487.873    11685.661    1939.6154 
  391600    299.24855   -1165.2877    6457.9157    11685.614    1886.4068 
  391700    303.20212   -1166.9183    6375.0231    11685.553    1906.7758 
  391800    296.43976   -1165.5938    6518.1483    11685.535    1952.3862 
  391900    301.55559   -1163.8236    6406.9715     11685.42    1879.6985 
  392000     296.8772   -1161.7923    6504.9109    11685.445    1964.7977 
  392100    303.77179   -1158.8819    6354.7403    11685.477    1932.2792 
  392200    299.72104   -1155.4572    6437.7063    11685.329    1896.3642 
  392300    296.34454   -1154.3737    6508.6832    11685.256    1908.8385 
  392400    305.13216   -1156.4159    6323.0528    11685.317    1896.0472 
  392500    298.38429   -1155.1596    6465.9748    11685.338     1927.399 
  392600     301.4708   -1153.3472    6398.1277    11685.241    1887.4389 
  392700    300.03631   -1159.2675    6434.8157    11685.364    1936.5807 
  392800    299.89287   -1157.9414     6436.513    11685.323    1875.0736 
  392900    301.01933   -1156.9295    6411.3402    11685.227    1864.3575 
  393000    302.89258   -1159.1018    6373.6441    11685.378    1867.6717 
  393100    298.30292   -1157.1661    6469.8147    11685.433    1884.3429 
  393200    298.64169   -1160.9859    6466.3492    11685.385     1887.917 
  393300    300.37222   -1160.6282    6429.0503    11685.414    1886.7043 
  393400    302.26114   -1160.9175    6388.9915    11685.419    1923.8426 
  393500    299.54932   -1165.0734    6451.2955    11685.634    1898.4182 
  393600    297.01092    -1164.883    6505.3133    11685.613     1936.191 
  393700    301.25594   -1166.9684    6416.7094    11685.612    1889.8041 
  393800    302.53003   -1168.9054    6391.5184    11685.703    1947.3082 
  393900     299.5306   -1167.4531    6454.1376    11685.696    1943.0383 
  394000    304.64146   -1171.1237    6348.5666     11685.64    1882.4482 
  394100    295.30335   -1169.2202    6546.2177      11685.7      1954.84 
  394200    300.37898   -1164.8589    6433.4576    11685.735    1886.7684 
  394300    300.56145    -1163.341    6427.9924    11685.686    1839.9287 
  394400    299.68067   -1169.4168    6452.8237    11685.625    1866.9646 
  394500    304.79523   -1169.4712    6343.6281    11685.639    1887.2207 
  394600    300.10145   -1166.7886    6441.2962    11685.715     1895.095 
  394700    298.35447   -1172.5956    6484.3576    11685.647     1942.391 
  394800    302.86275   -1166.6371    6382.0255    11685.586    1945.6422 
  394900    298.46447   -1168.4914    6477.8218    11685.566    1965.4035 
  395000    299.44377   -1166.1718     6454.587    11685.572    1921.1998 
  395100    301.28981   -1165.2543    6414.1583    11685.498    1910.1706 
  395200    297.07278   -1160.2821    6499.3158    11685.538    1915.8487 
  395300    300.60531   -1161.8639    6425.4079    11685.515    1865.6903 
  395400    301.13052   -1162.7336    6415.0769    11685.535    1899.4774 
  395500    301.41502   -1157.4521    6403.6557    11685.473    1923.1245 
  395600    300.63392   -1159.6985    6422.4377    11685.322    1937.4718 
  395700    300.33465   -1157.2763    6426.4593    11685.372    1970.4653 
  395800    300.96318   -1159.1864    6414.9352    11685.365    1939.7635 
  395900    301.93866   -1156.9886    6391.9338    11685.401    1959.4839 
  396000    297.08504   -1159.5609     6498.199    11685.404    2025.7628 
  396100     305.0834   -1163.0814     6330.845    11685.402    1900.7474 
  396200    296.85717   -1163.9643    6507.5052    11685.439    1908.7026 
  396300    301.29585   -1159.9889    6408.6265    11685.361    1877.0454 
  396400    297.75271   -1161.3783    6485.8667    11685.518    1918.6469 
  396500    301.70321   -1165.1505    6405.2612    11685.537    1900.1426 
  396600     299.2468   -1164.2697    6456.6998    11685.379    1888.7121 
  396700    301.87295   -1168.0408    6404.4632    11685.475    1884.9378 
  396800    300.90411   -1166.0175     6423.132    11685.469    1919.9927 
  396900    296.72339   -1162.7332    6509.2648    11685.572    1988.3581 
  397000     303.3342    -1167.732    6373.0122     11685.55    1913.5072 
  397100    300.26031   -1167.7952     6438.759    11685.565    1964.7096 
  397200    298.67924   -1171.3906     6476.116    11685.549    1942.6224 
  397300    301.35012   -1164.8624    6412.5892     11685.61    1945.5432 
  397400    300.78655   -1167.9247    6427.7191    11685.637     1943.987 
  397500    298.44098   -1169.1781    6479.0221    11685.578    1929.8941 
  397600     302.2358   -1168.0045    6396.7312    11685.531    1895.7906 
  397700     299.8625   -1165.9306    6445.3505    11685.522    1894.7762 
  397800      300.662   -1166.4944    6428.9134    11685.601    1961.8901 
  397900    298.26004   -1163.9528     6477.656    11685.571    1922.4312 
  398000    302.50219   -1164.3898    6387.4108    11685.516    1936.9214 
  398100    299.76088   -1168.5366    6450.1079    11685.503    1958.1453 
  398200    303.57889   -1168.5413     6368.517    11685.473    1873.2178 
  398300    297.85355   -1163.7866    6486.1335    11685.531    2003.1063 
  398400    304.56022   -1162.6174    6341.6198    11685.464    1976.1292 
  398500    298.86346   -1157.0751    6457.8133    11685.497    1978.3152 
  398600     301.3957   -1156.2358    6402.8879    11685.509    1962.2047 
  398700    297.32065   -1163.2396    6496.9133    11685.473    2040.9915 
  398800    300.34341    -1156.994    6426.0316    11685.414    1949.6859 
  398900    299.83208   -1161.9732    6442.0026    11685.482    1936.1454 
  399000       301.02   -1160.7678    6415.4248    11685.487    1904.5216 
  399100    297.84489   -1159.3721    6481.7769    11685.404    1887.4984 
  399200    299.95056   -1164.1317    6441.6237    11685.475    1913.3775 
  399300    302.24975   -1163.6145    6391.9954    11685.483    1870.7977 
  399400    299.18465   -1164.5074    6458.4108    11685.524    1910.0233 
  399500    299.86064   -1164.6835    6444.1083    11685.487    1856.8247 
  399600    300.85034   -1163.0993    6421.4773    11685.584    1923.1422 
  399700    300.71268   -1164.5471    6425.8715    11685.589    1914.1796 
  399800    301.25513   -1164.8675    6414.6066    11685.593    1870.5084 
  399900    299.59273   -1164.7728    6450.0895    11685.656    1832.8967 
  400000    300.24467   -1164.1986    6435.5611    11685.629    1786.4383 
  400100     300.7794   -1168.7196    6428.7019    11685.673    1872.2573 
  400200    303.71669   -1170.2607       6367.4     11685.58    1846.8875 
  400300     295.2147   -1168.8232    6547.6815    11685.667    1951.6711 
  400400    304.26813   -1168.0715    6353.4634    11685.614    1908.3674 
  400500    300.24954   -1168.7825      6439.96    11685.548    1923.3183 
  400600    298.22109    -1165.042    6479.6134    11685.607    1913.5091 
  400700    301.47336   -1165.9221    6411.0026    11685.596    1902.5236 
  400800     300.8873   -1162.9273    6420.5469    11685.615    1880.9797 
  400900     303.6519   -1174.7898    6373.2915    11685.559     1904.498 
  401000    301.03937   -1163.7964    6418.2151    11685.663     1919.728 
  401100    296.25512   -1168.1813    6524.7177    11685.573    1953.9352 
  401200     302.4295   -1165.2752    6389.8356    11685.503    1882.9708 
  401300    298.09192   -1164.0501    6481.3377    11685.564    1951.2664 
  401400    299.11646   -1162.2778    6457.6125    11685.499    1891.3654 
  401500    301.09368   -1163.2147    6416.2745    11685.464    1860.2776 
  401600    295.12841   -1159.0298    6539.5113    11685.447    1938.4479 
  401700     302.0462   -1158.1787    6390.8769    11685.452    1847.9108 
  401800    300.16669   -1156.6233    6429.4128     11685.39    1820.7347 
  401900    302.03778   -1162.7913    6395.6278     11685.41    1860.0954 
  402000    299.80205   -1159.1752    6439.8827    11685.518    1902.2496 
  402100    302.54472   -1158.9222    6380.9618    11685.443    1864.1256 
  402200     299.6469   -1161.3588    6445.3358    11685.473    1898.3337 
  402300     302.3424   -1158.5387     6384.949    11685.492    1864.5026 
  402400     302.0226   -1162.7777    6396.0342    11685.506    1884.7555 
  402500     298.6398   -1169.8338    6475.4414    11685.589    1913.9889 
  402600    302.82724   -1161.3005    6377.3982    11685.537    1880.3841 
  402700    301.67092   -1166.8792    6407.7532     11685.61    1861.6867 
  402800    297.71975   -1160.5042      6485.78    11685.601    1889.3165 
  402900    300.24191   -1163.7879    6435.2318    11685.652    1918.2221 
  403000    302.95746   -1164.1999    6377.6713    11685.693    1933.0404 
  403100    301.40831   -1170.1569    6416.6317    11685.601    1895.0874 
  403200    297.44238   -1168.1108    6499.3489    11685.638    1916.0487 
  403300    299.87969   -1172.8148    6452.0226    11685.677    1901.9924 
  403400    304.63956   -1169.0765    6346.6248    11685.705    1892.2524 
  403500    299.81305    -1171.583    6452.2791    11685.742    1887.1221 
  403600    299.51525   -1171.3221    6458.3163    11685.678    1912.5954 
  403700    302.94015   -1168.1019    6381.8767    11685.626    1865.4005 
  403800    301.67525    -1166.928    6407.8026    11685.703    1910.3488 
  403900    299.49102   -1170.4046    6457.8877    11685.649     1888.097 
  404000    297.06597   -1161.0171    6500.3501    11685.692    1963.7005 
  404100    303.66167   -1167.1133    6365.4881     11685.64    1882.6584 
  404200    303.17627   -1165.3385    6374.0509    11685.608    1956.9524 
  404300    301.54272   -1166.2892    6409.8426    11685.551    1948.1952 
  404400    297.59652   -1164.7493    6492.5822    11685.526    1864.8865 
  404500    301.80683   -1162.1998    6400.0844    11685.524    1875.6347 
  404600    303.37991   -1163.3319    6367.5597    11685.474    1948.8876 
  404700    299.19265   -1165.3982    6459.0797    11685.473    1866.7864 
  404800    299.67571   -1162.7383    6446.1014    11685.475    1912.8033 
  404900    301.61321   -1157.1499    6399.1902    11685.544    1886.6869 
  405000    298.38249   -1161.3303     6472.364    11685.518    1811.8707 
  405100    301.42478    -1158.702    6404.6979    11685.474     1784.118 
  405200    300.54315   -1158.3556    6423.3106    11685.598    1886.5459 
  405300    299.74121   -1163.3008    6445.3501     11685.56    1891.0491 
  405400    300.49336    -1163.765    6429.7314    11685.546     1818.265 
  405500    298.43505   -1161.1145    6471.1442    11685.637    1949.9775 
  405600    300.40444   -1159.3642    6427.1906    11685.506    2003.4967 
  405700    301.18363   -1161.7445    6412.8571    11685.439    1940.2893 
  405800    297.69438   -1161.3368    6487.1777    11685.624    1890.1102 
  405900    301.35629   -1164.3299    6411.9175    11685.602    1878.0822 
  406000    298.65724   -1168.2913    6473.5632    11685.626    1865.6287 
  406100    302.22985   -1170.4742    6399.4684    11685.671    1849.0289 
  406200    299.69139    -1171.785    6455.0779     11685.74    1856.4281 
  406300    298.93123   -1170.3011    6469.7192    11685.625    1847.4214 
  406400    302.32666   -1173.8617    6400.8062     11685.69    1894.7943 
  406500    301.17983   -1163.8914    6415.2542    11685.608     1875.913 
  406600    301.09938   -1161.8485    6415.0487    11685.726    1902.0823 
  406700    299.87451   -1159.9128    6439.3167    11685.763    1932.5225 
  406800    302.63713   -1167.5161    6387.8214    11685.683    1916.4109 
  406900    297.07276   -1161.2677    6500.5222    11685.758    1884.2168 
  407000    304.97996   -1171.3259    6341.5993    11685.702    1902.9937 
  407100    297.40811   -1170.2229    6502.2364    11685.681    1900.4967 
  407200    300.86938   -1171.6108    6429.7073    11685.709    1839.8415 
  407300    302.31776    -1171.858    6398.9401    11685.637    1881.4151 
  407400     299.0248   -1167.8032     6465.193    11685.596    1897.9905 
  407500    302.85625   -1159.2854    6374.8414    11685.615    1885.6338 
  407600    298.70032   -1162.5538    6466.9271    11685.647    1948.0435 
  407700    297.43751   -1159.2289    6490.3898    11685.457    1971.0519 
  407800    300.74204   -1160.8422    6421.3981    11685.448    1875.8769 
  407900    302.33127   -1167.5631    6394.2476    11685.528    1867.4029 
  408000    299.09284   -1164.5624    6460.4671    11685.564    1862.4237 
  408100    299.52658   -1164.0821    6450.7117    11685.555    1865.1554 
  408200    301.19238   -1162.5351      6413.46    11685.438    1889.8051 
  408300    298.67863   -1163.9586    6468.6555    11685.508    1885.4036 
  408400    303.98167   -1163.5629    6354.9464    11685.486    1831.4757 
  408500    298.95153   -1154.6981     6453.535    11685.478    1898.4728 
  408600    298.75744   -1154.1954    6457.1876    11685.487     1893.148 
  408700    302.27434   -1162.8571    6390.7278    11685.498    1891.0206 
  408800    298.81177   -1163.8758    6465.7874    11685.567    1908.3014 
  408900     301.0091   -1162.3407    6417.2653    11685.522     1902.158 
  409000    297.31599    -1161.248    6495.0804    11685.532    1881.2867 
  409100    300.59947    -1170.314    6434.0546    11685.587    1803.7339 
  409200    298.92495    -1162.876    6462.3435     11685.54    1854.6518 
  409300    300.05507   -1163.5506    6438.8892    11685.555    1886.5106 
  409400    302.36698   -1163.7877    6389.8064    11685.625    1909.1784 
  409500    303.39763    -1165.976    6369.9744    11685.623     1919.311 
  409600    300.75329   -1160.4687    6420.9027    11685.567     1943.547 
  409700    299.02185   -1162.7861    6460.3218    11685.679    1893.2661 
  409800    300.99318   -1167.4324     6422.793    11685.618    1860.2127 
  409900    299.60523    -1167.535    6452.5061    11685.577    1935.2078 
  410000    301.75402   -1159.6942    6398.7718    11685.589     1867.752 
  410100    300.26992   -1164.9814    6435.7689    11685.594    1882.9961 
  410200    300.62142   -1164.5064     6427.795    11685.604    1912.5687 
  410300    300.66715   -1170.0928    6432.4599     11685.66    1847.4755 
  410400    299.11201   -1167.2812    6462.7313    11685.519    1842.5414 
  410500    297.56715   -1161.3153    6489.8635    11685.614    1960.9722 
  410600      301.735   -1169.0774    6408.5292    11685.557    1920.0056 
  410700    305.28587   -1156.5205     6320.066     11685.51    1875.7272 
  410800    300.58069   -1164.1535    6428.2661    11685.558    1927.1599 
  410900    298.69406   -1161.6257    6466.0157     11685.53    1898.5817 
  411000    300.61654   -1161.5058    6424.7461    11685.451    1841.9871 
  411100    302.19662   -1159.9992    6389.5751    11685.543    1857.5485 
  411200     299.2479   -1157.9444    6450.4868    11685.515    1919.5622 
  411300    301.14547   -1159.0853    6411.0429    11685.468     1886.685 
  411400    296.36894   -1162.5197     6516.609    11685.557    1911.2164 
  411500    302.40941   -1166.0542    6390.9888    11685.448    1888.9665 
  411600    298.32923   -1164.0376    6476.1822    11685.491     1883.431 
  411700    300.06803   -1161.5095    6436.5222    11685.506     1855.316 
  411800    298.60568   -1163.2054    6469.4518    11685.498     1918.964 
  411900    299.45491   -1162.0068    6450.1318     11685.52    1811.0207 
  412000    297.41637   -1158.9477    6490.5497    11685.446    1794.5352 
  412100    302.09434   -1168.1507    6399.9298    11685.561    1893.2609 
  412200    301.65622   -1163.8479    6405.0103    11685.585    1897.2522 
  412300    302.59153   -1164.3639    6385.4417    11685.482    1852.9589 
  412400    298.77351   -1163.9843     6466.673    11685.526    1888.6437 
  412500    300.52112    -1167.068    6432.4328    11685.537    1885.8922 
  412600     300.1559   -1165.7922    6438.9387    11685.517    1898.4663 
  412700    301.81438   -1168.4463    6406.1138    11685.469    1927.9777 
  412800    299.66618   -1164.6269    6448.2699    11685.551     1987.017 
  412900    298.66625   -1167.5554    6472.5842    11685.575    1924.2453 
  413000    303.21115   -1169.0804    6377.0432    11685.604    1924.6735 
  413100     301.4783   -1169.0531    6414.0043    11685.572    1901.4729 
  413200    297.03566   -1166.7225     6506.609    11685.598    1843.5976 
  413300    299.82951   -1163.9892     6444.185    11685.593    1916.2367 
  413400    302.06613   -1165.7532    6398.2191    11685.645    1939.3076 
  413500    301.91717    -1169.642    6405.2213    11685.576    1915.2495 
  413600    297.47232   -1169.9759    6500.5383    11685.602    1929.3805 
  413700    299.50785   -1162.6005    6449.7498    11685.675    1926.7913 
  413800    299.49656   -1167.4036    6454.7693     11685.65      1883.27 
  413900     301.2486   -1167.0751    6416.9895    11685.629    1872.5868 
  414000     301.2856   -1164.4186    6413.5765    11685.662    1918.9398 
  414100    298.98578   -1166.1579    6464.4007    11685.615    1909.6269 
  414200    299.58049   -1167.1768    6452.6881    11685.589    1887.1155 
  414300    303.63557   -1169.4301     6368.256    11685.534    1910.0006 
  414400     301.1247   -1161.0635    6413.5767     11685.58    1919.9542 
  414500    298.68644   -1159.3546    6463.9534    11685.576    1905.7256 
  414600    301.76514   -1160.2954    6399.0614    11685.515    1854.3489 
  414700      294.216    -1157.391    6557.4201    11685.503    1858.4544 
  414800    304.08166   -1159.7175    6348.9743    11685.495    1828.0949 
  414900    297.63688   -1167.7683    6494.7203    11685.507    1903.1695 
  415000     301.7802   -1166.5101    6405.0192     11685.58    1883.7592 
  415100    301.83414   -1159.8098     6397.011    11685.424    1882.1439 
  415200    299.48403   -1161.2118     6448.623    11685.428    1878.0457 
  415300     299.2616    -1161.146    6453.3336    11685.452    1920.1768 
  415400    300.07315    -1162.136    6437.0086    11685.475     1900.206 
  415500    300.01209   -1155.6717    6431.8207    11685.447     1894.991 
  415600    299.70724   -1163.1552    6445.8812    11685.511    1901.1147 
  415700    300.16247   -1168.5685    6441.5425    11685.484    1878.2974 
  415800    295.93121   -1161.4831     6524.827     11685.46    1912.3123 
  415900      301.969   -1163.9202    6398.2285    11685.413    1970.0859 
  416000    301.35664   -1169.9691    6417.4232    11685.476    1926.4696 
  416100      296.852   -1158.5481    6502.2266    11685.466    1957.6083 
  416200    296.30489   -1159.3653    6514.7453    11685.479    1971.8184 
  416300    303.98331   -1167.0793    6358.4006    11685.458    1856.9736 
  416400    301.72481   -1164.5393    6404.0373    11685.386    1916.3438 
  416500    299.57889   -1158.9276     6444.348    11685.464    1891.0079 
  416600    297.37779   -1159.5015    6491.9272    11685.446    1910.2262 
  416700    300.70959   -1164.5524    6425.9041    11685.551    1915.7767 
  416800    300.59187   -1164.5342    6428.4025    11685.552    1877.9114 
  416900    302.79123   -1163.0204    6379.8312    11685.481    1823.1953 
  417000    300.53119   -1166.1544    6431.1638    11685.397     1834.821 
  417100    299.76087   -1163.2976      6444.82    11685.453    1877.3926 
  417200    302.24886   -1164.1504    6392.5736    11685.506     1869.791 
  417300    298.85556   -1163.6998    6464.5487    11685.439     1885.335 
  417400    298.91872   -1158.1501     6457.765    11685.555    1959.4979 
  417500    300.67138   -1159.9743     6422.065    11685.473    1838.5853 
  417600    299.77292   -1158.2114    6439.4541    11685.431    1845.6388 
  417700    302.44552   -1159.9501    6384.0779    11685.412    1868.4904 
  417800    298.04894   -1161.0481    6479.1567    11685.467    1853.7447 
  417900    303.09205   -1161.2794    6371.7077    11685.525      1816.26 
  418000    300.98653   -1165.6175    6421.0234    11685.521    1913.2797 
  418100    301.68502   -1165.0863    6405.5296    11685.481    1892.1048 
  418200    299.69887   -1161.5267    6444.4831    11685.563     1858.487 
  418300    300.01437   -1160.0163      6436.23     11685.56    1924.2497 
  418400     299.2803   -1163.9101     6455.763    11685.517    1938.3432 
  418500    305.36039   -1160.4979    6322.4985    11685.557    1849.1839 
  418600    300.37325   -1158.9629    6427.5795     11685.63    1922.0359 
  418700    298.94237   -1165.7701    6464.8912    11685.566    1906.4412 
  418800    301.00316   -1167.8655    6423.0425    11685.648     1902.771 
  418900    298.97699   -1162.8721    6461.2822    11685.595    1942.5891 
  419000    300.57171    -1160.655    6424.9494    11685.548    1906.2802 
  419100     300.9419   -1159.7584    6416.2274    11685.631    1986.2597 
  419200    300.62607   -1160.8287     6423.925    11685.511    1959.6312 
  419300    295.89096   -1161.0569    6525.3282    11685.528    1950.7182 
  419400    304.12597   -1169.4917    6357.8942    11685.587     1868.021 
  419500    297.61166    -1172.747    6500.3443    11685.614    1849.5041 
  419600    300.71885   -1171.2402    6432.4462    11685.603    1826.6407 
  419700    302.75857   -1169.7533    6387.3572    11685.576    1847.5963 
  419800    299.58732   -1165.8142    6451.2682    11685.677    1894.1006 
  419900      296.123   -1167.1694    6526.5351    11685.579    1872.6339 
  420000     300.9107   -1166.7101     6423.861    11685.646    1906.7536 
  420100    302.30822   -1164.0909    6391.3582    11685.619    1908.2113 
  420200    299.33298   -1158.9006    6449.6262    11685.516    1915.7352 
  420300    300.24964   -1161.8892    6432.9866     11685.47     1898.615 
  420400    298.28573   -1159.5311    6472.6852    11685.571     1925.971 
  420500    303.14995   -1164.9208    6374.1866    11685.599    1909.4789 
  420600    301.96515   -1164.0595    6398.5485    11685.511    1909.6399 
  420700    296.49847   -1162.6794    6514.0268    11685.582    1978.3606 
  420800    302.58238    -1162.518    6383.8468    11685.537    1904.0393 
  420900    298.32676   -1158.9973     6471.137    11685.433    1882.5171 
  421000    304.68894   -1160.0798    6336.2487    11685.381    1887.6294 
  421100    296.81837   -1156.9103    6501.2829    11685.442    1960.3573 
  421200    299.32404   -1157.9496    6448.7724    11685.422    1914.9528 
  421300    299.89898   -1155.6994    6434.3359    11685.518    1928.2646 
  421400    300.40311    -1158.705    6426.4579    11685.404    1968.8491 
  421500     299.9345    -1170.271    6448.1336    11685.503    1963.3234 
  421600    295.83941   -1161.6201    6527.0107    11685.546    1964.2964 
  421700     305.5858   -1160.8095    6317.9191    11685.481    1881.2622 
  421800    299.57674   -1155.9178    6441.4429    11685.523    1855.9525 
  421900    301.88562   -1160.1332     6396.328    11685.518    1813.9384 
  422000     299.9471   -1157.9551    6435.5283    11685.483    1919.8942 
  422100    299.35461   -1163.8368    6454.1377    11685.553    1975.2905 
  422200     304.1088   -1158.8595    6347.5672    11685.526    1829.7428 
  422300    299.27936   -1162.2812    6454.1609    11685.524    1902.7091 
  422400    299.27248   -1162.6033    6454.7968    11685.691    1956.3324 
  422500    300.21185    -1165.304    6437.3817    11685.643    1856.3073 
  422600    298.28387   -1166.1934    6479.3655    11685.549    1863.0502 
  422700    301.37367   -1171.3259    6418.6548    11685.715    1916.7596 
  422800    299.49963   -1169.1959    6456.5679    11685.722    1910.6124 
  422900    302.04662   -1168.7176    6401.5558    11685.601    1894.1456 
  423000    301.58739   -1158.9373    6401.5844    11685.599    1934.7389 
  423100    301.89049   -1161.3863    6397.5791     11685.62    1913.9212 
  423200    299.14533   -1160.7854    6455.6243     11685.62    1905.2413 
  423300    305.51493   -1169.0748    6327.8776     11685.66    1893.0035 
  423400     299.6405   -1171.9517    6456.2649    11685.673    1940.8712 
  423500    299.55117   -1166.1423    6452.3716     11685.68     1826.408 
  423600    298.98999   -1161.7099     6459.861    11685.613      1885.14 
  423700    304.65246   -1166.5419    6343.7057    11685.596    1898.7415 
  423800    298.70045   -1163.6271    6467.9602     11685.61    1948.9257 
  423900    303.24756   -1161.4189    6368.5476    11685.548    1907.2046 
  424000    300.59868   -1156.3665    6420.0979    11685.561    1956.1863 
  424100    300.83975    -1159.764    6418.2536    11685.469    1875.3046 
  424200    301.40634   -1159.1617    6405.5997    11685.522    1944.8234 
  424300     301.2713   -1162.3969    6411.7004    11685.502    1896.1151 
  424400    296.94885   -1163.2647    6504.9284     11685.52    1911.7766 
  424500    298.77817   -1162.9028    6465.5198    11685.554    1946.4502 
  424600    298.16424   -1161.9902    6477.7356    11685.567    1928.1552 
  424700    302.14998   -1159.9919     6390.507    11685.486    1897.6612 
  424800    300.15415   -1160.4936     6433.545    11685.384     1934.015 
  424900     299.2762   -1161.3777    6453.3249    11685.524    1929.3603 
  425000    303.02591   -1162.1348    6373.9324    11685.481    1886.9987 
  425100    298.46958   -1159.7708    6468.8954    11685.469    1929.3075 
  425200    300.03542   -1163.4723    6439.2349    11685.559     1959.511 
  425300    298.91278   -1164.7247    6464.4681    11685.556    1942.9829 
  425400    300.29121   -1167.4897    6437.8425    11685.614    1892.2586 
  425500    300.37102   -1169.7134    6438.2483    11685.501     1818.032 
  425600     298.6078   -1164.8649     6471.189    11685.622    1937.6902 
  425700    298.32135   -1159.6986    6472.1355    11685.615    1944.9281 
  425800    304.26662   -1167.2245    6352.5784    11685.543    1837.6638 
  425900    297.55219   -1163.4956    6492.3738    11685.624     1904.837 
  426000    303.22991   -1168.1954    6375.7956    11685.642    1885.8355 
  426100    297.84651   -1163.8518    6486.5157    11685.698    1887.3187 
  426200    301.37217   -1169.7745    6417.1099    11685.689    1892.3845 
  426300    301.30316   -1167.0184    6415.8491     11685.71    1892.5563 
  426400    301.65886   -1171.1386    6412.2495    11685.589    1822.9475 
  426500    302.05286   -1168.2922    6401.0091    11685.613    1836.6194 
  426600    299.67911   -1165.6788    6449.2242     11685.73    1965.0984 
  426700    300.24053   -1171.7341    6443.1901    11685.634    1959.9265 
  426800    296.39094   -1162.6009    6516.3807    11685.718    1914.3153 
  426900    300.67024   -1167.5798    6429.8685    11685.647    1937.9771 
  427000    302.18535   -1166.6734    6396.5762    11685.629    1930.8813 
  427100    302.59615   -1168.6703    6389.7455    11685.578    1868.2285 
  427200     298.2605   -1162.6969    6476.4063    11685.587    1871.7194 
  427300    297.84762   -1165.4029    6487.8196    11685.474     1864.852 
  427400    302.09617    -1164.527    6396.2041    11685.498    1807.5785 
  427500    301.23433   -1162.9324     6413.059    11685.536    1902.8642 
  427600    300.49732   -1164.5363    6430.3073    11685.435    1925.3799 
  427700    300.32657   -1161.9017    6431.3058     11685.42    1854.2055 
  427800    296.83641   -1163.1027     6507.145    11685.497    1910.8798 
  427900    300.79164   -1160.7136    6420.2245    11685.463    1929.8056 
  428000    295.46699   -1164.3796    6537.6082    11685.428      1943.36 
  428100    301.02558   -1159.5686    6414.0371    11685.418    1867.6783 
  428200    302.96921   -1162.6558    6375.6655    11685.482    1860.1665 
  428300    296.94015   -1163.8356    6505.7956    11685.631    1881.7395 
  428400    298.06689   -1159.8688    6477.6508    11685.524    1854.6012 
  428500    299.84741   -1163.0429    6442.8123    11685.549    1872.7534 
  428600    302.97447   -1166.0857    6379.0758    11685.575    1839.0146 
  428700    299.83185   -1162.3239    6442.4711    11685.595    1900.3224 
  428800    301.61846   -1161.8473    6403.7364    11685.505    1828.0534 
  428900    300.60188   -1171.0183    6434.6867    11685.566    1857.5097 
  429000    299.58786   -1164.7132    6450.1134    11685.635    1856.7134 
  429100    297.00325   -1161.6615    6502.2346    11685.592     1906.648 
  429200    303.82312   -1167.1228    6361.9063    11685.498    1950.8028 
  429300    302.07477   -1169.6036      6401.92     11685.68    1932.7644 
  429400     297.3344   -1164.9475    6498.4605    11685.606    1863.2702 
  429500    300.52681   -1165.4062    6430.6791    11685.567    1922.4803 
  429600    304.92565    -1167.577    6338.9785     11685.67    1924.1225 
  429700    296.21987   -1162.8927    6520.3393     11685.73      1945.21 
  429800    301.74952   -1167.7634    6407.0118    11685.664    1926.4216 
  429900    302.67315    -1165.019    6384.4692    11685.598    1930.6973 
  430000    298.36966   -1168.7536    6480.1851    11685.642    1950.6063 
  430100    299.88233   -1165.6123    6444.6992    11685.613    1850.9604 
  430200    299.58962   -1161.8331    6447.1319    11685.571     1883.554 
  430300    301.52726   -1167.9283    6411.8829    11685.622    1895.4796 
  430400    301.44264   -1160.8976     6406.615    11685.577    1874.8926 
  430500    297.62358   -1162.4547    6489.7434     11685.56    1888.3014 
  430600    300.93709   -1164.9634    6421.3861    11685.482    1920.1724 
  430700    299.07721    -1163.761    6459.8956     11685.46    1962.3864 
  430800    300.28844    -1163.793    6433.9891    11685.398     1921.328 
  430900    297.06542   -1161.8269    6500.9001     11685.42    1917.0443 
  431000    298.65807   -1162.2099    6467.3145    11685.476     1910.427 
  431100    300.83897   -1163.5056    6421.9923     11685.45    1967.1978 
  431200    301.19651   -1163.8021    6414.5685    11685.368    1914.2112 
  431300    300.30953    -1158.901    6428.5779    11685.329    1896.1488 
  431400    299.02415   -1155.7006    6452.8865    11685.378    1868.9036 
  431500    299.83141   -1154.4003    6434.3529    11685.391    1954.7736 
  431600    299.96458   -1162.6607    6439.7025    11685.325    1981.9152 
  431700    301.01034   -1160.6861    6415.3966    11685.335    1877.0277 
  431800    298.85604   -1162.0598    6462.9602    11685.501    1895.7681 
  431900    301.84331   -1163.8917    6400.9813    11685.509    1847.8425 
  432000    294.90462   -1171.7533    6557.0202    11685.452    1963.3232 
  432100    301.45133   -1166.9622    6412.4259    11685.509    1964.1568 
  432200     296.9918   -1168.7742    6509.5154    11685.515    2010.0186 
  432300    302.39095   -1158.7476    6384.0979    11685.469    1933.9432 
  432400    299.73634   -1162.8047    6444.9694    11685.572    1878.0152 
  432500    298.89912   -1164.4238    6464.4865    11685.584    1891.0931 
  432600    305.26567   -1167.6244    6331.6566    11685.565    1833.6707 
  432700    299.66875   -1165.6513    6449.3246    11685.636    1869.6615 
  432800    301.32032   -1167.2398    6415.6206    11685.627    1918.6945 
  432900    297.71644   -1171.7777    6497.1387    11685.616    1945.0938 
  433000    304.07425   -1164.1424    6353.7155    11685.653    1886.0982 
  433100    297.22888   -1172.9114    6508.7753    11685.703    1931.2692 
  433200    305.06502   -1164.9282    6333.2823      11685.6    1904.2593 
  433300    302.44892   -1168.5294    6392.7998    11685.628    1890.5746 
  433400    300.01268   -1161.6397     6437.974    11685.645    1931.5414 
  433500    301.42988   -1160.4038    6406.5164      11685.7    1986.2546 
  433600    300.07661   -1163.1863    6438.0825    11685.573     1948.508 
  433700     301.2677   -1157.7264    6407.0439     11685.44    1946.2575 
  433800    302.80171   -1168.8741    6385.5382    11685.558    1941.2337 
  433900    298.08731   -1166.8485    6484.2815    11685.611    1896.8368 
  434000    302.19786   -1161.5138    6391.0619    11685.542     1835.764 
  434100     300.3071   -1167.1933     6437.235    11685.642     1956.282 
  434200    298.47248   -1161.4055    6470.5424    11685.544    1821.0448 
  434300     299.1414   -1157.1675    6452.0005     11685.53    1858.7686 
  434400     302.5393   -1157.9176    6380.0409    11685.411    1879.0016 
  434500    298.69716   -1153.3444    6457.5534    11685.415     1896.584 
  434600    298.10475   -1153.8546    6470.7073    11685.403    1898.3858 
  434700    300.09832   -1163.9366    6438.1801    11685.384    1920.6017 
  434800    302.92388   -1158.6247     6372.485    11685.364    1827.7749 
  434900    295.75407    -1161.239    6528.2547    11685.347    1872.2206 
  435000    298.95287   -1156.1726    6454.8618    11685.359    1908.5477 
  435100    302.20846   -1163.0603    6392.1995    11685.359    1863.8252 
  435200    296.58874   -1162.4639    6511.6411    11685.341    1921.3055 
  435300     300.6312   -1157.9583    6420.8434    11685.409    1885.1409 
  435400    299.41195   -1160.5974    6449.5255    11685.405    1887.4966 
  435500    299.79528   -1157.9854    6438.7667    11685.447    1857.8118 
  435600    302.80928   -1162.5635    6378.8935    11685.386    1880.1582 
  435700    300.82184   -1163.1117    6422.0559    11685.541    1967.9799 
  435800    301.76867   -1168.4715     6407.152    11685.505    1895.8712 
  435900    297.93766   -1163.9079    6484.5466     11685.62    1943.0757 
  436000    303.24519   -1164.8453    6371.9935    11685.516    1912.4536 
  436100    299.24327    -1164.958    6457.6609    11685.576    1974.7437 
  436200    302.55807   -1167.0571    6388.9253    11685.557    1918.5443 
  436300    300.74593   -1161.6565    6422.3187    11685.638    1877.6502 
  436400    302.46751   -1163.3394    6387.1857      11685.6    1916.2884 
  436500    301.25703   -1162.5421    6412.2644    11685.617    1906.3148 
  436600    300.81287   -1162.6213    6421.8417    11685.626    1943.9805 
  436700    301.33674    -1162.951    6410.9793    11685.625    1884.1009 
  436800    299.75476    -1163.501    6445.2298    11685.529    1842.9898 
  436900     300.1313    -1163.289    6437.0159    11685.572    1894.4796 
  437000    298.57411   -1168.9213    6475.8519    11685.508    1904.9475 
  437100    298.62527   -1168.6857    6474.5378    11685.523    1878.7451 
  437200    302.42599   -1165.0303    6389.6196    11685.456     1885.328 
  437300    296.89054   -1157.6994    6500.5218    11685.433    1983.5552 
  437400    300.17031   -1159.8417    6432.6219    11685.458    1953.7084 
  437500    299.20559   -1159.5709    6452.9675    11685.465    1873.9953 
  437600    299.41628   -1156.7447    6445.6644    11685.489    1930.1537 
  437700    300.34176   -1155.8306    6424.8788    11685.389    1904.0025 
  437800    306.06425   -1161.6968    6308.4487    11685.345    1832.3208 
  437900    299.87789   -1156.9844     6435.913     11685.36     1877.796 
  438000    296.44905   -1161.0659    6513.3327    11685.446    1935.9942 
  438100    301.02985   -1158.9123    6413.2727    11685.401    1889.3648 
  438200    302.20139    -1157.381    6386.7657    11685.454     1952.854 
  438300    300.40342   -1158.2767    6426.0526    11685.434    1948.0815 
  438400    297.87495   -1151.5325    6473.2683    11685.377    1892.2223 
  438500    299.42424   -1159.6446    6448.2677    11685.363    1878.4118 
  438600    296.71046    -1158.832    6505.5251    11685.457    1907.9198 
  438700    302.87687   -1166.3412    6381.3422    11685.501    1880.4346 
  438800    301.52704   -1165.7968    6409.5956    11685.461    1861.6822 
  438900    295.19061   -1165.1024    6544.2904    11685.483    1888.3634 
  439000    300.94686   -1162.0106    6418.2034    11685.461    1869.5583 
  439100    302.56247   -1159.1768    6380.9272    11685.533    1847.4052 
  439200    296.33821   -1162.5732    6517.3133    11685.551    1954.4962 
  439300    302.99869   -1166.8191    6379.1607    11685.444    1938.0243 
  439400    297.39508   -1157.5316    6489.6814    11685.539    1958.7478 
  439500    301.09346   -1169.3228    6422.5195    11685.596    1937.9778 
  439600    303.50586   -1160.6543    6362.4084    11685.691    1989.2247 
  439700    297.47004     -1170.19    6500.8261    11685.627    1951.7197 
  439800    303.29595   -1164.7986     6370.917    11685.571    1865.0676 
  439900    299.90832    -1162.013    6440.4021     11685.47     1895.226 
  440000    301.56887   -1162.9221    6405.8013    11685.435    1859.3175 
  440100    301.13459   -1162.5965    6414.7247    11685.407    1905.5552 
  440200    302.81683   -1161.5451    6377.8064    11685.478    1880.1516 
  440300    301.40598    -1169.295    6415.7079    11685.489    1861.5663 
  440400    299.48669   -1159.9382    6447.2934    11685.429      1921.78 
  440500    298.39442   -1156.5776    6467.2539    11685.415    1899.8726 
  440600    298.36053   -1155.7838    6467.2336    11685.465    1875.3928 
  440700    302.46905   -1164.9703    6388.6415    11685.458    1952.2055 
  440800    301.90655   -1155.2628    6390.8495    11685.357    1891.0837 
  440900    296.08722   -1161.7302    6521.6653    11685.384    1909.5505 
  441000      301.788   -1162.8292    6401.0211     11685.43    1895.2864 
  441100    300.66692   -1163.0532     6425.108    11685.342    1887.8248 
  441200    295.72796    -1155.987    6523.5836    11685.371    1939.2239 
  441300    304.32647   -1161.7882    6345.6909    11685.371    1858.4869 
  441400    300.49867   -1163.3509    6429.1915    11685.534    1903.5817 
  441500    299.03155   -1163.5521    6460.6976    11685.496    1860.2071 
  441600     300.3759   -1161.4401    6429.8401     11685.47    1856.6453 
  441700    300.46262   -1162.4688    6429.1421    11685.596    1972.6598 
  441800    300.30782   -1160.9621     6430.942    11685.596     1980.513 
  441900    301.81068   -1160.8955     6398.733     11685.56    1942.4015 
  442000    299.03727   -1160.5916    6457.7288     11685.61    1998.3498 
  442100    299.27661   -1164.0835    6456.1835    11685.686    2010.1938 
  442200    304.91216   -1162.7562    6334.4079    11685.632    1941.2642 
  442300    300.04517   -1166.0097    6441.5971    11685.592    1997.0974 
  442400    299.25063   -1169.9035    6462.5679    11685.695    2004.8712 
  442500    301.48505   -1165.2186    6410.2488    11685.796    1911.3875 
  442600     297.4764   -1162.4561    6493.0336    11685.704    1948.0015 
  442700    302.81478   -1167.6988    6384.2448    11685.719    1948.6479 
  442800    295.77344    -1169.286    6536.2228    11685.682    1964.1095 
  442900    301.81359   -1168.4494    6406.3715    11685.706    1879.8506 
  443000    297.89953   -1160.5914    6481.9495    11685.524    1934.2825 
  443100    303.48285   -1167.7367    6369.7794    11685.488    1879.7288 
  443200    300.20316   -1162.2504    6434.4393    11685.569    1875.5117 
  443300    301.55392   -1163.0547    6406.3459    11685.528    1916.3138 
  443400    300.87967   -1165.7285    6423.3781    11685.482    1902.7263 
  443500    301.01857   -1155.9725    6410.6114    11685.439    1855.4949 
  443600    300.35081   -1161.6793    6430.6918    11685.547    1881.5776 
  443700    298.29124   -1161.7706    6474.7622    11685.526     1976.452 
  443800    302.64921   -1161.6727    6381.5191    11685.482    1891.6194 
  443900    300.81352   -1161.4643    6420.4888    11685.444    1902.7498 
  444000     299.9624   -1163.0665    6440.2863    11685.456    1935.9132 
  444100    297.67018    -1156.775     6482.936    11685.428    1947.1617 
  444200    303.57075   -1152.5907    6352.6724    11685.405     1920.619 
  444300    296.44434   -1158.6606    6511.0876    11685.506    2035.3814 
  444400    304.26611   -1160.2053     6345.486    11685.459      1957.56 
  444500    299.30928   -1154.2602    6445.5078    11685.531    1993.2206 
  444600    299.77798    -1164.505    6445.6991    11685.491    1865.6776 
  444700    300.91751      -1162.1    6418.9991     11685.54    1906.7834 
  444800    303.13417   -1165.9137    6375.4588    11685.542    1857.2349 
  444900    298.86886   -1165.4299    6466.0712    11685.516     1894.575 
  445000    298.22297   -1165.6254    6480.0912    11685.542    1916.0021 
  445100    300.47891   -1165.4096    6431.6563    11685.518    1875.5087 
  445200    299.94801   -1166.6567    6444.2394    11685.512    1881.0925 
  445300    303.46469   -1161.7592    6364.2472    11685.545    1890.2553 
  445400    297.77181   -1160.6279    6484.7019    11685.512    1898.5702 
  445500    305.38175    -1164.806    6326.3102    11685.517    1884.2153 
  445600    298.40961   -1168.7492    6479.3031    11685.617    1912.6302 
  445700    300.12353   -1171.4991    6445.4832    11685.663     1875.453 
  445800    299.22677   -1170.7627    6463.9551    11685.713    1951.9221 
  445900    303.07042    -1173.019    6384.0356    11685.651    1893.8963 
  446000    301.02308   -1167.6716    6422.4253     11685.65    1855.8528 
  446100    302.90769   -1166.8567    6381.2936    11685.595     1877.363 
  446200    297.12893   -1156.5321    6494.3581     11685.53    1944.1265 
  446300    301.11642   -1156.8354    6409.4611    11685.516    1981.7635 
  446400    303.73297   -1160.2789    6356.9844    11685.494    1926.6806 
  446500    301.90563   -1161.8702    6397.5234    11685.404    1843.1395 
  446600    297.34961   -1159.6824    6492.7274    11685.463    1920.9196 
  446700    300.84989   -1160.2458    6418.4875    11685.438    1847.8186 
  446800    298.69396   -1160.8259    6465.1624    11685.475    1922.2862 
  446900    299.91621   -1168.6126    6446.8218    11685.459    1924.0234 
  447000    296.63365   -1160.6057    6508.8759    11685.393    1863.9652 
  447100      300.654   -1164.1745    6426.6021    11685.439    1871.6242 
  447200    299.76403   -1164.5005    6445.8773    11685.375    1918.1196 
  447300    300.12584   -1161.0953    6434.7086    11685.341    1904.3282 
  447400    302.80118   -1157.7762     6374.154     11685.26    1833.7381 
  447500    296.35642   -1152.4581     6506.545    11685.287    1875.6382 
  447600    301.62434   -1153.2287    6394.7827    11685.295    1901.4095 
  447700    303.16985   -1164.6104    6373.2682    11685.416    1905.6103 
  447800    298.25931   -1166.4282    6480.0888    11685.513    1963.3985 
  447900    299.53115   -1169.2606    6455.7613    11685.524    1907.4134 
  448000    300.60099   -1171.0811    6434.7761    11685.574    1825.5193 
  448100    299.94241   -1170.9829    6448.8487    11685.675    1925.9715 
  448200    303.27453   -1163.1669    6369.8487    11685.677    1911.4341 
  448300    300.53536   -1158.2411    6423.3909    11685.627    1911.0962 
  448400    299.18899   -1154.1242    6448.0639    11685.653     1967.622 
  448500    300.21443   -1165.7347    6437.7628    11685.649    1925.0821 
  448600    303.39983   -1165.1679    6369.1684    11685.672    1970.3957 
  448700    300.85831   -1169.9142    6428.2729    11685.735    1956.2293 
  448800     298.3368   -1171.8311    6484.0133     11685.69    1888.1911 
  448900    302.52788   -1167.7401    6390.5153    11685.819    1877.2623 
  449000     299.7607   -1167.1695    6449.0489    11685.807    1871.9066 
  449100    300.89717   -1170.8903    6428.4272    11685.743     1931.893 
  449200    300.11324   -1171.8302    6445.9568    11685.586    1912.5914 
  449300    298.73024   -1161.0575    6464.7937    11685.649    1929.7601 
  449400    300.19102   -1156.1196    6428.4679    11685.469    1906.1717 
  449500    300.78316   -1159.1281    6418.7921    11685.435    1875.7819 
  449600    299.66143   -1161.9671    6445.6512    11685.491    1861.5979 
  449700      301.142   -1154.0118    6406.0926    11685.518    1857.4292 
  449800     299.4412   -1164.8587    6453.1929    11685.436    1829.5315 
  449900    296.29051   -1159.7653     6515.346    11685.373     1755.831 
  450000    302.60925   -1160.2209    6380.8365    11685.398    1808.4797 
  450100    298.54076   -1157.2076    6464.6995    11685.357     1873.746 
  450200    301.07562   -1156.8524    6410.1377    11685.304    1882.2224 
  450300    305.48529   -1154.2576    6313.2875    11685.254     1868.376 
  450400     295.3785   -1154.8249    6529.7806    11685.264     1940.668 
  450500    301.24121   -1154.0934    6403.8185    11685.281    1863.2434 
  450600     300.0516   -1150.0483    6425.1119    11685.206    1806.0407 
  450700    299.92412   -1156.4158    6434.2925    11685.295    1934.3562 
  450800    298.59663   -1158.2887    6464.5618    11685.332       1880.3 
  450900    301.41083   -1156.0477    6402.2454    11685.378    1754.0129 
  451000     300.2896   -1161.9081    6432.0896    11685.408    1800.6172 
  451100    300.39488   -1159.0299    6427.0664    11685.512    1832.9278 
  451200    297.29438   -1166.5692    6500.8175    11685.487    1794.4501 
  451300    301.21671   -1162.0858     6412.526    11685.473     1847.459 
  451400    298.13718   -1162.1724    6478.4582    11685.529    1896.2499 
  451500    300.06036   -1165.9944    6441.2663    11685.601    1909.2601 
  451600    302.61003   -1164.9866    6385.6983    11685.511    1813.0057 
  451700    303.31134   -1162.7925    6368.5757    11685.565    1862.8854 
  451800    299.47989   -1167.9829    6455.7287    11685.674    1887.0023 
  451900    300.87878   -1173.9554    6431.8669    11685.725    1794.0818 
  452000    298.59556   -1173.3489    6480.0276    11685.715    1916.3529 
  452100    305.49527   -1171.0726    6330.3375    11685.703    1886.8667 
  452200    295.04016   -1165.9818    6548.6635    11685.762    1859.5226 
  452300    304.02201   -1167.1311    6357.9742    11685.807    1913.6475 
  452400    297.49419   -1163.3944    6493.5285    11685.641    1982.2759 
  452500    302.60604   -1166.6303    6387.6043    11685.688     1945.522 
  452600     301.9108    -1165.679    6401.4573    11685.639    1933.2171 
  452700    295.92575   -1158.0948    6521.8219    11685.727    1900.9993 
  452800    298.58847   -1168.5053    6475.2771    11685.656    1843.5417 
  452900    301.56918   -1166.1054    6409.0896    11685.547    1802.2632 
  453000    298.33496   -1168.9966    6481.0823    11685.554    1911.6329 
  453100    303.05499   -1161.6846    6372.8327    11685.453    1849.1696 
  453200    299.04534   -1157.2336    6454.0059    11685.417    1816.7936 
  453300    300.69029   -1154.3184    6415.9138    11685.382    1905.2584 
  453400    299.92235   -1157.4384    6435.4817    11685.424    1935.0292 
  453500    302.00319   -1157.6324    6391.0979      11685.3    1837.4178 
  453600    296.88972   -1154.8701    6497.6401    11685.363    1895.2049 
  453700    301.56652   -1155.8436    6398.6185    11685.281    1867.5037 
  453800    301.95107   -1157.3666    6392.0075    11685.362    1833.9541 
  453900    296.43455   -1155.8828    6508.4043    11685.391     1905.112 
  454000    301.49289   -1153.1831    6397.5824    11685.332    1837.1964 
  454100    297.13695   -1156.7252    6494.2265    11685.376    1881.3515 
  454200     294.6792   -1158.7788    6548.8434    11685.434    1848.0195 
  454300    302.02713   -1163.0279    6396.1155    11685.434    1841.7312 
  454400    301.67417   -1158.8922    6399.4667     11685.38    1910.6527 
  454500    299.93896   -1162.2032    6439.9355    11685.468    1850.5341 
  454600    296.95955   -1162.2163    6503.6832    11685.552    1855.3747 
  454700    303.66863   -1162.4905     6360.561    11685.485    1872.0041 
  454800    296.63514   -1159.1751    6507.5813    11685.561    1912.8061 
  454900    307.71958   -1165.0914    6276.6869    11685.552    1860.3342 
  455000     300.7093   -1172.8528    6434.3826    11685.723    1820.2494 
  455100    299.02035   -1166.9427    6464.5193    11685.688    1765.7188 
  455200    303.63503   -1167.8476    6366.8121    11685.661    1769.7305 
  455300    302.12229   -1161.4939    6392.7715    11685.657     1878.155 
  455400    298.94003   -1164.8716     6464.086    11685.609    1918.2377 
  455500    299.49631   -1165.5303    6452.9409     11685.69    1899.1471 
  455600    304.40449   -1168.6072    6351.1525     11685.68    1902.3358 
  455700    299.95553   -1171.7675    6449.3404    11685.663    1935.2985 
  455800    300.72347    -1166.627    6427.7015     11685.57    1923.2028 
  455900     300.1052   -1170.9924    6445.3966    11685.691    1946.4601 
  456000    301.82085   -1170.3368    6408.0674     11685.67    1853.7175 
  456100    300.51267   -1166.6769    6432.2764    11685.592    1906.4978 
  456200    300.45064   -1162.9142    6429.8759    11685.629    1924.1286 
  456300    300.73324   -1165.6049    6426.4331    11685.532    1911.7011 
  456400    301.11565   -1155.5102    6408.1263     11685.49    1889.9798 
  456500    295.82847   -1160.5948    6526.1657    11685.492    1947.5925 
  456600    298.43436   -1165.1925    6475.1429    11685.543     1870.018 
  456700    300.94384     -1160.72    6417.0096    11685.493    1864.3594 
  456800    299.24067   -1158.0815     6450.667    11685.403    1871.6788 
  456900    301.66519   -1163.2657    6404.0252    11685.373    1921.9527 
  457000    300.69896   -1162.2057    6423.5934     11685.36    1874.9421 
  457100    298.39026   -1157.6614    6468.4124    11685.401    1853.5779 
  457200    301.09601   -1158.1511     6411.073    11685.376    1866.1823 
  457300    300.31555   -1159.2064    6428.7774    11685.352    1908.3678 
  457400    301.30861   -1162.2439    6410.6053    11685.358    1842.9996 
  457500     298.6611   -1160.4813    6465.4649     11685.42    1883.2608 
  457600    300.15625   -1163.4013    6436.4859    11685.462    1865.2789 
  457700    297.91781   -1166.3974     6487.306    11685.466    1908.0314 
  457800    300.59869   -1168.5391    6432.2795     11685.57     1936.339 
  457900    301.80439   -1168.0856    6406.0604    11685.562    1930.2488 
  458000    300.10042   -1165.9021    6440.2978    11685.581    1880.6538 
  458100    298.19476   -1165.1097    6480.2458     11685.61     1890.945 
  458200    306.58331   -1162.5414    6298.4685    11685.609    1867.5018 
  458300    298.84333   -1162.2842    6463.6062    11685.651     1884.556 
  458400    300.80024   -1165.9606    6425.5253      11685.7    1860.8592 
  458500    299.69922   -1163.4771     6446.548    11685.685     1899.645 
  458600    301.23939   -1174.4831    6424.6041    11685.638     1874.651 
  458700    298.22448    -1167.877     6482.476    11685.707    1916.3436 
  458800    302.28234   -1170.7228     6398.689    11685.765    1915.4043 
  458900    298.43552   -1172.6483    6482.7388    11685.707    1868.7972 
  459000    302.45759   -1172.6653    6396.7446    11685.622    1848.5797 
  459100    301.48802   -1169.9938    6414.7857    11685.621    1844.8656 
  459200     299.2353   -1164.5193    6457.4803    11685.664    1836.1553 
  459300     302.1741   -1162.5788    6392.7057    11685.613    1916.8477 
  459400    299.97889    -1162.974    6439.8941    11685.509    1906.3724 
  459500    300.11043   -1164.0552    6438.2517    11685.595    1842.8438 
  459600    300.00712   -1158.8152    6435.1333     11685.51    1835.3254 
  459700    300.80181   -1162.5914    6421.8586    11685.436    1864.5705 
  459800    300.76102   -1164.2637    6424.4826    11685.517    1893.1135 
  459900    300.23833   -1158.9229    6430.2413     11685.45    1825.6165 
  460000    298.91692   -1163.2462    6462.8568    11685.512    1801.1813 
  460100    304.12349   -1159.3574    6347.7468    11685.521    1874.3965 
  460200    301.03036   -1164.2312    6418.5426    11685.363    1865.8325 
  460300    292.10417   -1154.3428    6599.3892    11685.404    1928.7094 
  460400    301.23304   -1160.1037    6410.0356    11685.314    1921.5421 
  460500    297.12939   -1158.1047    6495.7411     11685.35    1935.4943 
  460600    304.27895    -1159.554    6344.4339    11685.333    1832.0788 
  460700    297.83273   -1158.7307    6481.4018     11685.41    1881.9615 
  460800    301.83693   -1159.7192    6396.8742    11685.438    1894.6857 
  460900    301.82952   -1160.9124    6398.2255    11685.438    1845.0361 
  461000    303.07512   -1165.8924    6376.6013    11685.444    1830.2537 
  461100    299.55633   -1160.5057    6446.4602    11685.516    1837.7404 
  461200    294.93658   -1160.2889    6544.9591    11685.538    1873.7466 
  461300    301.11728   -1166.7119    6419.3637     11685.56    1859.6013 
  461400    301.96893    -1166.525    6400.9873    11685.565    1894.9302 
  461500    299.88529   -1159.5159    6438.4766     11685.55    1944.2117 
  461600    298.28748   -1166.3727    6479.4713    11685.553    1915.2388 
  461700    299.89243   -1168.0943    6447.0687    11685.716    1843.2628 
  461800    299.87672   -1171.8803    6451.1013    11685.627    1899.7518 
  461900    300.59954   -1172.9084    6436.7545    11685.694    1913.8957 
  462000    298.59575   -1174.5118     6481.178    11685.706    1912.1611 
  462100     299.0074   -1165.2041     6463.122    11685.752    1854.8688 
  462200    302.98986   -1169.0434    6381.7828    11685.653    1866.5705 
  462300      300.809   -1164.9352    6424.2545    11685.642     1892.822 
  462400    300.31316   -1166.3484    6436.3027    11685.684    1925.6692 
  462500    303.23503   -1167.4134    6374.8652    11685.603    1865.5853 
  462600    299.50402   -1166.0784    6453.2266    11685.592    1906.6573 
  462700    303.39178   -1168.0961    6372.1781    11685.582    1913.5146 
  462800    299.59223   -1165.0697    6450.3947    11685.653     1885.729 
  462900    300.21303   -1168.8256    6440.8594    11685.625    1931.4883 
  463000    299.84824   -1168.9198    6448.6919     11685.57    1893.8926 
  463100    299.16687   -1165.9699     6460.171    11685.442    1816.2936 
  463200    300.99841    -1164.616    6419.7854    11685.539     1819.924 
  463300    298.29807   -1158.0112    6470.7656    11685.435    1926.5123 
  463400    300.59238   -1161.7068    6425.3116      11685.3    1892.5801 
  463500    300.18495   -1158.6259    6430.9658    11685.331    1912.3049 
  463600    297.69586   -1160.3992    6485.9845    11685.401    1926.6935 
  463700    302.20887   -1157.0882    6386.2216    11685.362    1922.3404 
  463800    296.59782   -1160.3363    6509.2963    11685.317    1927.9981 
  463900    303.64161    -1160.388    6358.9719    11685.421    1844.7996 
  464000    298.12762   -1165.6374    6482.0519    11685.454    1854.6148 
  464100    302.05269   -1160.8959    6393.4634     11685.46    1859.1971 
  464200       301.13   -1162.9378    6415.1866    11685.429    1892.6154 
  464300    301.24875   -1159.5498    6409.2361    11685.404    1898.0256 
  464400    301.76451   -1160.6306    6399.3313    11685.436    1957.2608 
  464500    295.92849   -1158.2473    6521.6678    11685.479    1920.7903 
  464600      302.556   -1156.6234    6378.3415    11685.363    1872.8479 
  464700    299.83733   -1163.5665    6443.4425     11685.44    1879.6788 
  464800    303.90082   -1171.4772    6364.5538    11685.451     1847.608 
  464900    301.62015    -1167.922    6409.6732    11685.403    1828.6268 
  465000    297.19581   -1168.1109    6504.5638    11685.585    1878.7381 
  465100    297.30834   -1169.4558    6503.5023    11685.583     1891.421 
  465200    300.07526   -1163.6196    6438.4011    11685.429    1927.2083 
  465300    300.51833   -1164.3857    6429.8315    11685.559    1895.4025 
  465400    300.10544   -1162.5542    6436.8626    11685.601    1877.3537 
  465500    300.78892   -1161.4618    6421.0576     11685.49    1853.8262 
  465600    301.07191   -1163.3136    6416.9476    11685.573    1875.5778 
  465700    298.74773   -1167.2333    6470.4718    11685.525    1924.4007 
  465800    303.30596   -1166.7147    6372.6162    11685.568    1897.4033 
  465900    299.41401   -1163.8735    6452.9682    11685.616    1926.7702 
  466000    299.85196   -1168.8961      6448.59    11685.571    1901.6688 
  466100    298.36535   -1165.5815    6477.0403    11685.577    1893.9739 
  466200    298.74188   -1165.5505    6469.0922    11685.704    1981.2251 
  466300    296.62786   -1164.4674    6513.0245    11685.556    1961.4101 
  466400    306.16438   -1160.7088    6305.5091    11685.533    1904.9103 
  466500    301.92904   -1160.1203    6395.4448    11685.575    1935.6304 
  466600    299.85646   -1160.7053    6440.1627    11685.431    1898.6993 
  466700    300.96792    -1159.324    6415.0461     11685.44     1903.757 
  466800     301.3424   -1163.4503    6411.1917    11685.459    1915.0606 
  466900     300.5317    -1167.116    6432.2165    11685.499    1943.3472 
  467000    299.73782   -1170.3021    6452.4207    11685.557    1920.1483 
  467100    299.77039   -1165.3041    6446.6659    11685.496    1915.1728 
  467200     300.2241   -1166.7439    6438.4444    11685.528    1903.9635 
  467300      298.633   -1166.1775    6471.8607    11685.519    1926.2167 
  467400    303.19001   -1163.4015    6371.7587    11685.547     1857.324 
  467500    297.01694   -1160.5989    6500.8194    11685.532    1912.9569 
  467600    303.17575   -1154.1951     6362.748    11685.438    1883.9454 
  467700    299.05455   -1160.5971    6457.2275    11685.472    1937.8592 
  467800    300.38556   -1164.3117    6432.5264    11685.491    1897.6239 
  467900    300.63832   -1163.5825    6426.4928    11685.587    1893.0998 
  468000    299.66545   -1169.8547    6453.5727     11685.61    1920.7151 
  468100     301.4774   -1166.3459    6411.3549    11685.611    1867.5511 
  468200    298.85674   -1164.4245    6465.4528    11685.644    1912.7323 
  468300    301.51821   -1166.1963     6410.266    11685.544    1896.8117 
  468400    299.93164   -1165.9104    6443.8764    11685.545    1950.1886 
  468500    302.15931   -1164.6916    6395.0833    11685.562    1913.0953 
  468600    301.00016   -1163.6817    6418.7617    11685.487    1943.0985 
  468700    297.77152   -1159.6353    6483.6697    11685.466    1889.4146 
  468800    300.15423   -1158.5494    6431.7039    11685.489    1882.0537 
  468900    300.44502   -1164.0215    6431.0216    11685.547      1942.54 
  469000    301.25182   -1168.6022    6418.3916    11685.572     1923.874 
  469100    299.55143   -1165.7256     6451.847    11685.578     1850.894 
  469200    300.10364   -1162.5558    6436.8769    11685.575    1809.3608 
  469300    303.29785    -1163.827    6369.8802    11685.546    1896.0398 
  469400     298.0167   -1167.1753    6485.9445    11685.439    1925.4665 
  469500    301.91745    -1164.492    6399.8895    11685.401    1934.3836 
  469600    299.90117   -1163.3318    6441.8605    11685.457    1961.6195 
  469700     301.9468   -1157.5595    6392.3579    11685.428    1963.9408 
  469800    297.64239   -1163.3181     6490.087    11685.442    1987.6433 
  469900    302.25937   -1157.6699    6385.7896    11685.427    1897.0783 
  470000    297.52765   -1159.0153    6488.3001    11685.507    1937.2729 
  470100    301.66673   -1168.1869    6409.0716    11685.531    1906.1794 
  470200    300.75041   -1164.3519    6424.7958    11685.515    1947.5489 
  470300    296.12335   -1163.6833    6523.0459    11685.584    1940.0657 
  470400    299.80717   -1169.8349    6450.5053    11685.591     1890.259 
  470500    299.04676   -1161.2288     6458.099    11685.545     1858.985 
  470600    298.83611   -1159.1582    6460.4182    11685.435    1878.2521 
  470700    300.31028   -1155.4603    6425.1892    11685.397    1949.9375 
  470800    299.29424   -1160.8105    6452.3194    11685.471    1929.0263 
  470900    300.15514   -1154.9429    6427.9621    11685.373     1896.105 
  471000    297.68598   -1156.9058    6482.6255    11685.324    1904.7677 
  471100    302.46268   -1167.7062    6391.5671    11685.512    1873.0913 
  471200    299.94943   -1168.2621    6445.7468    11685.444    1860.0381 
  471300    301.53703   -1163.7117    6407.2194    11685.384    1882.3619 
  471400    302.15359   -1164.1024    6394.3924    11685.338    1892.3977 
  471500    299.46026   -1163.1658    6451.0248    11685.368    1875.9571 
  471600    301.29279   -1165.1941    6413.9054     11685.37    1943.3043 
  471700    300.46205   -1156.2052     6422.631    11685.337    1973.6901 
  471800    301.40884   -1158.2583     6404.497    11685.376    1885.7306 
  471900     299.0117   -1162.2333     6459.706    11685.399    1939.5436 
  472000    302.37234   -1162.8633    6388.5845    11685.442    1977.3939 
  472100    299.02332   -1167.3485    6464.6442     11685.47    1888.4547 
  472200    298.26971   -1166.3856    6479.9347    11685.624    1917.6581 
  472300    305.27969   -1167.5431    6331.2513     11685.54    1919.0532 
  472400    301.83782   -1167.5568     6404.759    11685.504    1945.2271 
  472500    299.23908    -1160.268    6453.0014    11685.517    1977.2062 
  472600    298.88883   -1165.8153     6466.106    11685.592     1992.316 
  472700    302.22062   -1162.1821    6391.2453    11685.543    1956.9104 
  472800    296.09233   -1159.4577     6519.482    11685.583    1962.7224 
  472900    300.18025   -1159.3947    6432.0899    11685.586    1890.0212 
  473000    299.52761   -1161.4302    6448.1028     11685.62    1903.3571 
  473100    298.53456   -1160.4785    6468.3541    11685.609    1894.8551 
  473200    301.65588   -1165.1266    6406.3801    11685.669    1943.9213 
  473300    297.13958   -1167.5706    6505.3193     11685.68    1870.7924 
  473400    298.94693   -1166.4157    6465.4932     11685.62    1787.9747 
  473500    299.89398   -1166.6118    6445.4739    11685.637    1821.6494 
  473600    305.47793   -1164.0907    6323.5875    11685.564    1807.1153 
  473700    296.31157    -1163.306    6518.5652    11685.501    1850.0089 
  473800    301.88929   -1159.1944    6395.3435    11685.551    1912.6021 
  473900    303.17957   -1161.8159    6370.2889    11685.439    1916.9118 
  474000    297.46601   -1162.8135    6493.3419    11685.433    1898.9114 
  474100    298.58275   -1151.7165    6458.4443     11685.49    1901.5441 
  474200    299.52627   -1161.5728    6447.9915    11685.338    1885.4884 
  474300    300.72244   -1155.8383     6416.731    11685.366    1893.4737 
  474400    303.79376   -1166.0262    6361.3593    11685.421    1903.1337 
  474500    297.95006   -1158.5155    6478.7409    11685.471    1894.1773 
  474600    301.42046   -1160.3794    6406.3317    11685.338    1871.2902 
  474700    299.94629   -1161.9433    6439.4285    11685.377    1918.0916 
  474800    300.74914   -1159.8904    6420.2957    11685.449    1967.2116 
  474900    301.34802   -1158.5211    6406.0823    11685.399    1958.6177 
  475000     299.3192   -1155.4754    6446.3198     11685.34    1896.9329 
  475100    298.17194   -1165.9909    6481.4857    11685.481    1921.3695 
  475200    300.92761   -1160.7547    6417.3135    11685.415    1869.6489 
  475300    301.37306   -1158.9436    6406.0139    11685.443      1925.67 
  475400     299.1903   -1165.7132    6459.3697    11685.398    1932.3192 
  475500    295.91431   -1160.1536    6523.8748    11685.476    1935.8892 
  475600    302.95394   -1164.0019     6377.439    11685.583    1876.4674 
  475700    301.61173   -1163.8536    6405.8962    11685.514    1910.9155 
  475800    301.78413   -1157.2294    6395.6434    11685.569    1952.5807 
  475900    299.49208   -1161.6722    6448.9967    11685.513    1897.1286 
  476000    302.96151   -1168.4888    6381.7656    11685.585    1834.4046 
  476100    300.58502   -1167.9194    6431.9681    11685.586    1908.3724 
  476200    298.26522    -1164.391    6478.0399    11685.628    1912.6891 
  476300    300.47235   -1165.8664    6432.3533    11685.618    1875.0008 
  476400    296.16168   -1162.9179    6521.4916    11685.614    2052.5784 
  476500    304.01533   -1165.6491    6356.4435    11685.615    1982.2368 
  476600    297.98379   -1158.2087    6477.8979    11685.656    1926.0023 
  476700     302.0959   -1157.7338    6389.5207    11685.602    1918.5752 
  476800    300.85795    -1162.106    6420.2551    11685.518    1975.4697 
  476900    301.14612    -1163.387    6415.3451    11685.483    1935.3137 
  477000    301.79701   -1163.8239    6401.9797    11685.586    1925.0472 
  477100     299.3106   -1162.5178    6453.6723    11685.466     1893.065 
  477200    298.83025   -1157.0087    6458.4407    11685.482    1872.2923 
  477300    300.46727   -1164.1911    6430.5567    11685.388    1890.6475 
  477400    297.39193   -1163.2125    6495.3792    11685.489    1979.3767 
  477500    302.25726   -1162.4208    6390.5346    11685.376    1917.1869 
  477600    301.69133   -1160.1001    6400.3659    11685.438    1922.4292 
  477700     299.0157   -1157.3052    6454.7221    11685.429    1962.9852 
  477800    302.25741   -1161.5893    6389.7655    11685.442    1964.7055 
  477900    295.08635   -1161.5371    6542.9525    11685.482    1936.9823 
  478000    300.14744   -1157.6215    6430.9478    11685.516    1942.8399 
  478100    303.05395   -1158.2464    6369.3024    11685.339    1892.8183 
  478200    299.41595   -1160.0995    6448.9674     11685.43    1957.0411 
  478300    298.37434   -1154.6215    6465.7451    11685.434    1961.8367 
  478400    300.22247   -1159.7606    6431.3822    11685.414    1938.1922 
  478500    301.65592   -1157.6626     6398.665    11685.418    1920.5546 
  478600    298.82616   -1163.7514    6465.1977    11685.409    1914.9297 
  478700    300.30505   -1164.8207    6434.6952    11685.431    1935.9356 
  478800    297.92464   -1161.9681    6482.8523    11685.587     2014.964 
  478900    298.96254   -1168.7142    6467.4348    11685.597    1917.4475 
  479000    302.48345   -1166.5486    6389.9286    11685.475    1930.3836 
  479100    298.41151    -1163.736    6474.1998    11685.568    1955.8716 
  479200    301.31208   -1157.4402    6405.8736    11685.504    1865.5176 
  479300     302.8178   -1161.8779     6378.103    11685.463    1915.7878 
  479400    300.52145   -1165.4522    6430.7941    11685.522    1950.0187 
  479500    299.22409   -1167.8907    6461.0135    11685.586    2036.2254 
  479600    300.38494   -1168.8036    6437.1394    11685.599    1937.5676 
  479700    298.38447   -1170.5916    6481.7051     11685.64    1954.0306 
  479800    297.96235   -1167.9776    6488.1191     11685.65    2003.5454 
  479900    302.43536   -1164.8616    6389.3967    11685.603     1933.365 
  480000    299.14126   -1163.2091    6458.1124    11685.597    1935.4926 
  480100    303.07294   -1161.0349    6371.9065     11685.56    1941.7327 
  480200    298.30474   -1162.5525    6475.2723    11685.543    1945.0826 
  480300    302.03423   -1161.3206    6394.3815    11685.559    1928.9079 
  480400    303.61147   -1158.5441    6357.8834    11685.533    1960.9527 
  480500    298.06435   -1165.5644    6483.4863    11685.609    1922.6935 
  480600    299.92676   -1162.9336    6441.0013    11685.543     1943.729 
  480700    299.70511   -1160.4863    6443.3057    11685.559    1913.3094 
  480800    302.84231    -1166.932     6382.727    11685.556    1928.9787 
  480900    297.88022    -1153.587    6475.3292    11685.496    1903.8643 
  481000    300.35813   -1154.9669    6423.6644    11685.388    1885.7007 
  481100    300.85182   -1161.3713     6419.571    11685.437    1912.3085 
  481200    296.96072    -1160.424    6501.7006    11685.387    1921.4093 
  481300    305.32067   -1161.5698    6324.1618    11685.299     1909.704 
  481400    299.28293   -1160.0767     6451.733    11685.377    1993.9004 
  481500    300.08235    -1160.997    6435.6398    11685.442    1936.1942 
  481600    300.37096   -1158.3544    6426.7923    11685.403    1949.5149 
  481700    299.31618   -1154.7501    6445.6997    11685.381    1918.5228 
  481800    299.50815   -1158.8483    6445.7679    11685.452    1915.7426 
  481900    299.65075   -1167.5452    6451.4815    11685.515    1884.3793 
  482000    299.35359   -1164.4255    6454.6499    11685.454    1849.4274 
  482100    300.12168   -1157.9242    6431.7324    11685.447    1840.1139 
  482200    297.88466   -1161.9919    6483.7256    11685.582    1932.6684 
  482300    303.22639   -1161.3798     6368.942    11685.529    1905.0832 
  482400    299.09273   -1163.5283    6459.4105    11685.539    1936.3872 
  482500    303.92445   -1165.8992    6358.5977    11685.578    1970.3862 
  482600    296.84537   -1168.6262    6512.5869    11685.607    1954.0552 
  482700    300.43689   -1171.7997    6439.1284    11685.702    1840.8117 
  482800    301.03606   -1161.6589    6416.0253     11685.54    1899.6903 
  482900     297.8392   -1167.0165    6489.7796    11685.641    1934.9444 
  483000    303.04943   -1166.3601    6377.7843     11685.61    1860.9212 
  483100    299.95111   -1162.4603    6440.0601    11685.595    1883.4605 
  483200    297.50118    -1163.697    6493.6434    11685.602    2009.0382 
  483300    301.68016   -1167.3735    6408.1368    11685.697    1918.9247 
  483400    301.73576   -1163.9588    6403.5171     11685.68    1874.7862 
  483500    299.45247   -1167.1008    6455.3525    11685.594    1980.9147 
  483600    305.87666   -1167.9039    6318.8803    11685.562    1926.7815 
  483700    299.58008   -1166.8211    6452.3372    11685.585    1878.5807 
  483800       298.04   -1164.3449    6482.7183    11685.541    1993.7538 
  483900     300.7024    -1163.592    6425.0682    11685.522    1912.1941 
  484000    297.44614   -1159.3862    6490.3755     11685.47    1887.5963 
  484100    304.78542   -1166.1572    6340.3158    11685.431    1899.6726 
  484200    299.93477    -1150.111    6427.8926    11685.428    1974.2893 
  484300    299.41408   -1157.6758    6446.4832     11685.33    1881.3556 
  484400    302.21975   -1154.3193    6383.3027    11685.445    1904.2545 
  484500    301.09072   -1156.9941    6410.0817    11685.429    1894.6633 
  484600    299.39675   -1158.1207    6447.2508    11685.282    1851.8217 
  484700    299.78496   -1151.8595    6432.8134      11685.4    1909.2652 
  484800    300.74111    -1161.491    6422.0251    11685.406    1911.5937 
  484900    297.97865   -1157.4521    6476.9061    11685.311    1818.9536 
  485000     302.9061   -1156.5693    6370.6877    11685.242    1873.6901 
  485100    298.31868   -1158.3462    6470.5186    11685.293    1903.4014 
  485200    301.65054   -1157.0031    6398.0472    11685.345    1861.9565 
  485300    300.45596   -1157.4856    6424.0454     11685.34     1882.263 
  485400    301.67654   -1160.3826    6400.9198    11685.394    1879.9686 
  485500    299.31189   -1160.5595    6451.6309    11685.411    1878.8621 
  485600    296.44036   -1161.3871    6513.8402    11685.447    1925.0688 
  485700    301.38238   -1159.5293    6406.3214    11685.364    1883.6245 
  485800    300.11596   -1159.7518    6433.6819    11685.447    1911.0754 
  485900    304.54117   -1167.3315     6346.725    11685.448    1866.9194 
  486000    296.52653    -1162.328    6513.0674    11685.574    1901.0398 
  486100    300.80134   -1158.5328    6417.8374    11685.464    1928.4798 
  486200    301.57648   -1166.1426    6409.0075    11685.584    1935.5469 
  486300    298.31129   -1166.0655    6478.6174    11685.515    1912.9095 
  486400    301.93718   -1170.1937     6405.383    11685.614    1923.9961 
  486500    298.50078   -1171.5553    6480.2415    11685.697    1931.8027 
  486600    301.81626   -1170.0148    6407.8163    11685.643    1895.7066 
  486700     300.9372   -1166.2561    6422.7593    11685.565    1891.9435 
  486800    299.54365   -1169.9455    6456.3065    11685.652    1980.3536 
  486900    301.37945   -1164.0174    6411.1322    11685.624    1889.5168 
  487000    297.03469   -1165.8957    6505.7943    11685.589    1912.6535 
  487100    300.34604    -1167.835    6437.0977    11685.695    1956.8387 
  487200    302.01281   -1171.5871    6405.1305    11685.584    1894.4001 
  487300    300.55259   -1164.3274    6429.0794    11685.597    1918.4123 
  487400    300.55564   -1158.6865    6423.3104    11685.534    1902.3691 
  487500    299.55385   -1163.0343    6449.0837    11685.558    1895.6243 
  487600    300.13389   -1165.5035    6439.1016    11685.498    1909.9486 
  487700    301.66477   -1162.8098     6403.649    11685.444    1916.2452 
  487800    297.53239   -1164.2258    6493.3548    11685.452    1942.9939 
  487900    298.99873   -1163.3707    6461.1901    11685.468    1845.6765 
  488000    302.01887   -1166.1427    6399.3438    11685.371    1878.1716 
  488100    298.41505   -1163.3905     6473.663    11685.452     1888.004 
  488200    301.70696   -1160.4599    6400.3507    11685.397    1884.9201 
  488300    299.07694   -1163.2433    6459.3934     11685.47    1896.3214 
  488400    300.20179    -1159.122    6431.1266    11685.355    1971.3025 
  488500    302.60689   -1157.3828     6377.965    11685.314    1970.3069 
  488600    299.96467   -1155.1931    6432.1306    11685.222    1919.9092 
  488700    299.30195   -1160.2067    6451.4053    11685.325    1963.5498 
  488800    301.74341   -1161.4048    6400.4176    11685.298    1911.0742 
  488900    301.12005   -1162.7538    6415.0412    11685.255     1854.791 
  489000    297.11178   -1166.7422    6504.8265    11685.421    1938.2712 
  489100    304.66432   -1167.1718    6343.8788    11685.393    1896.2241 
  489200    296.09981   -1163.4003    6522.9765    11685.294    1907.7418 
  489300    300.31676   -1160.7027       6430.2    11685.304    1864.2246 
  489400     299.4292   -1154.5406    6442.9893    11685.294     1917.063 
  489500    300.39942   -1158.2471    6425.9515    11685.277    1867.3928 
  489600    301.86029   -1154.9271    6391.4789    11685.334     1924.636 
  489700    301.20374   -1158.8714     6409.473    11685.357    1934.1138 
  489800    299.43955   -1154.2547    6442.4235    11685.235     1851.346 
  489900    300.56408   -1156.5707    6420.6919    11685.212    1768.8113 
  490000    301.20187   -1158.6046    6409.1407    11685.252    1784.2613 
  490100     300.5454    -1162.958    6427.4866     11685.22    1822.9097 
  490200    298.16871   -1160.1188    6475.4297    11685.228    1888.0488 
  490300    302.27256   -1159.9588     6387.549     11685.18    1951.2904 
  490400    299.67296   -1155.8701    6438.9618    11685.145    1934.5411 
  490500    300.53625   -1152.7863    6417.4084    11685.118    1863.7339 
  490600    297.86705   -1154.2496    6475.9483    11685.171    1924.7594 
  490700    302.53596   -1153.2873    6375.2263    11685.155    1895.4358 
  490800    301.96555   -1157.9035    6391.9948    11685.122    1889.7774 
  490900    299.26331   -1157.5258    6449.3905    11685.166    1891.0402 
  491000    298.88014   -1158.2343    6458.3188      11685.2    1861.3648 
  491100    297.96369   -1158.1432    6477.7397    11685.133    1888.8795 
  491200    298.58061   -1156.8579    6463.2956    11685.154    1948.8813 
  491300    305.18583   -1158.3669    6323.7566    11685.217    1923.5346 
  491400    299.19668   -1156.2926    6449.7443     11685.33      1963.27 
  491500    299.88947   -1154.9903    6433.6661    11685.354    1930.2495 
  491600    302.23933   -1153.6883    6382.1927    11685.384    1880.2808 
  491700    299.01058   -1156.1632    6453.7324    11685.471    1929.7593 
  491800    303.67997   -1158.8513     6356.621    11685.426     1909.669 
  491900    298.65176   -1163.7611    6468.9349     11685.41      1884.14 
  492000    297.99577   -1158.9334     6478.197    11685.486    1888.0602 
  492100    303.67274   -1168.0501    6366.1282     11685.58    1863.7706 
  492200    300.69804   -1162.7215    6424.3426    11685.573    1916.2616 
  492300     299.9861   -1164.7366    6441.5734     11685.58    1974.0743 
  492400    299.75458      -1164.9    6446.7082    11685.605    1984.8869 
  492500    297.32529    -1165.004    6498.7137    11685.608    1940.3951 
  492600     301.7205   -1168.8054    6408.5956    11685.586    1896.4679 
  492700     301.5128   -1169.5937     6413.818    11685.583    1912.0589 
  492800    302.70655   -1163.6168    6382.4032    11685.647    1856.7526 
  492900    300.99919   -1168.9306    6424.2205    11685.676     1912.145 
  493000    301.19022   -1165.2784    6416.4893    11685.678     1932.469 
  493100    299.66013   -1165.0721    6448.9525    11685.659    1923.8505 
  493200     300.5757   -1168.9652    6433.2722    11685.646    1919.3647 
  493300    300.90249   -1160.3025    6417.6258    11685.643    1944.7673 
  493400     302.3502   -1163.3815    6389.6384    11685.505    1914.1299 
  493500    297.70241   -1162.2594    6487.7952    11685.491    1911.0941 
  493600    302.62097    -1159.037    6379.5052    11685.501    1875.7162 
  493700    302.30903    -1163.756     6390.823    11685.435    1929.8308 
  493800    296.85002     -1159.21    6502.9271    11685.462    1940.9502 
  493900    301.86664   -1161.7777    6398.3017    11685.442      1819.55 
  494000    301.81406   -1154.5815    6392.1966    11685.409    1883.1989 
  494100    299.08737   -1161.7749     6457.595    11685.363    1902.4785 
  494200     299.2937   -1154.0655    6445.5417    11685.427    1838.9676 
  494300     299.8731   -1159.3847     6438.443    11685.387    1913.4422 
  494400     301.2631   -1156.5364    6405.8422     11685.33    1883.0442 
  494500    298.47156   -1154.3792    6463.2772    11685.285    1881.3866 
  494600    301.84274    -1152.865    6389.7571    11685.299     1922.588 
  494700    297.66937   -1152.8723    6479.0238    11685.401    1915.9567 
  494800     303.5357   -1159.3517    6360.1398    11685.363    1867.1645 
  494900    297.45563   -1158.5343    6489.2327    11685.382    1915.1394 
  495000    303.63211   -1158.7466    6357.4189    11685.306    1870.1771 
  495100    300.21336   -1162.0066    6433.8117    11685.403    1838.5094 
  495200    299.76318   -1160.8066    6442.2697    11685.443    1827.4715 
  495300    302.31103   -1161.6424    6388.6856    11685.454    1848.2433 
  495400    297.89624   -1163.3931    6484.7335    11685.437    1896.2712 
  495500    301.94916   -1164.9907    6399.8402     11685.53    1887.0869 
  495600    300.75561   -1161.3372    6421.6837    11685.529    1907.7178 
  495700    300.92428     -1165.07    6421.9027    11685.618    1900.4799 
  495800     295.9547   -1163.3728    6526.4705    11685.716    1812.1596 
  495900     300.3866   -1165.5561    6433.9822    11685.725    1812.6799 
  496000    301.14542   -1169.4483    6421.6677    11685.729     1868.438 
  496100    304.24813   -1172.6699    6358.5529    11685.677    1859.5653 
  496200    297.26819    -1171.022    6506.0212    11685.678    1843.6965 
  496300    300.53696   -1167.0348    6432.2123    11685.689    1818.7801 
  496400    298.16027    -1162.726    6478.5364    11685.547    1890.0596 
  496500    305.62727   -1159.7641     6316.094    11685.588     1897.202 
  496600    300.61954   -1165.0677    6428.3648    11685.572    1843.2551 
  496700    300.12124   -1165.1034    6439.0182    11685.545    1882.4603 
  496800    302.45429   -1165.1953    6389.1693    11685.446    1846.1964 
  496900    302.35412   -1173.0175    6399.1398    11685.454    1846.2558 
  497000    302.50425   -1164.2903    6387.2019    11685.451    1847.9244 
  497100    301.20057   -1157.7911    6408.5523    11685.449    1916.9427 
  497200    301.14452   -1163.2857    6415.2589    11685.464    1881.7249 
  497300    300.06245    -1153.875    6428.9005    11685.399    1826.6435 
  497400    298.97886   -1153.7175    6451.8275    11685.335    1838.6479 
  497500    298.33534   -1155.5614    6467.3126    11685.228     1849.784 
  497600     300.7664   -1152.0308    6411.8277     11685.21    1893.7962 
  497700    299.93669   -1155.8902    6433.5514    11685.348    1884.1719 
  497800    298.10178   -1156.5736    6473.4425    11685.356    1887.9692 
  497900    303.74705   -1155.5565    6351.7969     11685.33     1824.619 
  498000    299.00765    -1163.283     6460.746    11685.303    1796.3092 
  498100     295.4718   -1162.4075    6535.4881    11685.382     1895.814 
  498200    302.54605   -1158.7603    6380.6784     11685.35    1859.3669 
  498300    299.10868   -1156.2708    6451.6306    11685.358    1821.0305 
  498400    299.61226   -1153.3373    6437.9833    11685.402    1885.9678 
  498500    302.22878   -1152.6539    6381.3571    11685.357    1885.4002 
  498600    298.67348   -1160.6039    6465.3221    11685.419    1865.7254 
  498700    301.41422   -1158.1763    6404.3873    11685.463    1843.4213 
  498800    301.91936   -1166.0434    6401.5659    11685.566    1849.6566 
  498900    300.01122   -1167.3165    6443.6912    11685.654    1828.5363 
  499000    301.18925   -1168.2344    6419.4005    11685.612    1836.4397 
  499100    298.66305    -1166.209    6471.4602    11685.729     1830.047 
  499200    301.91201   -1159.4987    6395.2734    11685.662    1832.1005 
  499300    302.29254   -1167.7042    6395.3735    11685.686    1904.3433 
  499400    303.34205   -1164.7766    6369.9574    11685.618    1864.4377 
  499500     300.2643   -1158.6992    6429.6456    11685.632    1888.9215 
  499600    298.17097    -1168.506    6484.2049    11685.664    1922.3457 
  499700    300.54982   -1172.0152    6436.9158    11685.686    1910.0737 
  499800    299.75599    -1173.665    6455.5266    11685.688    1945.1718 
  499900    301.43202   -1176.2793    6422.3135    11685.667    1858.8221 
  500000    296.06306    -1176.914    6537.8276    11685.847    1907.6753 
  500100    301.11021   -1162.7304    6415.6477    11685.675    1876.1822 
  500200    303.28134   -1156.6976    6363.2033    11685.646    1888.5921 
  500300    300.22119   -1163.2505    6435.0263    11685.541    1921.2626 
  500400    300.30112    -1164.089    6434.1658    11685.549    1933.0421 
  500500    298.94255   -1164.1377    6463.1776    11685.489    1952.5686 
  500600    298.66674   -1165.4867    6470.3748    11685.445    1917.8193 
  500700    300.24788   -1160.6248    6431.7547    11685.465    1865.4885 
  500800    302.74586   -1163.4206    6381.1045    11685.385    1936.5827 
  500900    302.55438   -1160.0707    6381.7965    11685.336    1876.6015 
  501000    297.78105   -1157.8771    6481.6658    11685.424    1892.3816 
  501100    297.13965   -1160.3133    6497.7524    11685.372     1904.595 
  501200    299.40576   -1162.8868    6451.9017    11685.359    1975.3159 
  501300    298.38603   -1159.3038    6470.0819    11685.338    1878.0527 
  501400     301.1477   -1159.3065    6411.0444    11685.296    1873.2677 
  501500    301.07082    -1158.315    6411.7716    11685.373    1912.7652 
  501600    298.32647   -1160.6655    6472.7967    11685.419    1884.9193 
  501700    300.45189   -1160.7389    6427.4084    11685.363     1822.834 
  501800    299.70653   -1164.7899    6447.3694     11685.35     1832.306 
  501900    297.22664   -1166.5567    6502.2601    11685.494    1876.9078 
  502000    302.14344   -1164.1401    6394.7981    11685.489    1871.8875 
  502100    302.71824   -1159.1682    6377.5789    11685.521    1855.6604 
  502200    298.73105   -1159.1456    6462.6922    11685.477    1900.6307 
  502300    298.61936   -1165.5148    6471.5467    11685.576    1820.8342 
  502400    303.00206   -1159.2022    6371.7257    11685.698    1782.5586 
  502500     295.7926   -1166.4724    6533.0003    11685.683    1805.3978 
  502600    304.12745   -1170.5087    6358.9297    11685.637    1796.1475 
  502700    302.25584   -1166.9526    6395.4158    11685.695    1912.2943 
  502800    303.68021   -1170.1468    6368.1813    11685.696    1991.2023 
  502900    302.78478   -1164.9095     6381.956    11685.579    1972.9353 
  503000    298.76149    -1165.568    6468.6745    11685.687    1948.2754 
  503100    296.90635   -1162.2571    6504.9543    11685.646    1953.9331 
  503200    304.30034   -1163.9836    6348.6989    11685.625    1931.5592 
  503300    302.80143   -1163.1812    6379.8518    11685.559    1899.6442 
  503400    302.26837   -1166.3806    6394.5182    11685.638    1904.1179 
  503500     298.4562   -1164.9715    6474.5516    11685.639    1890.3386 
  503600    297.25452    -1166.964    6502.1217    11685.544    1876.0575 
  503700    302.43478    -1164.478    6389.0091    11685.586    1832.9603 
  503800     301.0919    -1163.907    6417.0867    11685.546     1857.532 
  503900    300.85211   -1163.5581    6421.7151    11685.401    1924.3284 
  504000    303.63592    -1157.389    6356.1627    11685.489    1911.5715 
  504100    299.52066   -1157.1072    6443.7918    11685.484    1974.2894 
  504200    303.45318   -1158.1195     6360.724    11685.416    1919.6239 
  504300    295.93956   -1161.2216    6524.3619    11685.435    1957.5437 
  504400    298.71819   -1156.8925    6460.6791    11685.443    1878.0282 
  504500    302.00281   -1161.5207     6395.147    11685.453    1801.4493 
  504600    294.51462   -1159.4641    6553.0462    11685.435    1911.4942 
  504700    302.31971   -1161.8941    6388.7578    11685.461    1895.5664 
  504800    299.85319   -1164.5624    6444.1175    11685.458    1898.0273 
  504900    298.75153   -1158.4047    6461.4205    11685.384     1823.719 
  505000    301.37467   -1156.6198    6403.6731    11685.461    1864.2485 
  505100    301.31626   -1151.7908    6400.0355    11685.404    1906.2167 
  505200    300.10628   -1159.8641    6434.0389    11685.485    1859.2877 
  505300    300.02631   -1158.6794    6434.5879     11685.51    1924.7791 
  505400    300.54754   -1165.0343    6429.8861    11685.589    1859.0031 
  505500    299.84168   -1166.3504    6446.2377    11685.545    1897.0146 
  505600     301.0779    -1168.381    6421.9748    11685.661    1903.6985 
  505700    298.93747   -1171.4901    6470.7838    11685.634    1880.8922 
  505800    299.16366   -1165.0504    6459.4643    11685.586     1837.158 
  505900    302.50539   -1162.9821     6386.024    11685.605    1850.1159 
  506000    299.16988   -1166.9932     6461.247    11685.559    1897.9306 
  506100    304.09531   -1164.9829    6354.0044    11685.551    1898.8968 
  506200    299.25135   -1164.2951    6456.8393     11685.59    1909.0203 
  506300    299.87669   -1168.6437    6447.9041    11685.666    1913.8443 
  506400    302.50959    -1166.713    6389.7356    11685.676    1893.9179 
  506500     298.1821   -1166.8225    6482.2922    11685.673    1916.5284 
  506600    304.68764     -1166.81    6343.2486    11685.623    1891.1711 
  506700    296.55528   -1164.5435    6514.8693    11685.774    1923.8406 
  506800     302.0922    -1170.374    6402.2104    11685.573    1836.9875 
  506900    297.34828   -1163.9414    6497.1282    11685.576    1945.8912 
  507000    302.87111   -1166.4242     6381.586    11685.538    1851.8908 
  507100    297.77707   -1161.4198    6485.4406    11685.571    1926.2838 
  507200    300.75431   -1166.2758    6426.7604    11685.639    1930.7899 
  507300    299.71171   -1162.1012    6444.8125    11685.592    1903.8635 
  507400    301.92045   -1167.7288    6403.2226    11685.561    1815.4253 
  507500    298.46601    -1162.703    6471.9903    11685.556    1860.8956 
  507600    301.77937   -1162.8278    6401.2974    11685.523    1888.0121 
  507700    299.19146   -1162.8967    6456.5726    11685.442    1813.3755 
  507800    304.62346   -1161.5337    6339.2391    11685.518    1877.3459 
  507900    298.15193   -1162.5299    6478.5283    11685.557    1973.9155 
  508000    298.62135    -1160.419    6466.3689    11685.537    1948.0202 
  508100    301.08713   -1166.5071    6419.6833    11685.441    1883.9753 
  508200    299.31063   -1159.7829     6450.968    11685.497    1926.7524 
  508300    302.19948   -1149.3328    6378.7656    11685.461    1883.3898 
  508400    300.70173   -1163.3781    6424.8322    11685.485    1927.9047 
  508500    302.10954   -1163.0859    6394.4919    11685.513    1850.4348 
  508600    298.02834   -1163.0293    6481.5969    11685.486    1937.9605 
  508700    303.42374   -1167.2995    6370.6435    11685.527    1911.5035 
  508800    297.09269   -1160.1857    6498.6702    11685.414    1945.8731 
  508900    299.74138   -1161.3413    6443.3945    11685.568    1972.9397 
  509000    302.11743   -1161.7859    6393.0549    11685.544    1939.4174 
  509100    299.81482   -1161.4303    6441.7876    11685.441    1903.1678 
  509200     297.3072   -1159.4001    6493.4055    11685.518    1900.6255 
  509300    303.25585   -1162.2095    6369.1461    11685.533      1871.35 
  509400    298.06112    -1165.458    6483.3878    11685.548    1910.5903 
  509500    301.14747    -1162.829    6414.8814    11685.606    1897.2721 
  509600    299.85406   -1164.6488    6444.3443    11685.617     1886.242 
  509700    299.85651   -1165.5387    6445.0972    11685.533     1846.458 
  509800    299.80434   -1162.7691    6443.5129    11685.604    1936.0429 
  509900    304.37093   -1166.0675    6349.1672    11685.518    1888.4304 
  510000    297.29606   -1162.5141    6496.7452    11685.505    1912.1839 
  510100    302.61197   -1165.8645    6386.5858    11685.562    1947.8985 
  510200    300.42024   -1160.7051    6428.2136    11685.526    1901.3963 
  510300    299.60555    -1158.727    6443.6113    11685.497    1915.3789 
  510400     300.4287   -1166.4616    6433.7152    11685.452    1922.4213 
  510500    295.50085   -1166.2073     6538.852    11685.567    1905.3934 
  510600    306.37194   -1165.0051    6305.3472    11685.508    1879.8915 
  510700    298.81256   -1167.5278      6469.36    11685.504    1957.3218 
  510800    298.78527   -1163.8255    6466.2426    11685.506    1899.0508 
  510900    301.13483   -1163.6768    6415.9219    11685.529    1846.2105 
  511000    300.45158   -1164.1544    6430.9849    11685.518    1916.1559 
  511100    301.37405   -1160.0096    6407.1113    11685.496    1894.5997 
  511200    300.91871   -1158.2545    6415.0786     11685.49    1884.0317 
  511300    300.78863   -1158.0272    6417.7144    11685.575    1925.7728 
  511400    298.32701    -1166.586    6478.8216    11685.534     1941.925 
  511500     301.4163   -1165.0617    6411.2487    11685.484    1892.0405 
  511600    300.51542   -1165.8186    6431.2807    11685.513    1914.5423 
  511700     301.7485   -1162.6557    6401.7186    11685.457    1857.8188 
  511800    298.96705   -1164.4136    6462.9652    11685.524    1973.5867 
  511900    302.87997   -1167.0925    6382.0788    11685.552    1899.8144 
  512000    302.28214   -1166.2504     6393.983    11685.527    1883.8193 
  512100    300.93656   -1158.2267     6414.638    11685.459    1968.4252 
  512200     299.0634   -1157.7911    6454.2819    11685.521    1915.1435 
  512300    302.17206   -1162.8357    6392.9228     11685.53    1878.8648 
  512400    301.45116    -1160.063    6405.5467    11685.525    1937.0188 
  512500    300.58785   -1162.5038      6426.38    11685.474     1927.677 
  512600    296.21166   -1164.2854    6521.6145    11685.437    1920.1584 
  512700    302.70002   -1168.4615    6387.2281    11685.488    1896.5615 
  512800    298.56988   -1165.3442    6472.2956    11685.439    1883.2675 
  512900    301.66938   -1159.9572    6400.7338     11685.48    1857.5094 
  513000    300.12222   -1157.0029    6430.7949    11685.443    1896.7932 
  513100    299.01362   -1163.7786    6461.2689    11685.457    1907.0082 
  513200    304.36435   -1152.3919    6335.5416    11685.427    1779.4585 
  513300     305.3145   -1159.7792    6322.6688    11685.466    1814.8681 
  513400    297.24117   -1156.7306    6492.1105    11685.481    1935.2831 
  513500     304.0513   -1159.3042    6349.1377    11685.423    1932.0158 
  513600    299.50033   -1161.8226    6448.9476     11685.49    1980.7943 
  513700    302.31409   -1160.8108    6387.8339      11685.5      1913.94 
  513800    301.18963   -1162.1225    6413.1698    11685.502     1835.796 
  513900     299.0679   -1165.5498    6461.9764    11685.553    1873.4437 
  514000    303.03854    -1163.671    6375.1438    11685.426    1956.9397 
  514100    297.21019   -1164.9516    6500.9547    11685.443    2013.3944 
  514200    301.86419   -1159.3694    6395.9732    11685.469    1864.2964 
  514300    296.05948   -1158.4834    6519.1597    11685.533    1904.3912 
  514400     300.0654   -1158.7637    6433.8771     11685.55    1895.0152 
  514500    302.43745   -1161.9041    6386.2819     11685.49    1839.2494 
  514600    296.36767   -1164.8149    6518.9291    11685.555    1947.6297 
  514700    303.06735   -1167.2184    6378.2797     11685.63    1927.0949 
  514800    296.38942   -1167.0417    6520.7337    11685.597      1942.59 
  514900    303.04731   -1169.8757    6381.3007    11685.566    1898.5154 
  515000    299.95948   -1163.3867    6440.8764    11685.664    1897.6921 
  515100    300.52883   -1163.9233    6429.2391    11685.653    1965.2703 
  515200    299.44667   -1160.4187    6448.7719    11685.572    1954.0112 
  515300    301.44957   -1160.1732    6405.7929    11685.627    1918.6098 
  515400    301.56588   -1170.5226    6413.6504     11685.62    1899.0284 
  515500    299.62726   -1165.1321    6449.6917    11685.636    1929.3198 
  515600    300.69054   -1162.7905    6424.5876    11685.589    1877.2477 
  515700    300.67749   -1168.9107    6430.9412    11685.544    1910.2463 
  515800    299.90845   -1169.1147    6447.5432    11685.512    1899.4781 
  515900    300.55657   -1166.9384    6431.4405    11685.432     1904.811 
  516000    301.44214   -1157.3232    6402.8655    11685.391    1944.8543 
  516100    301.79266    -1164.391    6402.4592    11685.405    1905.1896 
  516200    293.29794   -1159.3409    6578.8671    11685.387    1922.6739 
  516300    303.09929   -1155.1904    6365.2915    11685.352    1920.1687 
  516400    301.00281   -1159.8851    6414.8203    11685.398    1916.2592 
  516500    297.57905   -1159.4844    6487.6057    11685.441    1926.4563 
  516600    299.05692   -1160.9478    6457.4389    11685.383    1952.7489 
  516700    297.41491   -1154.4555    6485.9848    11685.343    1958.1086 
  516800     302.5024   -1163.7244    6386.5944     11685.37    1940.5535 
  516900    299.89279   -1160.2371    6438.8406    11685.353    1910.9469 
  517000    300.93254   -1157.2731    6413.5518    11685.241    1954.9707 
  517100      299.981   -1158.8034    6435.4671    11685.297    1922.4479 
  517200    299.07283   -1159.6688    6455.8083    11685.372     1906.696 
  517300    303.53697   -1165.0878     6365.846     11685.36    1830.3058 
  517400    295.26332   -1164.3827    6541.9758    11685.441    1912.4118 
  517500    298.09761   -1156.2499    6473.2925    11685.441    1884.0311 
  517600    300.84955   -1160.7118    6418.9633     11685.44    1966.9215 
  517700    301.51321   -1161.9177    6406.0803     11685.53    1993.1121 
  517800     297.2126   -1158.0944      6494.07    11685.467    1907.1398 
  517900     299.5039   -1160.5976    6447.6684    11685.512    1948.8838 
  518000    300.38464   -1164.9037    6433.2731    11685.626    1973.2781 
  518100    299.95681    -1166.412    6443.9619    11685.667    1891.6831 
  518200    301.15349   -1165.1477    6417.1731    11685.708    1908.1749 
  518300    302.87515   -1168.1187    6383.3378    11685.682    1885.5006 
  518400    299.49602   -1173.3504    6460.7766    11685.699    1850.0898 
  518500    298.57244   -1169.4758    6476.6473    11685.714    1841.5162 
  518600    298.49632   -1160.7253    6469.4891     11685.68    1902.9231 
  518700    301.44016   -1161.3931    6407.3017    11685.715    1853.6414 
  518800    302.20888   -1163.6971    6393.1102    11685.642    1816.6423 
  518900    299.38543   -1160.9101    6450.6694     11685.67    1892.9326 
  519000    300.32272   -1167.9124    6437.5666    11685.588    1878.5754 
  519100    299.52044    -1169.273    6456.1097    11685.631    1892.0019 
  519200     300.3532   -1167.1035    6436.2075    11685.689    1900.7372 
  519300    304.28524   -1163.4676     6348.483    11685.603    1846.2599 
  519400    299.87371   -1161.7554    6440.9621    11685.548    1843.3917 
  519500    300.46194   -1165.8397    6432.4733    11685.542      1802.51 
  519600    299.17403   -1167.1819    6461.3525    11685.565    1919.8435 
  519700    299.56252   -1163.3255    6449.0741    11685.442    1930.0957 
  519800    300.51534   -1161.4212    6426.7916    11685.419     1939.701 
  519900    300.01795   -1165.5281    6441.5576    11685.453    1922.3067 
  520000    300.18465   -1162.1554    6434.5616    11685.391    1972.8328 
  520100    301.32096   -1163.4859    6411.6332    11685.407    1913.7319 
  520200    300.10934     -1161.74    6435.7992    11685.435    1933.8471 
  520300     299.4653   -1163.6694    6451.5668    11685.514    1924.2249 
  520400    299.50261   -1160.0818     6447.114    11685.446    1918.2432 
  520500    300.83959   -1158.2945    6416.7639    11685.446    1938.8767 
  520600    300.17523   -1160.1377    6432.8229    11685.468    1977.6962 
  520700    298.07337   -1162.5873    6480.1921    11685.485    1971.4059 
  520800    302.86531   -1162.7115     6377.862    11685.403    1881.6137 
  520900    300.72669   -1160.5203    6421.4243    11685.468    1976.3455 
  521000     300.6303   -1168.1439    6431.0656    11685.427    1950.0586 
  521100    295.43821   -1164.4201    6538.3014    11685.465    1894.2182 
  521200     304.1577   -1169.8992    6357.6922    11685.656    1916.9284 
  521300    299.92596   -1168.1632    6446.3214    11685.616    2005.1725 
  521400     302.2502   -1172.1399    6400.6452    11685.617    1949.5573 
  521500    298.61744   -1163.8577    6470.0037    11685.649    2000.4962 
  521600    304.64687   -1164.6782    6341.9395    11685.574    1941.7748 
  521700    296.78498   -1165.7457    6511.0974    11685.707    1927.6058 
  521800    299.94184   -1165.0584    6442.9503    11685.689    1915.0409 
  521900    301.05213   -1170.7354    6424.8025    11685.584    1961.6912 
  522000    302.88702   -1169.6055     6384.529     11685.64    1921.4026 
  522100    298.07596   -1169.0059    6486.6731    11685.603    1927.0306 
  522200    300.94149   -1166.0193    6422.5252    11685.659    1896.8654 
  522300    302.82861   -1168.5892    6384.7313    11685.611    1887.2662 
  522400    298.71811   -1167.6759    6471.5778    11685.556    1926.8381 
  522500    303.43243   -1169.8426     6372.964     11685.49    1961.4049 
  522600    297.81449   -1151.4205    6474.6357    11685.565    1939.4709 
  522700    301.62958   -1158.2944     6400.015    11685.574    1902.9536 
  522800    299.41375   -1160.1345    6449.1097    11685.491    1975.3481 
  522900     300.4013   -1162.8179    6430.6444    11685.439    1921.2431 
  523000     302.2866   -1162.5561     6390.116    11685.449    1864.3203 
  523100    299.23509   -1164.9309    6457.7934    11685.561    1917.9596 
  523200    299.67555   -1162.1922    6445.5484    11685.465    1920.3184 
  523300    300.64722   -1158.9405    6421.4346    11685.361    1883.7191 
  523400    300.34743   -1157.7631    6426.7305    11685.429    1949.5263 
  523500    299.57265   -1159.9338    6445.4058    11685.382    2009.1123 
  523600    300.41156   -1153.7677    6421.2371    11685.302    1837.2618 
  523700    298.54049   -1156.9111     6464.423    11685.371    1920.7384 
  523800    298.16157   -1158.7012    6474.4061    11685.469     1984.021 
  523900    298.06169   -1155.9912     6473.744    11685.383    1905.9443 
  524000     300.8484   -1159.5301    6417.7987    11685.433    1947.0411 
  524100    302.82642   -1159.5205     6375.499      11685.4    1932.7438 
  524200    298.69743   -1158.5046     6462.739    11685.447    1889.2531 
  524300    297.15621   -1159.4255    6496.6123    11685.473    1905.9385 
  524400    301.43089   -1166.8284    6412.6937    11685.474    1926.9121 
  524500    294.77338   -1157.4778    6545.5741    11685.477    1907.7719 
  524600    302.54468   -1162.1172    6384.2011    11685.487    1910.0529 
  524700    300.18704   -1152.2979    6424.7633    11685.501    1937.1309 
  524800     300.9041   -1160.0624    6417.1268    11685.419    1952.0064 
  524900    298.13467   -1163.6671    6479.9977     11685.52    1989.0757 
  525000    299.86434    -1161.806    6441.2744     11685.61    1926.2838 
  525100    299.92463   -1169.0026    6447.1984    11685.625    1942.1546 
  525200      298.594   -1172.0787    6478.7747    11685.699    1947.3039 
  525300    300.01431   -1168.7558    6445.1495    11685.739    1893.0683 
  525400    304.55637   -1168.1148    6347.4147     11685.68    1810.1672 
  525500    297.71444   -1169.2043      6494.66    11685.668    1896.2884 
  525600    300.48097   -1168.0403     6434.475     11685.75    1952.3824 
  525700     302.5476   -1166.3418    6388.4977    11685.621    1955.6792 
  525800    299.09221   -1160.5272    6456.5415    11685.661    1968.3601 
  525900    296.94541   -1163.6128    6505.5075    11685.678    1975.3507 
  526000    302.48387   -1167.4563      6391.01    11685.658    1938.2009 
  526100    301.06941   -1166.9207    6420.7102    11685.675    1953.5997 
  526200    300.59611   -1167.9538    6431.8089     11685.63    1929.5829 
  526300    299.71404   -1170.1558     6452.856    11685.631    1908.0239 
  526400    298.67668   -1166.2549    6471.1375    11685.652     1932.905 
  526500    303.26786   -1167.2415     6373.881    11685.492    1889.6731 
  526600    301.69873   -1168.9776    6409.1514    11685.504    1866.3729 
  526700    296.89504   -1161.3704    6504.0719    11685.408    1941.7695 
  526800    301.07309   -1166.1912    6419.6885    11685.462    1959.8377 
  526900    298.52351   -1159.0175    6466.9865    11685.466    1910.1699 
  527000    298.55415    -1162.932    6470.1454    11685.365    1833.9491 
  527100    299.01348   -1166.3716    6463.8453    11685.438    1863.7047 
  527200    294.93974   -1158.1036    6542.6463    11685.478    1937.3852 
  527300    303.81583   -1161.1833    6355.9857    11685.361     1841.506 
  527400    299.57151   -1161.3019    6446.7609    11685.345    1948.9064 
  527500    299.82368   -1162.5291    6442.6155    11685.359    1915.3682 
  527600    298.23645   -1160.3508       6474.3    11685.313    1901.0563 
  527700    302.16448   -1163.0444    6393.0141     11685.25    1889.4773 
  527800    299.63295   -1160.1457    6444.3215    11685.374    1966.2961 
  527900    301.55612   -1154.9956    6398.0428    11685.331    1911.4043 
  528000    300.73549   -1158.5393    6419.2382    11685.451    1884.4578 
  528100     298.3866   -1160.4142    6471.2893    11685.447    1864.7629 
  528200     299.7059   -1165.6383    6448.3462    11685.465    1908.6062 
  528300    302.73899   -1166.3679    6384.2701    11685.456    1891.9811 
  528400    299.69487   -1165.5669    6448.4557     11685.41    1876.9456 
  528500    299.52216   -1164.3452    6450.9989    11685.485    1896.5951 
  528600    301.92711   -1161.9804    6397.2556    11685.484    1886.2537 
  528700    298.53016   -1161.1821    6469.0852    11685.542    1893.8908 
  528800    299.13154    -1163.974    6459.0486    11685.561    1936.0862 
  528900    303.04435   -1162.1223    6373.6381    11685.593    1946.6181 
  529000     299.6469   -1163.4587    6447.5873    11685.625    1938.6941 
  529100    298.88887   -1167.1299    6467.4353    11685.607    1884.7417 
  529200    302.52693   -1169.7015    6392.3541    11685.676    1859.7263 
  529300    301.24461    -1170.961    6421.0381    11685.706    1893.1535 
  529400     300.8507    -1166.649    6425.1972    11685.762    1850.0699 
  529500    300.01672   -1165.7295     6441.986    11685.653    1854.8879 
  529600    300.50169   -1166.0206    6431.8362    11685.573    1855.3733 
  529700    300.87973   -1163.5816    6421.2326    11685.485    1889.6875 
  529800    300.54679    -1159.687    6424.5155     11685.55    1907.8305 
  529900    301.49338   -1162.0841    6406.7484    11685.608    1904.0895 
  530000    299.42765   -1159.2808    6448.0304    11685.562    1845.8404 
  530100    298.31754   -1161.5947    6474.1051    11685.607    1908.9952 
  530200    300.24702     -1163.54    6434.8077    11685.585    1903.7223 
  530300    299.89194   -1165.7517    6444.5545    11685.534    1843.9287 
  530400    298.67697   -1167.9242    6472.6612    11685.512    1855.9852 
  530500    302.88997   -1162.7337    6377.4576    11685.503    1952.9786 
  530600    298.17409   -1156.9444    6472.2941    11685.382    1936.4123 
  530700    300.32577    -1156.502    6425.9548    11685.452    1827.7402 
  530800     297.8321   -1158.2341    6480.9408    11685.433    1877.2319 
  530900    301.68058   -1154.5769    6395.0318    11685.398    1926.1539 
  531000    302.53594   -1158.4483    6380.5376    11685.306    1915.6031 
  531100    297.69135   -1159.9691    6485.5593    11685.309    1938.2444 
  531200     301.8816   -1162.3235    6398.5465     11685.46    1895.3223 
  531300     300.8583   -1162.2473    6420.3252    11685.454    1939.6342 
  531400    300.68853   -1159.3559    6421.0825    11685.476    1866.6224 
  531500    301.48404   -1163.7129    6408.3372    11685.368    1936.8939 
  531600    297.34754   -1166.1713    6499.2971      11685.5    1932.2067 
  531700    299.62453   -1160.7747    6445.2848    11685.528    1924.6292 
  531800    301.59438   -1157.8463    6400.2843    11685.539    1947.3216 
  531900    299.68338   -1163.7861    6447.0517    11685.541     1984.153 
  532000    301.59076   -1156.8681    6399.4752    11685.631    1843.7797 
  532100    297.64233   -1163.6127    6490.5451    11685.604      1900.54 
  532200    301.30493   -1169.4826    6418.1575    11685.592    1922.4623 
  532300    302.19652   -1161.4619    6391.1646    11685.668    1976.9216 
  532400    300.70528   -1166.3169     6427.903    11685.693    1939.0686 
  532500    299.17977   -1165.1345    6459.2791    11685.661    1934.4994 
  532600    298.15873   -1166.0581    6482.0085    11685.654    1893.1141 
  532700    302.80584   -1166.2136    6382.8113     11685.58    1901.9726 
  532800    300.57562    -1166.712    6431.0609    11685.686    1968.7213 
  532900    302.68644   -1165.7981    6384.8727    11685.506    1896.9544 
  533000    302.18999   -1162.3714    6392.2065    11685.661    1868.2665 
  533100    299.93307   -1165.5042    6443.4489    11685.554    1879.8917 
  533200    299.17059   -1165.4551     6459.693    11685.559    1910.0896 
  533300    298.39635   -1164.5193    6475.2445    11685.505    1958.8434 
  533400    299.29465   -1164.9124     6456.424    11685.483    1887.6714 
  533500    304.98423   -1160.9781     6330.923    11685.465    1851.9234 
  533600    297.50239    -1163.124    6493.0469    11685.605    1935.1458 
  533700    298.48765   -1166.6895    6475.4815    11685.523    1880.8806 
  533800    300.40834   -1164.5673    6432.2603    11685.456    1942.2684 
  533900    301.67786   -1164.0929    6404.6681     11685.46    1955.8604 
  534000    301.15387    -1159.594    6411.5011    11685.598    1953.1234 
  534100    297.87923    -1161.117    6482.8478    11685.464    1933.5133 
  534200    298.39329    -1164.898    6475.6576    11685.474     1959.519 
  534300    302.40555   -1158.6967    6383.7448    11685.479    1930.1707 
  534400    303.87194   -1163.7509    6357.4502    11685.457    1859.6664 
  534500    294.54854   -1163.2573    6556.1116    11685.432    1856.1383 
  534600    302.06922   -1164.4695     6396.707    11685.483    1854.6616 
  534700    300.55601    -1159.601    6424.1117    11685.429      1886.63 
  534800    301.84332   -1161.3097    6398.3841    11685.494    1919.0235 
  534900    301.39379    -1162.104    6408.8301    11685.542     1869.187 
  535000    296.17363   -1161.4617    6519.7115    11685.545    1854.0896 
  535100    300.64854   -1163.5553    6426.1975    11685.537    1858.2607 
  535200    302.44451   -1168.7078    6392.9353     11685.49    1914.1449 
  535300     303.2503    -1166.497    6373.5481    11685.528    1920.1216 
  535400    298.68511    -1159.724    6464.2887    11685.514    1973.2444 
  535500    298.53133   -1162.3367    6470.2151    11685.542    1879.4414 
  535600     300.6978   -1164.4736    6426.1478    11685.621    1941.4041 
  535700    299.87272   -1160.5104    6439.7397     11685.55    1922.6994 
  535800    300.75071   -1161.7822    6422.2139    11685.509    1881.3916 
  535900    298.50389     -1167.14    6475.6204    11685.558    1871.3487 
  536000    298.79177   -1162.0351    6464.3415    11685.534    1929.3955 
  536100    302.28239   -1165.2231    6392.9092    11685.486    1892.2995 
  536200    300.94614   -1169.2496    6425.5936    11685.596    1955.2885 
  536300    298.73652   -1164.3708    6467.9617    11685.638    1958.6451 
  536400    299.67776   -1166.7785     6450.137    11685.514    1906.6916 
  536500    303.62215   -1168.2335    6367.4278    11685.616    1876.5249 
  536600      300.363   -1162.0379    6430.8208    11685.578    1905.5027 
  536700     304.3318   -1163.6599    6347.5569    11685.479    1844.5769 
  536800     298.2831   -1163.0668    6476.2309    11685.525     1935.031 
  536900    298.96011   -1163.7156    6462.3657    11685.474    1944.4484 
  537000    300.54434   -1164.2216    6429.0451    11685.492    1852.3978 
  537100    299.01017   -1163.1331    6460.7991    11685.559    1932.6158 
  537200    303.66787   -1167.1539    6365.2145    11685.459    1901.6704 
  537300    298.68041   -1160.4406    6465.0706    11685.479    1915.9772 
  537400    302.66223   -1170.6621    6390.2434    11685.495    1926.9056 
  537500    297.69475   -1162.0537    6487.7675    11685.505    1860.0309 
  537600    300.27308   -1167.1663    6437.7711    11685.479    1842.0973 
  537700    301.40839   -1162.4616    6408.7493    11685.416    1888.9177 
  537800    303.14833     -1164.71    6373.8769    11685.466    1911.8229 
  537900    300.78824   -1161.9412    6421.4663    11685.404    1867.9992 
  538000    302.13361   -1161.3643    6392.2023    11685.459    1853.7167 
  538100    295.42466   -1162.4974    6536.7232     11685.52    1949.5194 
  538200    302.91303   -1158.8903    6373.1641    11685.546    1913.6369 
  538300    299.36244   -1162.6385    6452.7071    11685.488     1952.626 
  538400    303.86355   -1169.2391    6363.1192    11685.459     1910.926 
  538500    299.31407   -1162.5109    6453.5476    11685.423    1895.6319 
  538600    300.91316    -1164.663    6421.6549     11685.54    1899.4262 
  538700    300.90286   -1162.1188    6419.2808     11685.49    1994.0852 
  538800    299.54909   -1165.8427    6451.9312    11685.495    2011.0291 
  538900    300.87383   -1162.7248     6420.585    11685.568    1932.0081 
  539000    301.88923   -1167.7639    6403.9271    11685.563    1905.1129 
  539100    298.14592   -1160.7035    6476.8826    11685.609    1884.0735 
  539200    303.91064   -1164.4274    6357.3683    11685.525     1886.058 
  539300     300.0633   -1164.7772    6440.0045    11685.619    1949.6211 
  539400    297.12707   -1161.5024    6499.5127    11685.674    1893.2731 
  539500    300.58245    -1163.696    6427.8431     11685.63    1894.6549 
  539600    302.63656   -1161.2796    6381.5303    11685.616    1858.5646 
  539700    300.49118   -1172.0751    6438.1639    11685.622    1883.0189 
  539800    302.25235    -1162.128    6390.6374    11685.667    1892.7278 
  539900    300.14334    -1164.457    6438.0372    11685.682     1960.044 
  540000     300.0156   -1165.7771     6441.996    11685.592    1922.8115 
  540100    299.61376   -1172.2387     6457.024    11685.574    1926.0303 
  540200     298.8568   -1164.2305    6465.1837     11685.57    1945.4176 
  540300    301.22905   -1165.1526    6415.3471    11685.491    1916.6291 
  540400     299.0424   -1160.9132    6457.8611     11685.53    1948.8455 
  540500    301.10105   -1162.9029    6415.8022    11685.461    1964.2964 
  540600    301.16704   -1166.3143    6417.7782    11685.436    2001.2692 
  540700    304.66428   -1159.6378     6336.414    11685.461    1905.7897 
  540800     298.2769   -1164.0976    6477.3803    11685.511    1956.9137 
  540900    298.27964   -1161.3689    6474.5158    11685.434    1852.5343 
  541000    301.95051   -1162.3236    6397.0479    11685.434    1887.1972 
  541100    299.17897   -1163.4091    6457.3631    11685.454    1914.7111 
  541200    303.32353   -1165.0275    6370.4193    11685.434    1840.6178 
  541300    296.64759   -1163.9679     6511.912    11685.365    1872.1293 
  541400    296.78006   -1162.1157    6507.2758    11685.411    1993.1765 
  541500    301.40745   -1161.3441     6407.668    11685.432    1901.5174 
  541600      299.323   -1160.1396    6450.9544    11685.391     1917.838 
  541700    303.38515   -1163.2456    6367.2457    11685.358      1926.37 
  541800    299.20936     -1160.56    6453.8759    11685.465    1941.2486 
  541900    300.35401   -1160.5386    6429.4414    11685.505     1913.894 
  542000    300.07293   -1160.7111    6435.5738     11685.46    1967.4192 
  542100    302.34971   -1162.4021    6388.6619    11685.498    1955.2156 
  542200    300.90026   -1165.1219     6422.257    11685.407    1844.4038 
  542300    300.72899   -1165.8111    6426.6502    11685.453    1875.0829 
  542400     300.1572   -1167.2704     6440.406    11685.534    1865.1092 
  542500    298.44349   -1160.0028    6469.6845    11685.469    1878.2723 
  542600    303.31217   -1163.5448    6369.2766    11685.531    1986.0295 
  542700     300.6182   -1159.2817    6422.4919    11685.457    1938.2432 
  542800    300.07417   -1160.8104    6435.6251    11685.439    1846.4855 
  542900     295.8867   -1159.6102    6523.9689    11685.524    1910.1993 
  543000    301.08924   -1168.7505    6422.0733    11685.633    1937.0808 
  543100    302.43214   -1167.0082    6391.6088    11685.599    1854.4172 
  543200    298.51605   -1165.1672    6473.3444    11685.515    1852.5177 
  543300    303.53577   -1169.9892    6370.9442    11685.531    1863.8084 
  543400     296.4915   -1163.8383    6515.2883    11685.536    1886.3814 
  543500    301.40368   -1165.7394    6412.2394    11685.527    1811.8864 
  543600    298.88977   -1165.4567    6465.7037    11685.568    1925.6543 
  543700    303.60449   -1167.2911    6366.8053    11685.558    1927.1052 
  543800    301.52646   -1167.9101    6411.7612    11685.501    1867.7098 
  543900     300.2638   -1162.5209    6433.3445    11685.499    1881.8384 
  544000    303.48321   -1165.8856    6367.8468    11685.414    1904.1924 
  544100     297.3824   -1161.8541    6494.2283    11685.493    1936.7842 
  544200    301.89502   -1164.1077     6400.079    11685.495    1954.3889 
  544300    298.49898   -1162.7514    6471.2549    11685.476    1955.8225 
  544400    300.47044   -1158.2329    6424.6392    11685.496     1931.036 
  544500    300.93807   -1158.1312    6414.5556    11685.504    1942.3823 
  544600    297.97957   -1166.6741    6486.3164    11685.519    1973.9408 
  544700    301.56633   -1163.9164    6406.9266    11685.512    1941.3932 
  544800    298.93128   -1160.7584    6460.0634    11685.513     1978.684 
  544900    300.78038   -1165.7025    6425.4669    11685.476    2028.9988 
  545000     303.6343   -1161.4906    6360.2764    11685.467    1928.1038 
  545100    302.64441   -1160.3873    6380.3064    11685.453    1921.8976 
  545200    300.08006   -1157.0704    6431.8076    11685.487    1913.5642 
  545300    300.14996   -1162.4116    6435.7141    11685.546    1931.7225 
  545400    300.24633   -1164.7072    6435.9331    11685.528    1947.7963 
  545500    301.99927   -1162.8764    6396.5571    11685.432    1933.5117 
  545600    301.97527   -1161.4528    6395.7635    11685.549    1888.7901 
  545700    300.35155   -1164.0106    6432.9668    11685.506    1838.1541 
  545800    297.46856   -1166.9655    6497.5389    11685.533    1913.4647 
  545900    300.38701   -1167.5316    6435.7474    11685.523    1949.6942 
  546000    298.01219   -1162.5601    6481.5875    11685.601    1956.7566 
  546100    302.32223   -1174.2659    6401.2719    11685.657    1970.5812 
  546200    296.85809   -1159.2178    6502.8973    11685.597    2055.4917 
  546300    302.25504   -1162.8699    6391.2704    11685.616    1924.9085 
  546400    298.41112   -1162.7687    6473.2812    11685.608    1846.1465 
  546500    304.87277   -1167.5046    6339.9502    11685.585     1808.886 
  546600    299.62365   -1166.1155    6450.7499    11685.634    1918.4935 
  546700    301.93284   -1173.6646    6408.8604    11685.528    1892.0943 
  546800    299.64614   -1171.8845    6456.1007    11685.696    1890.6642 
  546900    302.53193   -1173.3525    6395.8427    11685.621    1854.3047 
  547000    294.78616   -1168.5803    6556.5418    11685.615    1918.4841 
  547100    302.86652   -1170.9844    6386.2546    11685.549    1919.3669 
  547200    304.07315   -1160.5787    6350.2158    11685.693    1935.5241 
  547300    296.55816   -1160.7001    6510.8595     11685.67    1938.7634 
  547400    304.88767   -1165.8484    6337.9692    11685.578    1853.3379 
  547500    298.68034   -1172.5758    6477.3409    11685.612    1923.7107 
  547600    299.48453   -1164.6154    6452.2812    11685.693    1894.2936 
  547700    300.60861    -1171.039    6434.5629    11685.566    1862.8974 
  547800     301.5086   -1166.3897    6410.8125    11685.691    1898.8095 
  547900    301.61005   -1165.4345    6407.5855    11685.587    1890.6747 
  548000    298.04666   -1167.7927    6486.1336    11685.651    1880.9516 
  548100    297.49224   -1161.0683    6491.2015    11685.598    1951.3566 
  548200    306.31463   -1168.2554    6309.8476    11685.534    1913.4206 
  548300    299.04569   -1155.1537    6452.0689    11685.568    1967.0475 
  548400    302.30939   -1155.2769    6382.4364    11685.536    1959.7009 
  548500    301.43599   -1161.6073    6407.3645    11685.475    1907.9772 
  548600    295.57232   -1162.6503    6533.6868    11685.486    1927.1261 
  548700    304.13222   -1165.2412    6353.3955    11685.473    1868.1284 
  548800    298.47346   -1164.9226     6474.037    11685.542    1953.9529 
  548900    297.61767    -1161.905    6489.2031    11685.443    1895.1734 
  549000    301.50909   -1154.9299    6399.0492    11685.398    1865.7957 
  549100    301.44307   -1157.9453    6403.4671    11685.391    1870.7884 
  549200    299.52417    -1158.174    6444.6931    11685.394    1943.7218 
  549300    303.30557   -1160.0353    6365.7953    11685.418    1910.0034 
  549400    297.07555   -1161.0863    6500.0115    11685.488    1876.2779 
  549500    302.06596   -1164.6433     6396.923    11685.455    1865.5216 
  549600    296.31162   -1164.1437    6519.3889    11685.488    1943.5475 
  549700    303.26934   -1164.6493    6371.1998    11685.435    1849.6139 
  549800    298.23838   -1164.6665    6478.7728    11685.512    1880.3709 
  549900    301.34916    -1164.452    6412.0595     11685.47     1904.754 
  550000    304.05687   -1164.7855    6354.6104    11685.533    1886.1658 
  550100    299.95275   -1161.7028     6439.207    11685.534    1915.9754 
  550200    299.56648   -1163.8323    6449.5564    11685.502    1936.1529 
  550300    300.82849   -1167.1404    6425.9835    11685.582    1912.8849 
  550400    303.20018   -1161.3532    6369.5515    11685.605    1889.7798 
  550500    298.60716   -1162.8253    6469.2135    11685.672    1972.7473 
  550600    301.39542   -1166.0444    6412.7632    11685.569    1884.1755 
  550700    298.26185   -1158.2144    6471.8345    11685.527    1854.4772 
  550800    300.57729    -1161.026    6425.2304    11685.577    1860.8591 
  550900    302.90572   -1166.8585    6381.2367    11685.494    1899.2816 
  551000    300.29556   -1168.0847    6438.2739    11685.543    1884.6345 
  551100     302.1102   -1165.1704    6396.6092     11685.56    1854.4346 
  551200    298.78812    -1171.822    6474.2183    11685.546    1952.5242 
  551300    301.90893   -1170.2285    6405.8873     11685.48    1932.1259 
  551400    299.68236     -1163.77    6447.0033    11685.487    1944.1417 
  551500    300.04034   -1165.0589     6440.714    11685.557    1969.4553 
  551600     301.2918   -1160.2233    6409.0783    11685.492    1921.5885 
  551700    298.82192   -1163.6663    6465.3709    11685.576    1925.2258 
  551800     300.7051   -1162.5584    6423.9383    11685.483     1924.394 
  551900    300.75547    -1160.284    6420.6295    11685.525    1923.8884 
  552000    299.57711   -1163.5097    6449.1339    11685.629    1909.7023 
  552100    298.29318   -1162.4814    6475.5818    11685.676    1917.2585 
  552200    301.91174   -1160.4966    6396.2349    11685.619    1900.7631 
  552300    298.67782   -1165.7439    6470.4497    11685.499    1912.2254 
  552400    300.71851   -1160.7486    6421.8339    11685.475    1862.0602 
  552500    299.30452   -1157.5489    6448.9223    11685.555    1927.3133 
  552600    299.95164   -1160.9274    6438.4541    11685.533    1984.9221 
  552700    297.20873   -1160.8483    6496.9437    11685.504    1900.2996 
  552800    300.29541   -1160.2255    6430.4469    11685.572    1895.9366 
  552900    302.26849   -1162.6094    6390.6833    11685.576    1934.4958 
  553000     300.9507   -1164.1052    6420.2653     11685.51    1930.2059 
  553100    298.11282   -1166.3856    6483.3216    11685.659    1903.9908 
  553200     297.0806   -1168.4719     6507.444    11685.643    1937.9708 
  553300    303.72763   -1167.6455    6364.5673    11685.597    1892.5958 
  553400    299.47324   -1160.9528    6448.7169     11685.55    1935.9142 
  553500    301.63115   -1157.9758    6399.7184    11685.629    1979.7326 
  553600    299.35829    -1161.004    6451.2756    11685.602    1906.2678 
  553700    295.00476   -1163.2894    6546.5795    11685.614    1922.2263 
  553800    300.09298   -1161.5779    6436.2306    11685.679    1935.4692 
  553900    299.64787   -1165.1975    6449.3063    11685.626    1884.8186 
  554000    299.43057   -1169.0999    6457.8628    11685.638    1863.9997 
  554100    301.80454   -1167.1052    6405.0552    11685.541    1881.9411 
  554200    298.57437   -1158.7923    6465.7191     11685.51    1892.5594 
  554300    302.38155   -1159.1425    6384.6502    11685.426    1872.1866 
  554400    300.02809   -1165.5644    6441.4547     11685.53    1935.2567 
  554500    299.21876   -1159.9317    6453.0488    11685.467      1930.02 
  554600    301.54058   -1157.0114    6400.4714    11685.412    1856.4862 
  554700    300.94206   -1158.8253    6415.1173    11685.457     1852.307 
  554800    298.23135   -1161.8918    6476.1758    11685.539    1868.6338 
  554900    302.55965   -1161.9415    6383.7255    11685.507    1866.8684 
  555000    303.30793   -1164.3922    6370.1253    11685.442     1884.154 
  555100    299.76466   -1162.9758    6444.4413    11685.477    1908.3723 
  555200    299.11769   -1165.6783    6460.9963    11685.508    1953.5801 
  555300    298.06417   -1162.3641    6480.2209     11685.54    1967.2646 
  555400    302.18873   -1157.6227    6387.3421    11685.518    1947.3306 
  555500    300.19781    -1157.961    6430.1538    11685.458    1930.3122 
  555600    296.80094   -1160.0992    6504.8925     11685.49    1918.6533 
  555700    299.87786   -1160.6295    6439.7221    11685.523    1882.1599 
  555800    300.92535   -1161.1523    6417.8184    11685.474    1979.1063 
  555900    301.55283   -1156.9181    6400.2212    11685.517    1951.4199 
  556000    299.25292   -1164.7786    6457.2636    11685.564     1897.344 
  556100     300.6956   -1167.6518    6429.2396    11685.488    1846.4599 
  556200    295.77153   -1161.6986    6528.5281    11685.534    1891.5314 
  556300    304.76438    -1168.045     6342.824    11685.602    1872.4832 
  556400    300.05082   -1164.2253    6439.6973    11685.597    1930.1739 
  556500    301.87102   -1159.9614    6396.4841    11685.534    1918.4534 
  556600    300.43223   -1158.2323    6425.4405    11685.482    1931.3331 
  556700    300.25754   -1161.7251     6432.746    11685.562    1957.4987 
  556800     302.8385   -1166.3991    6382.2606    11685.541    1960.6016 
  556900    299.23812   -1163.9757    6456.7115    11685.499    1923.3082 
  557000    303.30742   -1162.2295    6368.0756    11685.544    1892.3166 
  557100    296.78239   -1166.5798      6511.84    11685.561    1895.9134 
  557200    300.40536    -1168.591    6436.5202    11685.629    1906.1628 
  557300    298.78086   -1163.7966    6466.3892    11685.587    1945.0895 
  557400    302.85798    -1166.217     6381.653    11685.532    1924.0675 
  557500     296.6911   -1165.3182    6512.5948    11685.627    1983.6304 
  557600    304.08235   -1166.6983    6355.9848    11685.539    1983.1484 
  557700    296.18744   -1159.5781    6517.5467    11685.559    2013.4778 
  557800    302.58695   -1159.4283    6380.6832    11685.561    1931.5487 
  557900    302.21672   -1165.0672    6394.2157    11685.545    1938.8839 
  558000    299.16505   -1167.9047    6462.2682    11685.566    1925.4339 
  558100    300.90573   -1164.3063    6421.4348    11685.518    1866.1481 
  558200    302.13131   -1166.8715    6397.8424    11685.543    1858.3258 
  558300    301.33029   -1167.1178    6415.2372    11685.579    1851.2372 
  558400    298.07173   -1163.3204    6481.0841    11685.609    1850.7414 
  558500     295.1695   -1160.8237    6540.5326    11685.552    1869.4613 
  558600    302.33219   -1157.2832    6383.9109    11685.491    1847.9062 
  558700    299.16032    -1158.954    6453.2682    11685.415    1890.5119 
  558800     300.7989   -1157.9916    6417.3534    11685.469    1942.0842 
  558900    298.50521   -1160.8827    6469.2592    11685.482      1959.81 
  559000    301.62517    -1161.414    6403.1054     11685.45     1829.739 
  559100    300.40152   -1160.2948     6428.108    11685.431    1869.6629 
  559200    302.70618   -1161.7093     6380.324    11685.468    1918.7391 
  559300    296.76596   -1162.8579    6508.4261    11685.517    1851.9022 
  559400     302.2192   -1162.5726    6391.6914    11685.568    1901.7468 
  559500    301.66865    -1162.959    6403.8167    11685.546    1903.7857 
  559600    297.93747   -1162.7757    6483.2312    11685.432    1872.4203 
  559700    302.37103   -1159.7922     6385.546    11685.447    1872.7461 
  559800    296.53743   -1161.0312    6511.4222    11685.458    1928.2875 
  559900    300.82684   -1159.1331    6417.8791     11685.45    1904.6863 
  560000    301.04538   -1158.3871    6412.4125    11685.398    1921.8453 
  560100    298.43168   -1158.6075    6468.5882    11685.516    1891.3896 
  560200    297.35056   -1156.3986    6489.4638    11685.504    1788.6664 
  560300    303.37668   -1167.2788    6371.7162    11685.615     1798.719 
  560400    301.22218   -1168.7389    6419.1154    11685.526     1871.496 
  560500    298.02274   -1166.4245    6485.0662     11685.44    1805.0845 
  560600    299.34267   -1163.2459    6453.6854    11685.436    1855.9347 
  560700    301.36734    -1164.671    6411.9147    11685.495    1931.0807 
  560800    301.45481   -1163.6743    6409.0049     11685.45     1889.362 
  560900    300.93182   -1161.1329    6417.6497    11685.463    1941.8682 
  561000    298.37951   -1161.5325    6472.5808    11685.469    1953.6737 
  561100    300.84319     -1162.32    6420.7095    11685.443    1908.2857 
  561200    299.83454   -1166.9136    6446.9992     11685.59    1919.0346 
  561300    303.31124   -1167.3493    6373.1439    11685.574      1860.75 
  561400    302.54163   -1164.7821    6386.9726    11685.528    1863.0118 
  561500    298.65413   -1164.3158    6469.5911    11685.563    1901.6219 
  561600    300.29625   -1160.7286     6431.075    11685.715    2003.4588 
  561700    304.18122   -1165.6913    6352.9445    11685.618    1956.0683 
  561800    298.69537   -1159.4416    6463.8707    11685.597    1907.0083 
  561900    298.90623   -1162.4918    6462.3634    11685.545    1855.7612 
  562000    302.00855   -1161.3398    6394.9789    11685.588    1918.4055 
  562100     298.6034   -1162.7206    6469.0474     11685.53    1937.6883 
  562200    297.80463   -1162.3125    6485.8224    11685.649    1953.5428 
  562300     302.6313    -1163.028    6383.3791    11685.605    1867.6388 
  562400    296.55007   -1160.8462    6511.1265    11685.617    1886.8829 
  562500    301.57289   -1169.8469    6412.7751     11685.57    1890.8461 
  562600    298.33321   -1162.7346    6474.8711    11685.568    1941.7112 
  562700    300.32333   -1161.5835    6431.1533    11685.517    1905.3977 
  562800      301.598   -1161.3132    6403.5675    11685.433    1876.7477 
  562900    298.92143   -1156.5489    6455.9408    11685.389    1920.6709 
  563000    303.23697   -1160.5437    6367.8321    11685.481    1922.6537 
  563100    301.28934   -1163.1063    6412.0681    11685.546    1922.9258 
  563200    298.19796   -1164.7636    6479.6865    11685.465    1934.4058 
  563300    303.07877   -1163.5346    6374.2562    11685.535    1868.7992 
  563400    297.88638   -1169.5381    6491.1754    11685.523    1853.4633 
  563500    299.53364   -1163.6502     6450.027    11685.454    1896.2098 
  563600    300.04584   -1162.5842    6438.0641    11685.499    1920.6156 
  563700    302.31057   -1161.5282    6388.6809    11685.554    1895.6627 
  563800     302.2535   -1151.9714    6380.2854    11685.496    1906.5648 
  563900    300.58065   -1160.2189    6424.1811    11685.407    1919.8111 
  564000    297.42798   -1161.6415    6493.0597    11685.511    1994.5417 
  564100    300.39188   -1160.3441    6428.4167    11685.484    1949.9772 
  564200    299.45532   -1167.2805     6455.389    11685.512      1935.68 
  564300    300.08719   -1164.7003    6439.3441    11685.546    1828.0676 
  564400    303.76813   -1163.2151    6359.2897    11685.615    1807.3054 
  564500    300.31899   -1166.3803    6436.1482    11685.622    1833.8256 
  564600    299.96325   -1159.2024    6436.5779     11685.63    1867.8314 
  564700    300.35405    -1168.647    6437.5923    11685.549    1835.1731 
  564800    300.06063   -1167.3846    6442.6047    11685.555    1837.8733 
  564900     300.9219   -1160.7241    6417.5838    11685.594    1887.2387 
  565000    301.44783   -1158.9053    6404.4239    11685.489    1798.5986 
  565100    300.33413    -1158.003    6427.3963    11685.571    1883.4517 
  565200    304.30331   -1161.2449    6345.8292    11685.558     1920.644 
  565300    302.28007   -1164.4156    6392.2044    11685.539    1883.4432 
  565400    297.02253   -1167.3531    6507.4348    11685.512    1884.7605 
  565500     301.6908   -1169.4208    6409.8714    11685.612    1873.5076 
  565600    302.43925   -1173.8507    6398.3452    11685.645    1843.0845 
  565700    297.54673   -1172.3973    6501.4502    11685.682    1890.4917 
  565800    300.87948   -1165.9556    6423.6606    11685.533    1880.8554 
  565900    303.82765   -1164.7383    6359.4703    11685.544    1920.5733 
  566000    300.96957   -1162.4007    6418.2693    11685.622    1889.0859 
  566100    300.41601   -1160.6153    6428.2203    11685.532    1817.4514 
  566200    298.99765   -1169.2586    6467.2328      11685.6    1891.1125 
  566300    302.36932   -1167.7024    6393.6236    11685.578    1899.6258 
  566400    300.27326    -1165.736    6436.3934    11685.535    1892.8612 
  566500    299.58914    -1169.239     6454.564    11685.587    1895.5745 
  566600    301.10361   -1163.8198    6416.8367    11685.634    1933.6246 
  566700    302.51324   -1169.5188     6392.347    11685.559    1877.8476 
  566800    299.81679   -1165.2784    6445.7284    11685.576     1876.797 
  566900    299.26918   -1164.9569    6457.1239    11685.594    1956.8005 
  567000    303.21745   -1170.3202    6378.0781    11685.533    1900.2704 
  567100    301.18997   -1160.4862    6411.6531    11685.628    1886.1891 
  567200    298.71572   -1162.4148    6466.4224    11685.611    1908.8029 
  567300    303.18526   -1161.6774    6370.1751    11685.586    1967.2996 
  567400    298.87099   -1167.1535    6467.7621    11685.529    1919.0849 
  567500    300.79549   -1164.4838    6424.0285    11685.579    1903.6482 
  567600      298.233   -1156.0639    6470.3754    11685.602    1977.9219 
  567700    301.33105   -1168.1215    6416.2047    11685.559    1935.3326 
  567800     301.7672   -1164.3383    6403.0361    11685.491    1880.3141 
  567900    299.75029   -1160.1212     6441.944    11685.528    1909.0891 
  568000     299.1264   -1167.1812    6462.2834    11685.479     1953.491 
  568100    299.11704   -1166.0071    6461.3778    11685.547    1927.0169 
  568200    301.28252   -1159.6428    6408.7104    11685.506    1927.2921 
  568300    298.51632   -1165.2746    6473.3979    11685.466    1921.6961 
  568400    301.33532   -1159.4054    6407.2695    11685.431    1820.3704 
  568500    298.75902   -1160.2346    6463.1531    11685.447    1891.3261 
  568600    302.07125   -1164.1666    6396.4084    11685.531    1940.7336 
  568700    301.77876   -1162.7762    6401.2715    11685.535    1902.1554 
  568800    301.48152   -1159.9606    6404.7641    11685.494    1904.7891 
  568900    300.15695   -1161.8953    6435.0608    11685.558    1918.8804 
  569000    302.68294   -1166.6266    6385.8031    11685.533    1857.4079 
  569100    300.94843   -1166.0148    6422.2302    11685.517    1885.3591 
  569200    297.12909    -1160.814    6498.6464     11685.54    1880.0135 
  569300    300.98828    -1162.537    6417.8362    11685.452    1892.5562 
  569400     302.1661   -1160.4188    6390.5489    11685.445    1902.4003 
  569500    299.87206     -1158.52    6437.7464    11685.533    1907.6988 
  569600    298.23362   -1157.8786     6472.206    11685.631    1931.9311 
  569700    301.94331   -1159.9723    6394.9638    11685.547    1826.0873 
  569800    298.54519   -1169.1389    6476.7898    11685.611    1907.9961 
  569900    303.23729   -1170.9772    6378.3439    11685.566    1879.7626 
  570000    297.81713   -1163.0069    6486.2006      11685.6    1866.0843 
  570100    300.78208   -1165.8495     6425.631    11685.529    1848.6948 
  570200    302.11243   -1165.4288    6396.8356    11685.575     1920.678 
  570300    302.36743   -1161.9216     6387.964    11685.659    1824.8138 
  570400     294.7856   -1159.6579    6547.6751    11685.659    1847.2231 
  570500     303.3016   -1160.5277    6366.5022    11685.548    1917.6018 
  570600    302.21262   -1159.1541    6388.3966    11685.551    1898.7156 
  570700    301.34334    -1167.318    6415.2356    11685.656    1837.5471 
  570800     297.7847    -1163.437    6487.2926    11685.569     1938.123 
  570900    300.80695    -1170.493    6429.8108    11685.597     1894.299 
  571000    301.13516   -1162.2007     6414.484    11685.574    1876.0577 
  571100    298.54152   -1165.2451    6472.9135     11685.55    1939.0548 
  571200    302.17908   -1161.4263    6391.3749    11685.541     1903.275 
  571300    300.15812   -1156.4978    6429.5389    11685.459    1862.7724 
  571400    297.51861   -1160.2044    6489.7429    11685.567    1931.3236 
  571500    300.95158   -1162.6242    6418.8105    11685.555    1887.1153 
  571600    303.29587    -1160.632    6366.6725    11685.491    1853.3462 
  571700    298.64923   -1166.0659    6471.5063    11685.623    1947.5015 
  571800    301.43855   -1165.3938    6411.1834    11685.562    1840.2377 
  571900    299.29916   -1165.0051      6456.44    11685.502    1919.9211 
  572000    304.01569   -1164.2398    6354.9561    11685.545     1943.297 
  572100    300.12189   -1154.9556    6428.8361    11685.524    1944.0838 
  572200    300.24591   -1167.5661    6438.8288    11685.556    1899.9236 
  572300    298.99829   -1166.7618    6464.6522     11685.53    1956.9826 
  572400    301.69243   -1161.3167    6401.6266    11685.506    1854.3411 
  572500    297.74045   -1159.2585    6484.0106     11685.52     1879.641 
  572600     299.9925   -1161.6626    6438.3767    11685.593    1957.9832 
  572700    300.60665   -1165.8798    6429.4888    11685.609     1953.267 
  572800     298.8218    -1170.523    6472.3003    11685.646    1891.8791 
  572900    301.40323   -1166.9638    6413.5582    11685.612    1893.0157 
  573000    300.94338   -1164.9195    6421.2979    11685.572    1924.3573 
  573100    299.28827   -1162.3908    6454.2431    11685.687    1914.7221 
  573200    302.06321   -1166.7529    6399.3129    11685.677    1928.2469 
  573300    299.81228   -1163.7328    6444.2572    11685.554    1951.6012 
  573400    301.23515   -1167.9778     6418.077    11685.526    1897.8584 
  573500     301.1874   -1156.1429    6407.3423    11685.606    1900.6069 
  573600    300.05063   -1163.0761    6438.6527    11685.698    1962.3178 
  573700    299.35385   -1162.6861    6452.9878    11685.537    1939.8905 
  573800    299.66006   -1158.4182    6442.2849    11685.644    1984.1543 
  573900    302.96217   -1163.2412    6376.5579    11685.639    1970.2393 
  574000    294.62712   -1163.7427    6555.0782    11685.592    2029.2923 
  574100    303.22562   -1160.0832      6367.65    11685.517    1957.0377 
  574200    301.58541   -1164.0398    6406.7014    11685.571    1946.3482 
  574300    300.21026   -1157.8571    6429.8228    11685.497    1863.1165 
  574400    299.49534   -1161.3446    6448.6231    11685.537    1879.3278 
  574500    298.78133   -1161.0525    6463.5469    11685.499    1850.8503 
  574600     300.3518   -1162.2122    6431.1626    11685.506    1872.3682 
  574700    303.13005   -1160.2425    6369.7803    11685.446    1822.4837 
  574800    302.48501   -1160.3038    6383.6028    11685.427    1881.3953 
  574900    297.38205   -1159.4327    6491.8314     11685.51    1882.4751 
  575000    300.14157   -1164.7518    6438.2752    11685.588    1935.3721 
  575100    303.93357   -1163.1565    6355.5893    11685.507    1869.9147 
  575200    298.43333   -1164.4059    6474.3095    11685.474    1915.3682 
  575300    301.98888   -1161.3446    6395.3389    11685.523    1958.4122 
  575400    303.91743   -1160.8025    6353.6159    11685.543    1915.5672 
  575500    301.82245   -1157.1698    6394.6824    11685.486    1921.7476 
  575600    302.02265   -1161.7405    6395.0046    11685.515    1976.2861 
  575700     296.5585   -1160.3568    6510.4414    11685.602    1875.8781 
  575800    297.50046   -1167.5257    6497.5089    11685.624    1917.0299 
  575900    303.84718   -1171.5554    6365.9592    11685.633    1978.3958 
  576000    300.58177    -1172.492    6436.6215    11685.598    1954.5629 
  576100     300.1357   -1166.6354    6440.2921    11685.595    1865.3146 
  576200    301.74266   -1166.8021     6406.221    11685.688    1918.0439 
  576300    303.15088   -1163.9625    6373.1782    11685.569    1943.5055 
  576400    301.75232   -1161.5507    6400.6106    11685.535    1931.3262 
  576500    299.66077   -1159.1261    6442.8814    11685.548    1989.4861 
  576600    299.54197   -1154.2496    6440.5465    11685.551    1874.1292 
  576700     304.2378    -1165.226    6351.2972    11685.645    1817.0769 
  576800    299.36862   -1172.8338    6462.8484    11685.566    1856.8899 
  576900    302.80249   -1175.3025    6391.9997    11685.608    1897.0614 
  577000      298.296   -1168.2439    6481.3312    11685.724    1835.9034 
  577100    298.30774   -1169.8055    6482.5641    11685.646    1869.4823 
  577200    303.24522   -1163.1662     6370.373    11685.576    1899.6876 
  577300    299.72176   -1157.5871    6439.9977    11685.506    1854.2899 
  577400    298.58599    -1153.584    6460.2934    11685.541    1908.3215 
  577500    301.62495   -1158.9852    6400.7088    11685.478    1896.3838 
  577600    299.56123   -1163.3652    6449.2819    11685.583    1908.3452 
  577700    299.11021   -1158.9277     6454.441    11685.544    1909.3874 
  577800    299.94318   -1162.4635    6440.1254    11685.488     1894.677 
  577900    299.40508    -1166.457    6455.6244    11685.498    1898.5734 
  578000    301.12323   -1163.0593    6415.4907    11685.467    1911.6773 
  578100    296.71534   -1162.8173    6509.4688    11685.519    1996.3337 
  578200    301.81837   -1160.9892    6398.4437    11685.341    1894.6773 
  578300    301.65808   -1154.4873    6395.3617    11685.337    1942.8313 
  578400    296.89687   -1156.2396    6498.9648    11685.471    1986.9821 
  578500    299.63395   -1156.6676    6440.9361    11685.488    1984.0948 
  578600    303.25024   -1162.9647     6369.967    11685.478    1956.7092 
  578700     297.9912   -1167.6282     6487.025    11685.522    1991.2854 
  578800    301.37376   -1168.4234    6415.6283    11685.593    1951.0806 
  578900    300.60168   -1170.8361    6434.4943    11685.552    1871.9307 
  579000    299.87001   -1164.5301    6443.8068    11685.539    1892.3783 
  579100    303.53724   -1166.7584    6367.7447    11685.594    1946.5793 
  579200    301.36851   -1163.5374    6410.8635    11685.602    1943.1406 
  579300    299.91123   -1162.4933    6441.0224    11685.672    1901.4156 
  579400     299.2969   -1156.6675    6448.3045    11685.656    1971.8277 
  579500    300.45067   -1160.4331    6427.3347    11685.569    1977.2741 
  579600    301.77415   -1166.8224    6405.5688    11685.688    1962.4909 
  579700    301.02384   -1171.8731    6426.6344    11685.674    1936.2239 
  579800    299.89046   -1176.0519    6455.0435    11685.691    1955.2763 
  579900    300.60219   -1167.2797    6431.0431    11685.668    1835.2803 
  580000    297.38718   -1171.5655    6503.9854    11685.641    1895.2433 
  580100    302.49987   -1166.0295    6389.2157    11685.632    1924.3814 
  580200    301.00434   -1167.1156    6422.0967    11685.477    1912.3649 
  580300    299.83612   -1164.9122    6445.0367    11685.663    1925.5136 
  580400    298.50522    -1157.362    6465.8426    11685.587    1958.9426 
  580500    302.58465   -1170.8023    6391.9992    11685.454    1941.3475 
  580600    298.90113   -1166.2766    6466.2484    11685.536     2022.412 
  580700    299.07623   -1166.9179    6463.2259    11685.613    1952.4849 
  580800    299.05589   -1164.2849    6460.9321    11685.517    1867.7571 
  580900    300.55364   -1163.3905     6428.067    11685.544     1899.134 
  581000    301.27203   -1159.2708    6408.5783    11685.522    1950.1118 
  581100    300.74316    -1165.008    6425.6045    11685.513    1926.0219 
  581200    299.28851   -1161.3492    6452.9935    11685.484    1910.9104 
  581300    303.96149   -1159.5474    6351.2659    11685.389    1866.9533 
  581400    298.72952   -1163.2669    6466.8948    11685.526    1959.4908 
  581500    300.59175   -1158.9508    6422.7634    11685.494    1937.9345 
  581600    301.24023   -1154.9975    6404.8704    11685.408    1926.5595 
  581700    297.88306   -1159.7018    6481.3319    11685.445    1891.8925 
  581800    302.48127   -1159.4545    6382.9148    11685.509    1921.9577 
  581900    298.58901   -1161.9569    6468.6558    11685.595    1959.8478 
  582000    302.15759   -1162.3298    6392.6284    11685.432    1890.5572 
  582100    298.60316   -1167.2308    6473.5412    11685.509    1901.2895 
  582200    297.08887   -1168.5612    6507.2653    11685.552    1990.6862 
  582300    300.20879   -1165.7555    6437.7327    11685.477    1947.6478 
  582400    302.69695   -1165.6617    6384.4521    11685.446    1918.7889 
  582500    300.44757   -1160.6743    6427.5634     11685.49    1995.1686 
  582600    297.10085   -1157.3529    6495.6843    11685.435    2041.4525 
  582700    302.33458   -1164.5706    6391.1241    11685.468     1856.919 
  582800    295.99518   -1164.5657    6526.5782    11685.495    1975.3496 
  582900    306.80189   -1168.5257    6299.7491    11685.575    1891.6368 
  583000    297.47417   -1168.0315    6498.4389    11685.487    1896.2601 
  583100    299.29234     -1163.15    6454.8172    11685.589    1836.5963 
  583200    301.44874   -1166.1079    6411.7533    11685.635    1862.5451 
  583300    301.82184   -1166.4731    6404.0439    11685.531    1828.5962 
  583400    299.33202   -1159.0399    6449.7997    11685.529    1923.0967 
  583500    301.24161   -1162.0179    6412.0994    11685.646    1994.3147 
  583600    301.80527   -1165.1272    6403.0888    11685.568    1885.0731 
  583700    301.77444   -1162.3653     6400.965    11685.548    1897.6336 
  583800    298.20803   -1162.8533    6477.6381    11685.542    2017.9254 
  583900    302.63163   -1165.5366    6385.8249    11685.549    1957.8313 
  584000    299.82081   -1163.0269    6443.3609    11685.546    1946.0907 
  584100    299.96002   -1159.5299     6436.824     11685.48    1933.7804 
  584200    301.32574   -1161.1633    6409.3097    11685.509     1921.075 
  584300     301.2254   -1165.9035     6416.169    11685.484    1849.2777 
  584400    298.09812   -1158.3176     6475.365    11685.456    1893.9774 
  584500    302.61587   -1163.3174    6383.9275    11685.534    1993.5216 
  584600    301.29737   -1166.8379     6415.681    11685.599    1981.8045 
  584700    299.08156   -1166.2971    6462.4547    11685.576    1893.3548 
  584800    303.71178   -1164.5628    6361.7786    11685.552    1956.7406 
  584900    302.38073   -1164.6762    6390.2869    11685.511    1970.9572 
  585000      297.878   -1157.1956    6479.0438    11685.555     1953.972 
  585100    303.19832   -1161.6504    6369.7519    11685.468    1938.3385 
  585200    298.37017   -1161.9161    6473.2628    11685.568    1952.3467 
  585300    295.95367   -1162.8166    6525.8061    11685.586    1917.9999 
  585400    299.75889   -1167.2804    6449.0679    11685.676     1946.396 
  585500    301.77877   -1175.5028    6414.1095    11685.647    1984.5072 
  585600    300.31787   -1165.1212    6434.8219    11685.531    1894.6278 
  585700    300.35268   -1170.3505     6439.378    11685.602     1884.308 
  585800     298.9201   -1163.7432    6463.4124    11685.638     1954.535 
  585900    303.06782   -1169.4408    6380.4364    11685.575    1918.8685 
  586000    300.16953   -1161.7725    6434.6834    11685.572    1908.6086 
  586100    300.12991   -1164.5355     6438.335    11685.615    1994.5014 
  586200     303.4623   -1161.4996    6364.0453    11685.552     1924.832 
  586300    294.72307   -1161.1229    6550.4098    11685.593    1919.1807 
  586400    302.22294   -1174.0378    6403.1466    11685.638    1960.3477 
  586500    302.75687   -1161.7442    6379.4084      11685.6    1897.5012 
  586600    296.58402   -1168.1536    6517.6515     11685.56    1900.9013 
  586700    300.88096   -1173.2138     6430.952    11685.598    1960.0074 
  586800    297.65669   -1163.9225    6490.5941     11685.65    2008.5964 
  586900    304.44574   -1161.5669    6343.1104     11685.56    1927.7801 
  587000    302.16999    -1162.216     6392.328     11685.51    1989.2482 
  587100    298.81854   -1154.9328    6456.6685    11685.535    1980.4436 
  587200    298.07119   -1161.8172    6479.5083    11685.525    1959.8434 
  587300    304.00046   -1161.0246    6351.9621    11685.441    1902.2641 
  587400    299.90038    -1163.349    6441.8622    11685.425    1943.9094 
  587500    302.27457   -1164.7254    6392.6168    11685.524    1886.0566 
  587600     296.9415   -1165.1215      6506.94    11685.518    1923.2026 
  587700    301.11796   -1162.6446    6415.2501    11685.529    1906.0656 
  587800    298.22491   -1163.6151    6478.0134    11685.516     1906.739 
  587900    300.47939   -1159.9891    6426.1423    11685.434    1903.9151 
  588000    302.51803   -1162.5411     6385.239    11685.531    1942.5595 
  588100    301.61015    -1163.423    6405.4149     11685.43    1929.4538 
  588200    298.87289   -1160.9925    6461.5133    11685.481    1947.9246 
  588300    299.95862    -1166.369    6443.7063    11685.493    1937.4443 
  588400    301.52733   -1157.5576    6401.4121    11685.523    1900.4851 
  588500    303.41546   -1166.1772     6369.804    11685.632    1845.6075 
  588600     299.3165   -1165.2076    6456.3142    11685.544    1938.7499 
  588700    298.78262   -1166.2052    6468.8172    11685.644    1880.3583 
  588800    298.22573   -1171.0938    6485.5865    11685.628    1931.9187 
  588900    299.22418   -1166.1103     6459.274    11685.629    1956.8315 
  589000    303.45748   -1173.1615    6375.8701    11685.612     1941.841 
  589100    297.81815   -1162.6632    6485.7982    11685.563    1982.3185 
  589200    299.85918   -1161.9608    6441.5193     11685.59    1928.6126 
  589300    302.13289    -1163.648    6394.5729     11685.53    1952.2707 
  589400    301.03814   -1164.0948    6418.3982    11685.521    1946.0362 
  589500    299.54688   -1165.3655    6451.6311    11685.625    1904.9019 
  589600     301.3003   -1168.6784    6417.4037    11685.544    1877.9644 
  589700    300.57544    -1165.685    6429.9488    11685.597    1950.8956 
  589800    301.33239   -1164.5487    6412.6001    11685.555    1968.3872 
  589900    303.42439   -1163.7179     6366.979    11685.458    1926.1943 
  590000    298.23042    -1163.308    6477.5405    11685.468    1935.0449 
  590100    299.71644   -1160.3597    6442.9565    11685.579    1892.2621 
  590200    300.86163   -1161.3206    6419.3114    11685.438    1889.3188 
  590300    300.38296   -1161.2182    6429.5192    11685.522    1916.8378 
  590400    301.41412   -1163.8398    6410.0144    11685.425    1857.8585 
  590500    299.93484   -1161.5341    6439.3214    11685.435    1844.4065 
  590600    297.25752   -1161.8951      6496.82    11685.376    1947.5889 
  590700    302.12232   -1159.9939    6391.0143      11685.4    1954.2656 
  590800    301.86951   -1159.4235    6395.8827    11685.438    1887.4954 
  590900    300.19869   -1157.8095    6429.8429    11685.318     1839.292 
  591000    301.06601   -1163.2529    6416.9014    11685.462    1841.1556 
  591100    299.29228   -1161.7088    6453.2659    11685.477    1886.2425 
  591200    298.93751   -1161.4581    6460.5768     11685.46    1861.3608 
  591300    299.78831   -1165.2847    6446.1435    11685.376    1863.3154 
  591400    300.87709   -1165.4004    6423.1421    11685.519    1830.5101 
  591500    301.70989   -1167.0763    6406.9972     11685.49     1892.232 
  591600    301.56795   -1163.3746    6406.3688    11685.531    1941.8654 
  591700    297.94981    -1163.403    6483.6947    11685.532      1920.97 
  591800    301.44089    -1165.691    6411.4243    11685.555    1917.8029 
  591900    301.73457   -1165.0506    6404.6094    11685.655     1963.179 
  592000    301.38603   -1163.8239    6410.7712    11685.597    1897.7782 
  592100     300.0547   -1166.7333    6442.1241    11685.599    1870.9041 
  592200    300.47175   -1165.4456    6432.0708    11685.743    1946.1078 
  592300    301.05973   -1164.5385    6418.5758    11685.716    1877.2841 
  592400    303.56304   -1169.3268    6369.8786     11685.71    1824.7428 
  592500    302.13999   -1162.2997    6393.2105    11685.668     1914.904 
  592600    296.70602     -1166.75    6513.6725    11685.591     1936.062 
  592700    302.00471   -1166.4138     6400.213    11685.666    1946.0805 
  592800    299.30685   -1164.3571    6455.7133    11685.588    1999.9189 
  592900    298.85439   -1168.0457    6469.0336    11685.553    1999.2482 
  593000    301.51409   -1164.4239    6408.5402    11685.502    1870.4828 
  593100    296.53806   -1164.1195    6514.6325    11685.594     1977.133 
  593200    300.90204   -1163.9069    6421.1612    11685.565    1963.5349 
  593300    302.02652    -1164.876    6398.0024     11685.46    1882.7472 
  593400    298.63151   -1164.2222     6469.974    11685.556     1885.596 
  593500    301.75561   -1164.1796    6403.1884    11685.554    1832.4582 
  593600    301.54794   -1165.5031    6408.8947    11685.501    1853.6569 
  593700     299.4155   -1157.9286    6446.8988    11685.523    1865.5933 
  593800    299.86043   -1155.2864    6434.6874    11685.459    1880.8378 
  593900    303.43909   -1160.1609     6363.133    11685.483    1835.6769 
  594000    301.05595   -1158.8758    6412.7683    11685.491    1884.0559 
  594100    295.49449   -1156.4707    6529.1674    11685.483    1937.7518 
  594200    302.89581   -1162.2034    6376.7729    11685.474    1865.8413 
  594300    299.83193   -1160.6531     6440.715    11685.511    1920.7924 
  594400    302.38978   -1163.9597    6389.2963     11685.43    1892.1319 
  594500    299.42052   -1161.7871     6450.552    11685.425    1929.6862 
  594600     301.5922   -1159.7702    6402.1948    11685.479     1894.247 
  594700     302.5167    -1164.384    6386.9914    11685.413     1857.906 
  594800    301.92539   -1156.5731    6391.8438    11685.443    1865.0487 
  594900    297.79744   -1162.4194    6485.9956    11685.562    1966.8915 
  595000     303.2253   -1166.1409    6373.6895    11685.492    1885.6334 
  595100    299.57056   -1167.2524    6452.9227    11685.536     1915.382 
  595200    299.85446   -1161.9834    6441.6885    11685.635    1906.3729 
  595300    300.86247   -1169.4694    6427.6193    11685.615    1910.9723 
  595400    300.08269    -1167.923    6442.7783    11685.661    1893.9228 
  595500    301.48721   -1167.8389    6412.6899    11685.663     1917.027 
  595600    302.61066   -1163.7104    6384.4886    11685.591    1923.9365 
  595700    297.20273    -1164.089    6500.3597    11685.551      1958.61 
  595800    301.02498   -1167.1248      6421.88    11685.692    1960.1035 
  595900    302.00934   -1165.7729    6399.4801    11685.673    1907.9108 
  596000    298.57694   -1167.6934    6474.7354     11685.68    1926.1608 
  596100    302.68191   -1166.3215    6385.7009    11685.714    1932.5408 
  596200    299.58822   -1166.4275    6451.8807    11685.696     1959.693 
  596300    300.12921   -1162.5118    6436.3931    11685.681    1888.4527 
  596400    301.41281   -1165.8156    6412.1874    11685.594    1882.3472 
  596500    298.48989   -1164.2077    6473.0465    11685.617    1967.6627 
  596600    301.25692   -1159.2875    6408.9526    11685.557    1888.0802 
  596700    301.96834   -1160.9826    6395.3799    11685.487    1895.8163 
  596800    300.60069   -1161.6542    6425.3036    11685.522    1918.9462 
  596900    299.57201   -1164.1389    6449.7334    11685.491    1861.7906 
  597000    299.66385   -1159.9506    6443.5748    11685.483    1899.3739 
  597100    299.60326   -1163.8468    6448.7869    11685.504    1987.7553 
  597200    301.12365   -1163.3386    6415.7351    11685.441    1870.1764 
  597300    296.11225   -1152.6766     6512.151    11685.458    1925.1054 
  597400    302.57886   -1159.1895    6380.5432    11685.487    1955.1084 
  597500    301.05714   -1158.0419    6411.8707    11685.453    1963.2175 
  597600    302.20743   -1161.7837    6390.9955     11685.41    1886.2196 
  597700    300.25928   -1164.8447     6435.703    11685.437    1960.4338 
  597800    297.45123    -1162.869    6493.7915    11685.511     1984.779 
  597900    300.88578   -1161.1371    6418.7135    11685.539    1930.4268 
  598000    302.34033   -1156.7029    6383.2571    11685.591    1953.0102 
  598100    299.41421   -1162.5014    6451.5352    11685.559    1985.6409 
  598200    301.70977   -1164.3483    6404.3235    11685.542    1912.3714 
  598300    300.31963   -1167.8227    6437.5544      11685.6    1964.7562 
  598400    303.71199   -1170.3543    6367.6697    11685.656    1960.6352 
  598500      298.854   -1168.6147    6469.7641    11685.707    1970.5645 
  598600    304.43497   -1167.5428    6349.4226    11685.666    1865.6814 
  598700    297.10845   -1164.6586    6503.0376    11685.645    1938.0015 
  598800    301.49557   -1171.6628    6416.3526     11685.68    1930.5014 
  598900    303.42063   -1171.0701    6374.6956    11685.742    1913.1613 
  599000    297.76459   -1166.9832     6491.446    11685.746    1871.1457 
  599100    300.66097   -1173.5989    6436.1708    11685.732    1831.6835 
  599200    301.37934   -1168.1968    6415.5126    11685.823    1876.5259 
  599300    303.11499   -1167.5062    6377.6781    11685.759    1872.8383 
  599400    296.32866   -1167.4047    6522.5989    11685.801     1967.129 
  599500    302.13635   -1170.0757    6401.0735    11685.677    1877.7756 
  599600    300.01641     -1168.15     6444.429    11685.669    1974.0482 
  599700    302.00497   -1162.0763    6395.8537     11685.65    1931.8414 
  599800    298.05349   -1169.3425    6487.5677    11685.681    1922.4524 
  599900    299.15496   -1165.6567    6460.2735    11685.604    1886.6794 
  600000    302.76424   -1164.8899    6382.4535    11685.657    1944.9261 
Loop time of 279.288 on 8 procs for 300000 steps with 7168 atoms

Pair  time (%) = 137.34 (49.1752)
Bond  time (%) = 80.9234 (28.9749)
Neigh time (%) = 19.5684 (7.00652)
Comm  time (%) = 31.1356 (11.1482)
Outpt time (%) = 0.478032 (0.171161)
Other time (%) = 9.84213 (3.52401)

Nlocal:    896 ave 902 max 887 min
Histogram: 1 0 0 0 1 2 1 0 2 1
Nghost:    2843 ave 2858 max 2836 min
Histogram: 3 0 1 1 2 0 0 0 0 1
Neighs:    23628.9 ave 24085 max 23177 min
Histogram: 1 0 3 0 0 1 1 0 0 2

Total # of neighbors = 189031
Ave neighs/atom = 26.3715
Ave special neighs/atom = 157.056
Neighbor list builds = 3049
Dangerous builds = 0
# −−−−−−−−−−−−−− Flux calculation in nve −−−−−−−−−−−−−−−
reset_timestep  0
compute         PE all pe/atom
compute         KE all ke/atom

variable        CX atom (vx*(c_KE+c_PE))
compute         Jcx all reduce sum v_CX

variable        CZ atom (vz*(c_KE+c_PE))
compute         Jcz all reduce sum v_CZ

variable        CY atom (vy*(c_KE+c_PE))
compute         Jcy all reduce sum v_CY

compute         SA all stress/atom virial

variable        VX atom -(c_SA[1]*vx+c_SA[4]*vy+c_SA[5]*vz)*1.4593e-5
compute         Jvx all reduce sum v_VX

variable        VZ atom -(c_SA[3]*vz+c_SA[6]*vy+c_SA[5]*vx)*1.4593e-5
compute         Jvz all reduce sum v_VZ

variable        VY atom -(c_SA[2]*vy+c_SA[6]*vz+c_SA[4]*vx)*1.4593e-5
compute         Jvy all reduce sum v_VY

variable        Jx equal (c_Jcx+c_Jvx)/vol
variable        Jz equal (c_Jcz+c_Jvz)/vol
variable        Jy equal (c_Jcy+c_Jvy)/vol

fix             JJTx all ave/correlate $s $p $d                 v_Jx type auto file J0Jt_tx.dat ave running
fix             JJTx all ave/correlate 5 $p $d                 v_Jx type auto file J0Jt_tx.dat ave running
fix             JJTx all ave/correlate 5 20000 $d                 v_Jx type auto file J0Jt_tx.dat ave running
fix             JJTx all ave/correlate 5 20000 100000                 v_Jx type auto file J0Jt_tx.dat ave running

fix             JJTz all ave/correlate $s $p $d                 v_Jz type auto file J0Jt_tz.dat ave running
fix             JJTz all ave/correlate 5 $p $d                 v_Jz type auto file J0Jt_tz.dat ave running
fix             JJTz all ave/correlate 5 20000 $d                 v_Jz type auto file J0Jt_tz.dat ave running
fix             JJTz all ave/correlate 5 20000 100000                 v_Jz type auto file J0Jt_tz.dat ave running

fix             JJTy all ave/correlate $s $p $d                 v_Jy type auto file J0Jt_ty.dat ave running
fix             JJTy all ave/correlate 5 $p $d                 v_Jy type auto file J0Jt_ty.dat ave running
fix             JJTy all ave/correlate 5 20000 $d                 v_Jy type auto file J0Jt_ty.dat ave running
fix             JJTy all ave/correlate 5 20000 100000                 v_Jy type auto file J0Jt_ty.dat ave running

run             1000000
Memory usage per processor = 13.8919 Mbytes
Step Temp E_pair E_mol TotEng Press 
       0    302.76424   -1164.8899    6382.4535    11685.657    1944.9261 
     100    302.19474   -1171.0171    6400.7422    11685.652    1898.2724 
     200     300.3325   -1166.6333    6436.0497    11685.559    1867.2882 
     300    300.24468   -1167.4736    6438.7784    11685.572    1883.3808 
     400    297.33349   -1161.0101    6494.4495    11685.513     1891.155 
     500     297.9056   -1153.6717    6474.8987    11685.523    1982.8393 
     600    301.41354   -1154.5177    6400.6887    11685.409    1969.3669 
     700    304.74945    -1163.776    6338.6146    11685.343    1884.8872 
     800    298.51993   -1161.3077    6469.3106    11685.423    1915.7129 
     900    299.72618   -1163.1296    6445.4862    11685.547    1829.2162 
    1000    296.01717   -1165.4679    6527.0258    11685.511    1924.5214 
    1100    304.00905   -1167.6352    6358.4321    11685.484    1962.0945 
    1200    296.05337   -1162.2909    6523.0991    11685.534    1960.8095 
    1300    302.21181   -1159.0992    6388.3607    11685.553    1925.3299 
    1400    300.95201   -1159.5063    6415.5999    11685.472    1937.4124 
    1500    300.00478   -1157.9454    6434.4288    11685.625    1954.7635 
    1600    296.76297   -1165.9196    6511.6245     11685.59    1956.7917 
    1700    300.31573   -1165.4438    6435.2994     11685.64    1976.7491 
    1800    303.23218   -1163.6045    6371.0919    11685.578    1955.2781 
    1900    301.15988   -1165.2535     6417.049    11685.614    2001.4616 
    2000    299.76967   -1169.5669    6451.1838    11685.736    1958.6664 
    2100    298.16637     -1168.61    6484.4636    11685.721    1907.9294 
    2200    295.24444   -1162.4773    6540.7355    11685.703    1875.9656 
    2300     306.1187   -1172.6666    6318.5448    11685.634    1848.4788 
    2400    299.67314   -1169.8944    6453.5866    11685.749    1936.1417 
    2500    301.21963   -1168.7204    6419.3666    11685.741    1879.7741 
    2600    300.08929   -1165.1027    6439.7731    11685.618    1867.4881 
    2700    301.29089   -1168.0853    6417.1325    11685.665    1880.2738 
    2800     301.1219   -1168.7587    6421.4733    11685.722    1894.3822 
    2900    300.36651   -1171.8869    6440.6912    11685.674    1880.4747 
    3000    301.40086   -1164.3372    6411.0023    11685.632    1901.4729 
    3100    301.61875   -1164.7099    6406.7188    11685.631    1842.4087 
    3200    300.26718   -1161.9308    6432.8403    11685.657    1830.2574 
    3300    300.41379   -1165.7644     6433.531    11685.646    1850.8966 
    3400    299.82353   -1160.9735    6441.3448    11685.641    1831.8624 
    3500    303.01054   -1164.2465    6376.4838    11685.593    1786.0745 
    3600    300.51242   -1162.5821      6428.18    11685.585    1860.6935 
    3700    300.42205   -1163.4566    6430.8538    11685.453    1913.5271 
    3800    299.01393   -1155.5057    6452.9403    11685.408    1948.4709 
    3900    302.20178   -1163.2581    6392.5993    11685.418    1937.9547 
    4000     301.3012   -1159.6813    6408.3196    11685.476    1896.1502 
    4100     298.3646   -1159.4619    6470.8952    11685.535    1893.5136 
    4200    298.95076    -1166.102    6464.9645    11685.487     1920.266 
    4300    301.94406   -1163.0929    6398.0847    11685.563     1867.678 
    4400    300.45262   -1163.0608    6429.8857    11685.534    1838.7964 
    4500    300.62495   -1165.5224     6428.657    11685.525    1861.5291 
    4600    300.32554   -1160.3572    6429.8711    11685.508    1876.4689 
    4700    299.18758   -1158.9892    6452.8833    11685.578    1863.5637 
    4800    304.47443   -1164.8712    6345.9271    11685.685    1854.9799 
    4900    298.52696   -1162.9103    6470.9241    11685.584    1883.3485 
    5000    303.65633   -1161.5551    6360.0184    11685.615    1800.8299 
    5100     298.3292   -1163.8434      6476.08    11685.582    1875.3757 
    5200    302.88371    -1166.239    6381.2197    11685.626    1817.8657 
    5300    301.75224   -1172.3642    6411.5245    11685.634    1825.3819 
    5400    300.14797   -1163.5118    6436.9155    11685.604    1860.2345 
    5500    299.39552   -1160.7447    6450.2457    11685.627     1892.345 
    5600    300.25574   -1164.7134    6435.8762    11685.666    1894.0008 
    5700    300.11811   -1168.6025    6442.6585    11685.619    1846.6469 
    5800    298.56832   -1168.3653    6475.5436    11685.632    1916.2091 
    5900    301.54777   -1170.1253    6413.6022    11685.582    1913.0735 
    6000    301.01448   -1166.1263    6421.0692    11685.656    1920.2747 
    6100     299.9907   -1165.5254    6442.3655    11685.681    1866.7438 
    6200    301.69675   -1162.7533    6403.0824    11685.617     1844.493 
    6300    298.11835   -1159.1721    6475.9806     11685.65    1919.1947 
    6400    301.07957   -1165.8723    6419.3691      11685.6    1894.2065 
    6500    300.33784   -1163.4099    6432.6852    11685.532    1931.1707 
    6600    299.86335   -1165.5731    6445.0423     11685.59    1891.9273 
    6700     301.8182   -1167.7416    6405.4759    11685.617     1881.067 
    6800    297.25101   -1166.5771    6501.9175    11685.652    1936.4242 
    6900    303.41502   -1156.4262    6359.9815    11685.552    1884.7823 
    7000    303.21288   -1160.8208     6368.656    11685.513    1844.5355 
    7100    296.58268   -1160.7196    6510.1657     11685.48    1908.5777 
    7200    305.44953   -1162.0614    6322.0736    11685.473    1892.1103 
    7300    298.04178   -1159.9528    6478.2212    11685.474    1960.9245 
    7400    299.29368    -1160.485    6452.0145     11685.48    1864.3714 
    7500     300.0557   -1164.6904    6439.9752    11685.514    1823.4779 
    7600    300.56948   -1167.8219     6432.188    11685.572    1896.7755 
    7700    298.75877   -1163.2197    6466.1803    11685.483    1954.6183 
    7800    301.91553   -1157.4547    6393.0417    11685.549    1855.7419 
    7900    299.05191    -1166.985    6463.7654    11685.565    1893.8916 
    8000    299.55892   -1165.9864    6451.9084    11685.539    1861.6675 
    8100    302.92516   -1164.5918    6378.6582    11685.598    1913.6185 
    8200    302.30761   -1162.3001    6389.5831    11685.621     1903.017 
    8300    296.06642   -1168.0165    6528.6429    11685.631     1921.746 
    8400    299.98327   -1163.7971     6440.732    11685.617    1889.3428 
    8500    302.19365   -1167.0993    6396.7986    11685.603    1901.5329 
    8600    302.68193   -1166.3826    6385.6592    11685.612    1892.4759 
    8700    301.94184   -1163.6234    6398.7197     11685.62    1873.4288 
    8800    299.75336   -1168.9556    6450.8511    11685.666    1956.3087 
    8900    299.83438   -1168.4498    6448.6724    11685.724    1873.5716 
    9000    301.51593   -1165.2003    6409.4604    11685.685    1907.0664 
    9100    301.31262   -1166.3485    6414.9699    11685.703    1886.1673 
    9200    297.41314   -1166.4989    6498.4058    11685.682    1866.4095 
    9300    302.23451   -1169.0219    6397.8619    11685.617    1837.8386 
    9400    298.55645   -1158.0356    6465.4143    11685.579    1875.8814 
    9500    301.18418   -1159.4991    6410.7353    11685.574    1842.0856 
    9600    298.80902   -1154.1329    6456.1003    11685.564    1906.1652 
    9700    300.18392    -1158.237    6430.8523    11685.584    1870.6572 
    9800     302.6766   -1161.1738    6380.5392    11685.587    1867.7522 
    9900    300.10087   -1164.1754     6438.534    11685.553    1889.9632 
   10000    298.01743   -1165.8368    6484.6565    11685.505    1813.0886 
Loop time of 1398.92 on 8 procs for 1000000 steps with 7168 atoms

Pair  time (%) = 563.136 (40.2552)
Bond  time (%) = 296.627 (21.2041)
Neigh time (%) = 65.2812 (4.66656)
Comm  time (%) = 102.164 (7.30305)
Outpt time (%) = 0.00353765 (0.000252886)
Other time (%) = 371.704 (26.5708)

Nlocal:    896 ave 900 max 892 min
Histogram: 2 0 0 1 0 1 1 2 0 1
Nghost:    2847.12 ave 2855 max 2840 min
Histogram: 1 0 2 1 0 1 1 0 1 1
Neighs:    23592.9 ave 23923 max 23249 min
Histogram: 1 1 0 2 0 0 2 0 0 2

Total # of neighbors = 188743
Ave neighs/atom = 26.3313
Ave special neighs/atom = 157.056
Neighbor list builds = 10158
Dangerous builds = 0
