LAMMPS (11 Jun 2012)
# Initialization
atom_style      full
units           real
variable        T equal 300
variable        dt equal 1.0
variable        seed equal 123462
variable        radius equal 0.5
variable        sizet equal 4
variable        sizeb equal -4
variable        p equal 20000    # correlation length
variable        s equal 5        # sample interval
variable        d equal $p*$s    # dump interval
variable        d equal 20000*$s    variable        d equal 20000*5    
# convert from LAMMPS real units to SI
variable        kB equal 1.3806504e-23    # [J/K] Boltzmann
variable        kCal2J equal 4186.0/6.02214e23
variable        A2m equal 1.0e-10
variable        fs2s equal 1.0e-15
variable        convert equal ${kCal2J}*${kCal2J}/${fs2s}/${A2m}
variable        convert equal 6.9510174124148567155e-21*${kCal2J}/${fs2s}/${A2m}
variable        convert equal 6.9510174124148567155e-21*6.9510174124148567155e-21/${fs2s}/${A2m}
variable        convert equal 6.9510174124148567155e-21*6.9510174124148567155e-21/1.0000000000000000777e-15/${A2m}
variable        convert equal 6.9510174124148567155e-21*6.9510174124148567155e-21/1.0000000000000000777e-15/1.0000000000000000364e-10
variable        b_eq equal 10.0/3.0

# setup problem
dimension       3
boundary        p p p
neighbor        2    bin
pair_style      lj/cut 10.0
bond_style      morse
read_data       lammps.data
  9 = max bonds/atom
  orthogonal box = (0 0 0) to (80 80 80)
  2 by 2 by 2 MPI processor grid
  7168 atoms
  33696 bonds
  10 = max # of 1-2 neighbors
  86 = max # of 1-3 neighbors
  824 = max # of 1-4 neighbors
  164 = max # of special neighbors
pair_coeff      1 1 0.000 3.500
pair_coeff      2 2 0.000 3.500
pair_coeff      1 2 0.105 3.500
bond_coeff      1 10 1.8 ${b_eq}
bond_coeff      1 10 1.8 3.3333333333333334814
bond_coeff      2 5 0.805 7.4536
bond_coeff      3 10 1.8 ${b_eq}
bond_coeff      3 10 1.8 3.3333333333333334814
bond_coeff      4 5 0.805 7.4536
velocity        all create $T ${seed} mom yes rot yes dist gaussian
velocity        all create 300 ${seed} mom yes rot yes dist gaussian
velocity        all create 300 123462 mom yes rot yes dist gaussian
timestep        ${dt}
timestep        1
thermo          100
dump            T1 all cfg 600000 *.cfg id type xs ys zs
dump            T2 all xyz 10000 traj.xyz
#dump_modify    1 element Cu
# −−−−−−−−−−−−− Equilibration and thermalisation −−−−−−−−−−−−−−−−
fix             NVT all nvt temp $T $T 10
fix             NVT all nvt temp 300 $T 10
fix             NVT all nvt temp 300 300 10
run             300000
Memory usage per processor = 11.5453 Mbytes
Step Temp E_pair E_mol TotEng Press 
       0          300   -906.89526 0.00012694983    5502.1446    343.62551 
     100    241.80248   -934.13135    7099.8617    11331.469    2181.4789 
     200    295.56809   -990.96601    9955.2592    15278.652    1332.9699 
     300    303.85303   -987.07499    8370.6208      13874.9    700.32223 
     400    298.93221   -967.13161    6307.7511    11726.848    929.75939 
     500    298.13889    -953.1395     5726.218    11142.358    1306.9309 
     600    299.58513     -950.696    5763.0182    11212.499    1282.2968 
     700    299.64451   -962.15207    6406.5425    11845.836    1161.3215 
     800    299.09952    -975.7692    7164.3917    12578.425    1235.6111 
     900    302.79345   -978.61576    7031.9926    12522.094    1076.8049 
    1000    299.65809   -976.63113     6650.554    12075.658    1132.3411 
    1100    295.34858   -976.45831    6328.9781    11662.189    1326.7535 
    1200    302.62204   -977.37466    6207.8077    11695.489    1276.9759 
    1300    301.08855   -984.63693    6445.3398    11892.998    1245.6921 
    1400    298.48098   -994.81158    6606.7811    11988.558    1184.0267 
    1500    301.51201   -1000.6808    6876.5404    12317.201    1268.5071 
    1600    298.94985   -1006.4135    6664.1993    12044.391    1356.3943 
    1700    298.74182   -1011.9425    6365.5139    11735.732    1357.6948 
    1800    301.61239   -1018.0679     6393.932     11819.35    1347.3833 
    1900    299.87055   -1026.3875    6498.8672    11878.754    1344.2338 
    2000    301.90677   -1041.7358    6565.9988    11974.038    1412.8974 
    2100    295.10559    -1051.078    6401.5241    11654.924    1465.1472 
    2200    302.95688    -1068.166    6166.8105    11570.854     1476.689 
    2300    296.45377   -1080.5832    6353.5947    11606.292    1550.5377 
    2400     300.1839   -1092.7818    6276.3935     11596.58    1439.9126 
    2500    293.37384    -1112.313    6376.1732    11531.342    1436.3105 
    2600    299.71033    -1121.297    6301.1792    11582.734    1552.8938 
    2700    303.98736   -1135.5324    6238.7171    11597.408    1576.5419 
    2800    293.28336   -1140.1475    6410.7828    11536.184    1651.3425 
    2900    299.24016   -1153.1183    6259.9372    11499.626    1592.5849 
    3000    299.98737   -1156.3572    6044.3322    11296.745    1613.8907 
    3100    299.46931   -1142.1802    6201.4287    11456.951    1718.5145 
    3200    298.78135   -1145.8574    6438.3768    11675.524     1725.632 
    3300     304.6895   -1145.6626    6243.7017    11607.263    1676.0344 
    3400     298.9873   -1132.1195    6244.4781    11499.764    1692.2641 
    3500    306.33701   -1142.9151    6512.0106    11913.516    1649.0781 
    3600    298.59263   -1142.5953    6480.7094    11717.088    1664.4878 
    3700    305.86567   -1158.4102    6196.7222    11572.663    1692.0915 
    3800     301.2894   -1157.5078    6241.2067    11520.285    1718.5691 
    3900    302.01285   -1158.4755    6187.1211    11480.687    1756.1988 
    4000     302.2969   -1150.0788     6288.544    11596.575    1819.7561 
    4100    299.56677   -1148.4022    6384.9893    11636.371    1695.1507 
    4200    301.20395    -1133.913    6433.3973    11734.245    1645.2581 
    4300    299.58229   -1119.4309    6296.9774    11577.662    1696.6563 
    4400    299.30839   -1110.8253    6266.5376    11549.977    1696.6291 
    4500     299.8246   -1094.0582    6359.4687    11670.703    1653.8851 
    4600    302.81812   -1078.2778    6516.8187    11907.786    1721.8947 
    4700    296.24799   -1071.3001     6491.067    11748.651    1682.9802 
    4800    298.70008   -1061.6299    6590.7671    11910.406    1667.4216 
    4900    300.67921   -1055.5104    6446.9026    11814.942    1634.8785 
    5000    296.19669   -1050.6447    6363.8383    11640.981    1599.5407 
    5100    303.51482   -1047.9521    6481.1506    11917.327    1529.9788 
    5200    297.31984   -1046.8612    6593.9229    11898.844    1528.2365 
    5300    300.08026   -1047.3222    6647.0723    12010.504    1619.2617 
    5400    300.83441   -1047.8855     6519.019    11897.999    1561.4877 
    5500    302.32175   -1049.0649    6451.2157    11860.791    1644.4499 
    5600    298.43758    -1053.535    6305.8616    11627.988     1666.154 
    5700    300.55784   -1057.1897    6482.0877    11845.855    1619.4367 
    5800     297.9072   -1061.5284    6559.4156    11862.217    1601.1499 
    5900    298.57251   -1068.7113    6602.1898    11912.022    1642.4328 
    6000    297.54035   -1075.0509     6458.907    11740.349    1569.7762 
    6100     302.0311   -1086.0702     6391.619     11757.98     1596.238 
    6200    303.43451   -1098.9207    6442.9896    11826.482     1680.384 
    6300     297.9839   -1105.7405    6470.4225    11730.651    1626.1525 
    6400    301.97472   -1120.6593    6277.9881    11608.555    1592.1469 
    6500    299.31668   -1128.8121    6444.9011    11710.531    1709.2077 
    6600    301.49905   -1136.4928    6389.3648    11693.937     1631.968 
    6700    304.01669   -1147.7646    6271.4838    11618.569    1671.5245 
    6800    299.20062   -1145.8677     6328.532    11574.626    1751.6092 
    6900    298.73365   -1142.3117    6367.6674    11607.342    1768.6657 
    7000    296.22598   -1135.2751    6094.5454    11287.684    1682.9945 
    7100    303.22352   -1135.9222    6173.8877    11515.871    1795.2808 
    7200    298.36418     -1148.26    6337.6983    11563.531    1791.4389 
    7300    302.01717   -1151.1099    6340.9763        11642    1746.2025 
    7400    299.24774   -1146.4085    6329.0226    11575.583    1696.8449 
    7500    300.56912   -1156.1413    6384.4686    11649.525    1805.5914 
    7600    303.28368   -1157.4629     6244.719    11566.447    1754.0941 
    7700    298.22821   -1147.8789    6398.6199    11621.929    1880.5356 
    7800    300.85273   -1152.5045    6299.4337    11574.186    1857.4104 
    7900    301.03912    -1157.305    6272.2045    11546.139    1847.4429 
    8000    301.64911   -1151.0619    6282.8974    11576.106    1820.1598 
    8100    298.95983   -1146.3785    6374.1904     11614.63    1886.1796 
    8200    305.27957   -1149.3545    6281.4417    11653.917    1784.7538 
    8300    299.72072    -1135.484    6395.3915    11662.981    1737.7724 
    8400     294.0936   -1123.9353     6438.314    11597.237    1698.2163 
    8500    301.85123   -1114.2888    6413.1852    11747.485    1738.3268 
    8600    298.53913   -1104.1383    6367.2053    11640.898    1636.4171 
    8700    299.03224   -1095.4458    6579.4732    11872.392     1723.749 
    8800    302.48687   -1087.1357    6444.0997    11819.132    1712.7972 
    8900    297.71169   -1081.7192    6362.2732    11640.708    1636.8621 
    9000    301.69777   -1077.8727    6606.8524     11974.29     1678.048 
    9100    301.70561   -1075.1133     6544.877    11915.241    1664.9631 
    9200     302.5916   -1070.9933    6590.8938    11984.306      1715.81 
    9300    297.12151   -1071.4953    6492.0079    11768.058     1597.546 
    9400    299.92945   -1072.6786    6437.9197    11772.774    1689.1139 
    9500    295.94033   -1072.3965    6450.4453     11700.36    1710.0633 
    9600    302.24703   -1077.8616    6576.2713    11955.454    1695.0281 
    9700    304.58739   -1082.4098    6581.1233    12005.756    1705.1184 
    9800    295.15671   -1086.7363     6396.119    11614.953    1732.0097 
    9900    298.99159   -1093.1626    6331.9588    11626.293    1698.1397 
   10000     298.9928    -1105.984      6430.79    11712.328    1817.5357 
   10100    300.29247   -1116.0314    6487.0516    11786.308    1853.5847 
   10200    297.15418   -1124.8336    6348.2759    11571.685    1742.1939 
   10300    299.96305   -1137.9507    6446.1156    11716.415     1758.998 
   10400    306.25097   -1147.3205    6479.6995    11874.961    1816.0205 
   10500    296.98774    -1155.805    6213.8561    11402.739    1737.6952 
   10600    301.17122   -1142.5534    6365.3761    11656.884    1819.1349 
   10700    295.23989   -1149.4345    6426.2436    11584.156    1822.9927 
   10800     302.7025   -1157.3292    6290.9825    11600.428    1843.3812 
   10900    299.75588   -1158.3207    6391.5432    11637.047    1801.2836 
   11000    303.17556   -1174.3849    6385.1298    11687.625    1796.6104 
   11100    303.30422    -1183.758    6337.9762    11633.848    1791.9791 
   11200    297.92695   -1170.7632    6365.8275    11559.817    1805.8958 
   11300    299.89921   -1166.1822    6346.3363    11587.041    1780.0615 
   11400    300.93517   -1168.6629    6449.8671    11710.222    1913.0267 
   11500    300.72985   -1160.6534    6256.5099    11520.488    1859.3966 
   11600    298.52887   -1155.3143    6246.1575    11468.454    1843.8293 
   11700    300.16417   -1163.7458    6434.6179    11683.419     2015.973 
   11800    300.38957   -1165.1565    6232.1371    11484.343    1864.0121 
   11900    298.72374   -1162.5307    6365.6211    11584.865    1873.5497 
   12000     305.9797   -1157.6363    6439.7152    11818.866    1842.7659 
   12100      300.042   -1146.7637    6442.9429    11706.116    1874.1605 
   12200     299.3538   -1139.1063    6430.4447    11686.573    1859.1017 
   12300    295.21131   -1127.8667    6433.5404     11612.41    1809.8427 
   12400    302.91985   -1118.4317    6438.3393    11791.325    1801.7794 
   12500    302.35937   -1109.8063    6352.4469    11702.085    1782.7408 
   12600    299.86625   -1101.8197    6516.0971     11820.46    1798.6724 
   12700    305.24383   -1096.2879    6557.3654    11982.143    1759.8736 
   12800    298.77565   -1093.9243    6523.0987    11812.058    1790.6194 
   12900     305.8582   -1089.4948    6491.8081    11936.504    1734.7036 
   13000    295.95949   -1089.6901     6371.747    11604.777    1722.8296 
   13100    302.12533   -1089.5772    6527.5361    11892.403    1887.3036 
   13200    298.70442   -1090.0341    6472.2905    11763.618    1760.8155 
   13300    296.42977   -1094.1971    6532.9565    11771.527    1709.6149 
   13400    302.91659   -1101.5175    6476.3889    11846.219     1757.171 
   13500    296.11506   -1105.5101    6478.8467    11699.381    1764.0387 
   13600    299.36392   -1111.9556    6442.2536    11725.749    1700.9218 
   13700    309.46815   -1125.3276    6433.5272    11919.512    1859.2667 
   13800    296.29501   -1129.8394    6336.7089    11536.758    1814.1953 
   13900    298.51842   -1134.7115    6345.6152    11588.292    1855.1406 
   14000    300.27217    -1145.835    6339.8148    11608.834    1883.4164 
   14100    299.27814   -1145.3818    6470.7352    11718.972    1996.9221 
   14200    299.66698   -1145.5174    6366.1683    11622.576     1923.722 
   14300    298.05143   -1149.6676     6399.158    11616.902    1919.0977 
   14400    297.75552   -1146.6199    6351.1914    11565.661     1955.987 
   14500    301.32237   -1148.9009    6219.2727    11507.662    1883.4993 
   14600    294.72655   -1141.8359    6468.6695    11623.214    1907.2566 
   14700    303.87989   -1153.6655    6472.5988    11810.861    1907.2831 
   14800    301.23362   -1160.2875    6406.3619    11681.469    1889.9336 
   14900    300.87009   -1163.8553    6315.9412    11579.714    1880.7585 
   15000     302.8751   -1157.2688    6283.3479    11596.541    1889.7026 
   15100    295.94414   -1161.8992    6368.7916    11529.285    1911.0272 
   15200    301.83583   -1162.5444    6348.0229    11633.738    1848.6323 
   15300    296.29311   -1163.6092    6324.8511     11491.09    1890.5036 
   15400    298.05852   -1153.7509    6279.1731    11492.985    1873.1753 
   15500    302.32211    -1152.928    6407.0194    11712.739    1815.4846 
   15600    300.94169   -1140.4331    6455.5011    11744.225    1846.3414 
   15700    305.62743   -1136.4326    6400.6191    11793.448    1853.3977 
   15800    295.71869   -1133.6686    6520.8398    11704.747    1891.9868 
   15900    299.60037   -1119.4891       6423.9    11704.913    1873.7718 
   16000    304.19564   -1115.0865    6398.3789    11781.966    1939.0829 
   16100    298.25792   -1113.5192    6376.9784    11635.282    1886.3716 
   16200    301.77647   -1106.8313    6479.9787    11820.139    1880.5161 
   16300    294.08677   -1102.8726     6489.873    11669.713    1921.7889 
   16400    302.15735   -1102.9251    6458.9736    11811.177    1870.9919 
   16500    294.81456   -1100.6724    6579.5088    11777.097    1875.1771 
   16600    303.68177   -1102.8152    6491.6057    11876.486    1901.2116 
   16700     299.0531   -1100.4628    6438.0451    11726.393    1842.7896 
   16800    292.55849   -1100.7297    6402.4093    11551.743    1817.4574 
   16900    301.22485   -1101.8803    6390.4229    11723.749    1825.6341 
   17000    303.64832   -1103.4137    6572.1198    11955.686    1895.4695 
   17100    303.45284   -1101.3875    6487.8185    11869.235    1890.7053 
   17200     293.5505   -1107.4688    6395.7189    11559.506    1802.6404 
   17300    295.59015   -1105.9848    6413.9394    11622.785    1864.5846 
   17400    302.21611   -1104.2636    6404.8541    11756.974    1930.8331 
   17500    300.58773   -1100.3681    6417.7232    11738.951    1898.2109 
   17600    295.05532   -1106.5607    6376.4158    11573.259    1913.9692 
   17700    301.95296   -1106.4478    6387.2455    11731.559    1894.8297 
   17800    299.63985   -1108.5297    6457.6501    11750.466    1855.7654 
   17900    304.57707   -1115.1929    6453.1392    11844.768    1930.7599 
   18000    296.85277   -1113.5652    6299.7029    11527.942    1867.8073 
   18100    299.37753   -1107.8267    6424.3338    11712.249     1884.045 
   18200    302.35987   -1108.2118    6455.0466     11806.29    1842.7021 
   18300    299.00645    -1107.659    6368.0179    11648.173    1843.5897 
   18400    300.94689   -1110.1632    6340.8623    11659.968    1850.1488 
   18500    297.89975   -1102.8425    6416.8835    11678.212    1806.2433 
   18600    302.48093   -1103.4855    6526.2227    11884.778    1882.9392 
   18700    297.99836   -1102.0295    6337.0737    11601.322    1853.9245 
   18800    301.80708   -1101.4892     6473.325    11819.481    1860.1704 
   18900    293.76297   -1097.7064     6389.464    11567.553    1854.8613 
   19000    302.45163    -1096.593     6444.381    11809.203    1899.8134 
   19100    298.88455   -1098.6284    6520.9549    11807.536    1858.8951 
   19200    300.34156    -1097.162    6413.5832    11732.758    1750.2409 
   19300    304.70372   -1094.2831    6652.6496    12067.894    1888.6338 
   19400    300.11604    -1097.311     6519.904    11834.112    1827.3247 
   19500    297.75301   -1092.5351     6492.059     11760.56    1851.2165 
   19600    297.41477    -1091.452    6469.3408    11731.699    1814.2383 
   19700    297.52823   -1096.3453    6427.7218    11687.611     1824.525 
   19800    303.44536     -1103.75    6465.7547    11844.649    1817.1656 
   19900    299.23435   -1108.1516    6523.5264    11808.058    1892.9305 
   20000     297.1127   -1110.5866    6405.0895     11641.86    1807.7598 
   20100    299.09339   -1114.0819    6392.1327    11667.722    1802.0999 
   20200    301.29784   -1123.1646    6325.7601    11639.362    1822.5884 
   20300    298.26923   -1126.3443    6434.1242    11679.844    1837.5428 
   20400    303.28179   -1127.8749    6514.2069    11865.482    1836.9537 
   20500    301.09568   -1139.2606    6502.5499    11795.737    1896.5234 
   20600    304.88573   -1141.3499    6292.0444     11664.11    1856.9081 
   20700    300.38742   -1139.8349    6422.8685     11700.35    1885.1798 
   20800    297.75563   -1146.0115    6404.8911    11619.972     1929.594 
   20900    303.03976   -1148.6854    6240.7866    11566.081     1905.609 
   21000    297.56155   -1154.5476    6333.8576    11536.256    1882.8562 
   21100    301.36617   -1156.1191    6470.3772    11752.484    1932.9749 
   21200    296.99597   -1168.0814    6344.1257    11520.908    1885.3935 
   21300    302.04562   -1164.8945    6293.0954    11580.942    1817.0062 
   21400    297.16191   -1160.8867    6265.1053    11452.627    1781.4266 
   21500    307.70397   -1161.8049    6450.1292    11861.948    1839.1451 
   21600    294.17552   -1162.7942    6441.1425    11562.957    1809.4909 
   21700    302.43983   -1164.3313    6298.8869    11595.719    1845.1395 
   21800    296.84034   -1147.2243    6408.2826    11602.597    1914.4243 
   21900    297.74517   -1163.2837    6437.2494    11634.834    1850.2951 
   22000    301.55691   -1154.9691    6285.6323    11572.964    1827.8056 
   22100     299.9089   -1152.8944    6437.0242    11691.223     1915.778 
   22200    301.05478   -1150.7001    6386.4527    11667.326    1887.1594 
   22300    297.78909   -1150.3705    6343.2672    11554.704    1829.6527 
   22400    297.56844   -1143.0838     6446.046    11660.055    1887.9861 
   22500    299.34344   -1138.8791    6410.2028    11666.337    1866.3171 
   22600    301.03486   -1140.9814    6342.3376    11632.504    1872.8458 
   22700    298.15323   -1130.1096    6372.0653    11611.542     1896.094 
   22800    300.91705   -1134.4699    6472.3757    11766.537    1895.5847 
   22900    301.06687   -1127.8623    6395.5625    11699.532    1873.6099 
   23000     298.2305   -1128.1725     6451.324    11694.388    1798.3491 
   23100    299.33739    -1122.648      6361.43    11633.666    1785.5212 
   23200    299.42456   -1130.1727    6377.1924    11643.766    1816.0705 
   23300    298.68775   -1130.3542     6416.267    11666.918    1804.5855 
   23400    300.10426   -1130.5191    6370.4218     11651.17    1828.2364 
   23500     300.8908    -1135.245    6641.8567    11934.682    1891.7697 
   23600    295.55532   -1136.0909    6443.9734    11621.968    1740.8597 
   23700    302.30839   -1144.0541    6254.6863    11568.987    1718.4509 
   23800    300.79971   -1147.0823    6367.5453    11646.587    1849.9292 
   23900    298.70417   -1143.6594    6323.5883    11561.285    1799.7058 
   24000     302.6333   -1148.2607     6363.478    11680.513     1850.716 
   24100    303.08313   -1143.4827      6426.19    11757.613    1908.4391 
   24200    304.54374   -1145.8541    6429.5687    11789.824    1933.8007 
   24300    296.05907   -1137.2532    6317.8649    11505.459    1872.1097 
   24400    298.47893   -1144.4271    6339.5842    11571.701     1907.698 
   24500    298.83306   -1142.8751    6414.5434    11655.778    1963.3009 
   24600    301.67303   -1147.1377     6304.019    11601.663    1808.9526 
   24700    296.42398   -1149.6911    6404.5161    11587.469    1823.0217 
   24800    306.32004   -1158.8885     6498.821     11883.99    1893.4299 
   24900    303.91721   -1156.9166    6375.7817     11711.59    1864.2966 
   25000    299.60167   -1156.2183    6313.4215    11557.733    1865.2008 
   25100    298.84984   -1154.7973    6324.8815    11554.552    1873.9412 
   25200    300.16376   -1147.7289    6465.3909      11730.2    1968.2696 
   25300    300.42355   -1145.3297    6358.1687    11630.927    1919.3458 
   25400    298.04829   -1146.0144    6313.3961    11534.726     1896.076 
   25500    302.93327   -1147.3727    6449.5651    11773.897     1888.322 
   25600    297.89981   -1140.7622    6492.4934    11715.904    1853.5768 
   25700    298.18806   -1142.9454    6467.5185    11694.904     1859.138 
   25800    297.04671   -1137.5449     6284.766    11493.168    1808.8613 
   25900    299.90692   -1136.4132    6445.8559    11716.494    1847.8888 
   26000    296.58369   -1130.5904    6482.8212    11688.286    1853.0853 
   26100    301.60443    -1132.952    6416.5923    11726.956    1891.4378 
   26200    297.93745   -1133.3268    6403.4765    11635.126    1813.4831 
   26300    298.41253   -1137.7678    6351.4289    11588.787    1799.5711 
   26400    300.83244   -1130.0625    6478.9582    11775.719    1863.6087 
   26500    299.57438   -1133.9551    6383.1078      11649.1    1846.8039 
   26600    292.92946   -1129.6438    6470.6027    11598.947    1865.7407 
   26700    299.11458   -1131.6395    6432.8089    11691.293    1925.7779 
   26800    296.40362   -1138.1851    6311.4619    11505.485    1913.2291 
   26900    300.95542   -1140.9766    6397.5662     11686.04    1889.2152 
   27000    299.01054   -1141.5113    6475.2761    11721.666    1867.7156 
   27100    302.40812   -1143.3685    6441.5476    11758.664    1905.5892 
   27200    297.59766   -1143.7491    6432.8077    11646.776    1843.8942 
   27300    301.76992   -1141.7029    6497.1746    11802.323    1904.0509 
   27400    296.85308   -1143.5028    6372.0322     11570.34     1823.739 
   27500    302.69636   -1140.1468    6438.4815    11764.978    1890.6623 
   27600    297.67046   -1144.2905    6428.2127    11643.195    1914.0471 
   27700    297.23256   -1154.0549    6358.9602    11554.823    1864.5623 
   27800    304.62132   -1149.1665    6473.0864    11831.687    1929.7133 
   27900    299.68203   -1152.9781    6392.6656    11641.934    1857.5259 
   28000     299.1597   -1154.0478    6335.5902     11572.63    1844.9106 
   28100    304.27395   -1158.7893    6400.3362    11741.893     1909.033 
   28200    303.21967   -1157.8179    6321.0517    11641.057    1884.0377 
   28300    302.43761   -1155.9244    6259.1343    11564.325    1893.0214 
   28400    300.43423   -1148.2678    6437.9099    11707.959    1938.8124 
   28500    303.99928   -1145.9156    6426.5335    11775.096    1934.3305 
   28600    299.99173   -1140.7366    6359.0873    11627.214    1895.9973 
   28700    303.19486   -1140.7628    6448.3087    11784.839    2013.3653 
   28800    296.00701   -1146.6496    6377.8381    11554.924    1900.2927 
   28900    300.16906   -1150.1948    6288.3356    11550.792    1853.6566 
   29000    300.14118   -1150.6206    6459.7003    11721.136    1939.2288 
   29100     295.0901   -1140.8863    6436.7794     11600.04    1890.4952 
   29200    299.23584    -1147.705    6389.2418    11634.251    1903.3134 
   29300    301.47315   -1143.0752    6399.5726    11697.009    1919.6032 
   29400    297.54463   -1138.2638    6430.1843    11648.505     1808.484 
   29500    297.01088     -1135.93    6496.9339    11706.186    1820.1495 
   29600    301.18003   -1130.3808    6474.6542    11778.523    1854.6291 
   29700    294.70256   -1128.8886    6423.7243    11590.704    1847.1092 
   29800    302.14505   -1130.4533    6496.0161    11820.428    1850.4481 
   29900    299.33253   -1123.9909    6435.3232    11706.112    1867.6285 
   30000    303.00811   -1123.3528    6431.6692     11781.62     1860.583 
   30100    299.80355   -1123.3059    6498.6871    11780.224    1851.6053 
   30200     297.6408   -1123.1296    6487.2992    11722.808    1808.9491 
   30300    305.43186   -1122.4478    6489.5437    11892.179    1836.2784 
   30400    300.16786   -1126.6716    6474.6475    11760.602    1845.5951 
   30500    296.71751    -1133.211     6481.998    11687.701    1835.2569 
   30600    299.21161   -1132.6136    6495.3139    11754.897    1844.1311 
   30700    301.09918    -1140.893    6319.5489    11611.178    1866.6144 
   30800    299.86286    -1148.142    6388.4553    11646.423    1893.1148 
   30900    297.72933   -1142.3169    6432.8822    11651.096    1851.7189 
   31000    302.54369   -1151.3041    6464.9883    11777.066    1894.4821 
   31100    293.85463   -1146.3222    6303.8983    11435.329    1843.7784 
   31200    303.94787   -1159.7859    6372.8448    11706.439    1962.6619 
   31300    299.50141   -1160.3933    6315.9834    11553.978    1920.3089 
   31400    299.73222   -1154.6895    6472.4461    11721.076    1928.7354 
   31500    299.49817   -1158.6862    6443.4163    11683.049    1949.3287 
   31600    302.68863   -1157.3921    6351.5076    11660.594     1961.011 
   31700    296.02685   -1158.1412    6313.0299    11479.048    1920.0827 
   31800     301.9406   -1154.9012    6374.5007    11670.097    1987.1394 
   31900     300.7493   -1160.2277    6437.2138    11702.033    2033.3869 
   32000    295.80309   -1162.0921    6239.5262    11396.813     1935.675 
   32100    303.60281   -1163.5902    6310.8489    11633.267    1974.7731 
   32200    299.12279    -1155.672    6415.7139    11650.341     1946.694 
   32300    302.51459   -1159.4337    6449.6957    11753.022      2017.38 
   32400    296.43173    -1164.299    6264.4096     11432.92    1928.6638 
   32500    303.45233   -1157.1422    6343.8781    11669.529    1877.3141 
   32600    298.45398   -1151.9339    6489.6245    11713.702    1943.7962 
   32700    300.31141   -1151.7309    6373.8047    11637.766    1915.2086 
   32800    299.56897   -1145.2464    6446.5459    11701.131     1888.859 
   32900    298.62441   -1141.2858    6330.4466    11568.813     1841.359 
   33000    298.69296   -1141.5578    6424.7547    11664.314    1899.0941 
   33100    295.80489   -1134.4779    6467.0342    11651.974    1816.4501 
   33200    299.63095   -1130.8866      6477.13    11747.399    1828.3928 
   33300    302.37236   -1132.7101    6454.8102    11781.822     1889.894 
   33400    299.19266   -1126.6489    6472.1693    11737.312    1890.0475 
   33500    305.32307    -1128.544    6460.6502    11854.865    1886.1528 
   33600    296.73421   -1127.3761    6367.0589    11578.954    1876.5391 
   33700    304.28438    -1127.606     6458.471    11831.434    1866.1919 
   33800    304.51869   -1128.6272    6454.7134    11831.661    1817.7224 
   33900     296.7208   -1136.1264    6557.8935    11760.752     1894.063 
   34000    300.00141   -1136.3984    6416.6681    11689.339    1823.7284 
   34100    298.56228   -1139.3004    6361.8435    11600.868    1796.4755 
   34200     300.5573   -1134.7991    6534.2856    11820.432    1975.8841 
   34300     300.3991   -1138.6492    6446.6818    11725.598    1922.0924 
   34400    303.50609   -1141.2191    6249.9425    11592.665    1847.8548 
   34500    301.10864   -1148.4001    6392.5329    11676.857    1932.9939 
   34600    296.66572   -1146.7926    6482.3435    11673.359    1981.4655 
   34700    301.53617    -1148.825    6516.5245    11809.557    1924.5615 
   34800    303.52816   -1150.4175    6384.2208    11718.217    1851.5847 
   34900    294.20046   -1149.5019    6379.2734    11514.913    1906.1496 
   35000    302.00729   -1155.3798    6359.8222    11656.365    1996.1429 
   35100    297.35691   -1155.4732    6319.7406    11516.841    1868.5635 
   35200    300.42307   -1153.1907    6531.2529     11796.14    1950.6033 
   35300    300.21704   -1155.7124    6528.8394    11786.803    1972.4492 
   35400    297.72734   -1153.5388    6281.3284    11488.277    1835.3291 
   35500    302.21321   -1160.3807    6320.2998    11616.241    1909.2128 
   35600    302.28114   -1156.6519    6408.9949    11710.116    1989.6356 
   35700    295.29972   -1151.3283    6368.1168    11525.414     1872.726 
   35800    297.55306   -1154.8823    6365.7426    11567.625    1859.7422 
   35900    301.89485   -1151.5436    6372.2901    11670.267    1937.7762 
   36000    300.17831   -1152.6049     6375.137    11635.381    1941.6768 
   36100    299.19834    -1150.172    6427.4142    11669.156    1959.2876 
   36200    297.31233   -1145.1936    6474.5971    11681.025    1955.2908 
   36300    301.05937   -1146.2932    6411.2893    11696.668    1867.1028 
   36400    297.73848   -1140.0439    6436.4357    11657.118    1905.6425 
   36500    299.51273   -1141.6429    6391.9945    11648.981    1867.1138 
   36600    303.06248   -1148.0577    6392.0714    11718.479    1855.9545 
   36700    298.35665   -1146.0449    6490.7101    11718.597    1865.0656 
   36800    299.48189     -1140.45    6542.8285     11800.35    1909.0723 
   36900    298.82461   -1140.7999    6371.0934    11614.223    1799.8803 
   37000    300.11155   -1140.3895     6457.879    11728.912    1848.2398 
   37100    300.25055   -1140.4963     6404.965    11678.861    1822.8098 
   37200    299.84985   -1130.6241    6583.3565    11858.564    1908.0791 
   37300    299.89477   -1131.2932    6461.2237    11736.722    1845.7217 
   37400    298.70299   -1132.1379    6421.5325    11670.726    1836.5727 
   37500    303.77994    -1134.138    6428.1866    11783.841    1917.3614 
   37600    299.94658    -1134.431    6460.0905    11733.558    1850.7146 
   37700    302.47771   -1136.2182    6383.9356    11709.689    1831.3824 
   37800    299.57498   -1139.3376    6516.6285    11777.251    1945.2904 
   37900    299.28252    -1144.714    6425.5332    11674.531    1947.4935 
   38000    302.45173   -1140.6878    6342.2003     11662.93    1922.2895 
   38100    301.18662   -1144.8818    6408.8304    11698.339    1936.6071 
   38200     298.2073    -1147.848    6509.0223    11731.916     1942.949 
   38300    302.15604   -1151.5136     6408.081    11711.668    1863.3218 
   38400    302.99729   -1151.4295    6296.3947    11618.037    1850.2838 
   38500    298.60046   -1160.3312    6454.2354    11673.045    2004.8244 
   38600    301.46157   -1163.1512    6494.7198    11771.832    1938.6638 
   38700    302.04974   -1165.0088    6415.0938    11702.914    1881.1257 
   38800    300.47692   -1170.2806    6389.6428    11638.591    1897.8564 
   38900    299.71496   -1175.3161    6315.3525    11542.987    1859.2441 
   39000    294.29302   -1169.8377    6390.4134    11507.695    1850.4445 
   39100    298.97023   -1166.6961    6388.7065    11609.051    1861.8421 
   39200    303.25679   -1173.6428    6420.0952    11725.068    1898.6726 
   39300    301.51239   -1167.3682    6385.5993    11659.581    1866.7618 
   39400    298.35834   -1173.9074    6313.0694     11513.13    1907.8564 
   39500    295.56682   -1176.1335    6231.2628    11369.461    1834.9911 
   39600    299.87442   -1168.0582    6526.4971    11764.796    1818.0761 
   39700    297.90449   -1166.8346    6491.5223     11688.96    1825.6076 
   39800    296.01222   -1173.3512    6408.8371    11559.333    1921.5785 
   39900     301.1875   -1172.7244    6286.9992    11548.684     1908.244 
   40000    298.18795   -1164.4612    6357.5784    11563.445    1846.5529 
   40100    297.06659   -1159.7598    6525.0089    11711.621    1925.0681 
   40200    295.77113   -1156.8052    6509.2985     11671.19     1874.479 
   40300    302.82033   -1155.6331    6362.2952    11675.954    1868.8645 
   40400    295.89808   -1153.1284    6383.5334    11551.813    1921.9786 
   40500    302.03363   -1147.9606    6368.2082    11672.733    1827.6988 
   40600    302.22232   -1143.3018    6527.5852      11840.8    1853.4106 
   40700    300.94304   -1142.1366    6484.9542    11772.004    1903.3615 
   40800     294.9646    -1137.229    6402.0087    11566.246    1858.6236 
   40900     301.1768   -1138.8465    6421.1373    11716.471    1862.4864 
   41000    302.25341   -1134.4582    6495.1013    11817.824    1936.1536 
   41100    297.93931   -1134.0178    6435.5138    11666.512    1778.3293 
   41200    298.33309   -1133.6243    6567.5837    11807.388    1766.9673 
   41300    296.97267   -1138.8972    6500.7637    11706.232    1858.7535 
   41400    303.00076   -1140.8302    6437.3152    11769.631    1936.8364 
   41500    297.95447   -1138.3587     6363.045    11590.026     1816.876 
   41600    299.78398   -1140.5243    6469.3659    11733.266    1870.5736 
   41700    301.17186   -1144.3365     6412.568    11702.306     1854.462 
   41800    298.77981   -1144.8738    6550.4007    11788.499    1898.3607 
   41900     300.1958   -1146.6879    6421.7307    11688.265    1844.9034 
   42000    304.13699   -1154.2279     6261.174    11604.366    1847.6833 
   42100    295.88919   -1152.8531    6443.6769    11612.042    1918.7401 
   42200    299.14846   -1154.2251     6461.159    11697.782    1886.5201 
   42300    299.60465   -1161.2283    6424.4491    11663.814    1893.0116 
   42400    301.23854   -1155.0686    6382.2194     11662.65    1934.5666 
   42500    293.24205   -1164.8591    6398.1435    11497.951    1909.4143 
   42600    296.30361   -1163.8035    6314.5039    11480.772    1909.1539 
   42700    301.47528   -1161.6139    6384.4441    11663.387    1894.0795 
   42800    298.44788   -1159.0516    6488.0978    11704.927    1892.8001 
   42900    301.70243   -1156.8308    6451.5802    11740.159    1907.2992 
   43000    297.46561   -1163.6324    6325.2857     11516.55    1867.4731 
   43100     300.7055   -1164.7498    6483.7402    11743.102     1943.244 
   43200     299.4274   -1154.8644    6369.0675     11611.01    1904.1645 
   43300    299.32045   -1154.9527    6289.5479    11529.117    1864.4332 
   43400    299.61817   -1160.0195    6320.5471     11561.41    1801.9385 
   43500    302.11811   -1148.7024     6616.438    11922.025    1874.5059 
   43600    299.78541   -1152.1393    6447.3797    11699.696    1791.6524 
   43700    299.94851   -1149.0318    6402.4939    11661.402    1850.1223 
   43800    301.45203    -1143.466    6338.9454     11635.54    1804.2813 
   43900    299.29652   -1147.1582    6532.8632    11779.716    1867.5002 
   44000     299.6241   -1140.3527    6411.9218    11672.578    1836.8955 
   44100    294.49008   -1138.6843     6424.122    11576.766     1812.317 
   44200    301.42872   -1135.7523    6497.9717    11801.781    1888.9049 
   44300    297.06591   -1133.8309    6491.1284    11703.655    1897.2639 
   44400    304.28673   -1136.6382    6587.5898    11951.571    1923.1608 
   44500    294.50358   -1135.2912    6380.8585    11537.184     1796.617 
   44600    300.28416     -1138.59    6407.2452    11683.766    1842.0769 
   44700    291.50087   -1142.6536    6489.0367    11573.852    1869.0961 
   44800     298.6236   -1142.2376    6410.2759    11647.673    1898.4008 
   44900    302.60081   -1140.6894    6470.7249    11794.637    1888.8796 
   45000    301.18253   -1141.5178    6501.2159    11794.001    1900.9615 
   45100     299.3474   -1147.1671    6472.4311    11720.362    1899.6118 
   45200    299.40078   -1146.5841      6380.45    11630.104    1838.9776 
   45300    305.14128    -1148.299    6406.4267    11777.003    1858.9642 
   45400    299.99387   -1155.4601    6429.8355    11683.284    1939.1337 
   45500    297.80676   -1158.5093    6435.9299    11639.605    1964.7695 
   45600    300.89462   -1155.5244    6383.1469    11655.774    1871.6302 
   45700    297.42665   -1155.0024    6425.1308    11624.192    1898.7851 
   45800    305.08709   -1154.2016    6406.9495    11770.466    1851.0383 
   45900    299.64288   -1154.5188    6461.6873    11708.579    1870.8761 
   46000    302.19629    -1164.266    6320.4619    11612.156    1830.2647 
   46100    299.05299   -1162.3622    6433.9404    11660.387    1936.8972 
   46200    300.22842   -1160.2414    6327.5529    11581.231    1854.8071 
   46300    300.04577   -1159.5606    6457.8049    11708.262     1895.196 
   46400    301.16465    -1163.859     6399.735    11669.797    1864.7815 
   46500    299.21563   -1161.4266    6381.6937     11612.55    1904.8927 
   46600    302.36627   -1161.4332    6404.9253    11703.084    1913.6632 
   46700    296.54749   -1164.7628    6319.7494    11490.269    1793.1236 
   46800    300.33225   -1160.1626    6543.3486    11799.324    1829.5798 
   46900    297.77234   -1149.9831    6479.6883    11691.154    1813.2254 
   47000    299.97436   -1150.9709    6310.5536    11568.075    1833.8978 
   47100    298.89777   -1152.0344    6457.2592    11690.717    1974.9014 
   47200    301.17383   -1149.0416    6453.2738    11738.349    1903.0248 
   47300    295.77259   -1145.4871    6405.1699     11578.41    1827.2148 
   47400    303.19375   -1147.7636    6464.2692    11793.775    1873.4879 
   47500    299.04063     -1144.68    6481.7806    11725.645    1852.0121 
   47600    300.47585   -1147.6991    6482.4278    11753.934    1854.0472 
   47700    300.44164   -1139.4557    6399.9188    11678.938    1776.7477 
   47800    297.96229   -1145.0816    6455.6143     11676.04    1848.4319 
   47900    304.14781   -1148.9749    6537.3258    11886.002    1930.9311 
   48000    300.05719    -1148.129    6573.0537    11835.186    1924.9532 
   48100    300.42865   -1153.3995     6259.659    11524.457    1810.5041 
   48200    300.15803   -1150.4832    6470.3317    11732.264    1962.6411 
   48300     302.6403   -1152.7177    6391.7343    11704.462    1878.9424 
   48400    301.29895   -1154.5759    6469.1363     11751.35    1931.1984 
   48500     299.5238   -1158.6789    6407.7996    11647.987    1887.5429 
   48600    295.71535   -1167.6643    6411.8291     11561.67    1788.3158 
   48700    303.15636   -1170.3613     6439.236    11745.345    1815.7293 
   48800    300.07108   -1167.8897    6329.7301    11572.398    1803.1779 
   48900    299.44032   -1171.2877    6497.0577    11722.853    1876.3208 
   49000    296.50974   -1165.2139    6386.3149    11555.577    1896.0007 
   49100    299.59053   -1174.2103    6309.1902    11535.272    1949.3061 
   49200    302.13672   -1166.1442    6349.7985    11638.342    1911.0158 
   49300    295.44083    -1161.885    6489.6641    11639.419    1891.0777 
   49400    302.58765   -1170.4728    6386.9728    11680.821    1902.3474 
   49500    295.84767   -1169.0184     6390.972    11542.285    1863.7956 
   49600    301.42265   -1173.3355    6340.9625     11607.06    1824.2781 
   49700    295.92915   -1176.2913     6469.176    11614.957    1839.8361 
   49800    297.75092   -1171.2882    6475.0455    11664.749    1793.1673 
   49900    299.95768   -1168.8767    6396.5224    11635.781    1846.6167 
   50000    302.09444   -1167.8892    6415.7782    11701.673    1911.8886 
   50100    297.19583   -1162.0654    6398.4381    11585.506    1839.5332 
   50200    301.79222   -1152.8549    6390.3228    11684.795    1897.0913 
   50300    300.24785   -1154.2619    6359.4285    11619.501    1857.2993 
   50400    292.01086   -1153.6114    6426.2554    11511.008    1810.4043 
   50500    297.85761   -1145.7731    6486.9687    11704.466     1830.949 
   50600    301.55048   -1143.9451    6504.7398    11802.958    1856.9198 
   50700    299.10141   -1144.9054    6459.2915    11704.229    1854.6027 
   50800     301.1831    -1144.288    6380.3303    11670.357    1874.0561 
   50900    301.78191   -1140.4157    6532.1916    11838.883    1905.5701 
   51000    297.79903   -1140.3864    6485.1085    11706.741    1824.8398 
   51100    302.06649   -1143.6087    6450.5994    11760.178    1835.1256 
   51200    300.70864   -1142.8149    6321.0428    11602.407    1777.8021 
   51300    297.60931   -1144.0098    6507.4157    11721.372    1868.0855 
   51400     303.6878     -1141.96    6490.6509    11836.515    1928.7957 
   51500    298.13498   -1141.5251    6418.5617    11646.233    1916.8818 
   51600     295.5653   -1143.8337    6402.8517    11573.317    1905.7844 
   51700    301.41115   -1145.1667    6333.2021    11627.222    1885.2984 
   51800    298.54913   -1154.6132     6512.386    11735.817    1924.8648 
   51900    298.95659    -1157.675    6471.5356     11700.61    1893.3467 
   52000    300.36598    -1162.835    6404.9833    11659.007    1814.8134 
   52100    296.45782   -1169.6832    6461.8458    11625.529    1792.0634 
   52200    301.33604   -1163.6596    6344.3809    11618.303    1835.1797 
   52300    300.13634   -1163.3035    6427.0823    11675.731    1888.4759 
   52400    298.04024   -1159.4923    6371.7913    11579.471    1832.2473 
   52500    303.02494   -1158.0254    6409.9298    11725.567    1898.5056 
   52600    297.53885   -1158.4217    6455.6298    11653.669    1866.0593 
   52700    297.85744   -1171.9925    6408.6136    11599.888    1858.3375 
   52800     299.8291   -1175.4514    6355.2275    11585.165    1900.5732 
   52900     298.1046   -1174.4137    6393.7895    11587.923    1889.5538 
   53000    304.15907   -1177.5706    6492.9751    11813.296    1862.7329 
   53100    296.56679   -1176.4173    6395.6239    11554.901    1898.0336 
   53200    303.29211   -1169.1708    6395.3989    11705.599    1956.8559 
   53300    300.70089   -1169.7401    6373.5415    11627.814    1895.4422 
   53400    297.04693   -1162.2755    6373.6247    11557.301      1940.21 
   53500    303.41903   -1161.5014    6448.8414    11769.422    2001.8973 
   53600    298.79855   -1162.6501    6275.6165    11496.339    1877.4483 
   53700    302.26123    -1157.291    6423.6242    11723.681     1882.634 
   53800    300.33206   -1155.7254    6516.6212     11777.03    1973.1341 
   53900    300.81138   -1160.9776    6312.8216    11578.218    1862.8756 
   54000    300.21005   -1166.7546     6434.459    11681.231    1877.0871 
   54100    296.18174   -1161.8972    6425.5847    11591.156    1831.9394 
   54200     306.9108   -1154.1755    6441.0546    11843.557    1899.7713 
   54300    301.24267   -1156.3418    6428.2625    11707.508    1874.1126 
   54400    299.52605   -1149.5694    6425.2328    11674.578    1834.7127 
   54500    299.57394   -1146.3023    6468.9346     11722.57    1866.5249 
   54600    300.86247   -1147.2427    6331.6929    11611.915    1872.6709 
   54700    297.76103   -1149.0825    6344.7429    11556.868    1884.9685 
   54800    306.27667   -1152.0428    6430.4472    11821.536    1915.4592 
   54900    296.53545    -1155.086    6452.0842    11632.023    1880.8664 
   55000    299.43711   -1155.3224    6333.8347    11575.527    1811.7071 
   55100    301.04022   -1152.1538    6497.1737    11776.282     1783.928 
   55200    297.02075   -1152.3374    6469.9367    11662.992    1807.8117 
   55300    302.26311   -1153.7708    6339.8363    11643.453    1896.6666 
   55400    297.49413   -1146.3813    6329.1995    11538.324    1861.8326 
   55500    303.47569   -1153.7747    6522.5074    11852.025    1914.1098 
   55600    300.11611   -1151.3064    6461.0085    11721.222    1947.6632 
   55700    298.43089   -1156.6684    6464.2966    11683.146    1902.6972 
   55800    298.78503   -1156.2764    6353.1471    11579.954    1904.2294 
   55900     301.7601   -1162.8116     6394.099    11677.929    1966.2102 
   56000     299.0987   -1161.5888    6351.5404    11579.736    1874.4338 
   56100    298.81015   -1157.5448    6447.3875    11673.463    1880.5397 
   56200     300.2295   -1152.1272    6532.8055    11794.621    1948.0362 
   56300    300.86219   -1156.4316    6457.5089    11728.536    1970.1249 
   56400    302.14664    -1155.258    6290.7154    11590.357    1881.8798 
   56500    296.15237   -1154.0653    6400.1298    11572.906    1912.8155 
   56600     300.3933   -1154.8799    6329.0366    11591.599    1834.6709 
   56700    296.83015   -1149.5071    6515.4684    11707.282    1858.7643 
   56800    299.30701   -1155.8935    6408.8192    11647.161    1855.1118 
   56900    301.64381   -1160.2975     6284.453    11568.313    1844.9729 
   57000    297.79134   -1156.4623    6323.4617    11528.854    1864.7239 
   57100    305.42402   -1152.2245    6421.9271    11794.618    1902.8714 
   57200    296.71336    -1149.839    6414.2991    11603.286    1889.5956 
   57300    301.97099   -1147.5053    6441.7264    11745.368    1876.0703 
   57400    301.34405   -1146.0346    6438.0129    11729.732    1893.7443 
   57500    296.80056   -1149.9371    6329.8073    11520.559    1905.2988 
   57600    301.84008     -1150.23    6316.6395     11614.76    1884.5642 
   57700    300.50697   -1149.7875    6432.8013    11702.884    1837.2889 
   57800     299.4528    -1149.841    6503.8995    11751.408    1850.9387 
   57900    300.70043   -1150.4482    6417.2676    11690.823    1843.8481 
   58000    296.74006   -1148.1022    6400.0458     11591.34    1786.5314 
   58100    304.37256   -1147.7598    6314.9602    11669.653    1775.5064 
   58200     296.6541   -1141.0126    6442.9934     11639.54    1909.7635 
   58300    299.78645   -1149.8608    6400.0619    11654.679    1838.9941 
   58400    298.42572   -1146.6287     6404.027    11632.806    1847.3271 
   58500     303.3934   -1154.4844    6345.3483    11672.398    1919.4108 
   58600     296.7973   -1152.0283    6506.7642    11695.355    1938.4344 
   58700    297.87579   -1155.9278     6400.645    11608.376     1846.355 
   58800    306.05049   -1155.7744    6335.3451     11717.87    1877.3163 
   58900    300.29207   -1153.4806    6424.8699    11686.669    1933.4726 
   59000    299.47844   -1152.1275    6479.0833    11724.853    1862.6178 
   59100     301.6146   -1150.0335    6429.3364    11722.836    1879.7402 
   59200    301.57127   -1157.5874    6444.4886    11729.509     1929.018 
   59300    295.75901    -1153.965     6294.929    11459.402    1853.2073 
   59400    305.03515   -1153.7934    6385.9893    11748.804      1815.34 
   59500    298.35482   -1152.8546    6550.1493    11771.188    1914.3985 
   59600    296.09877   -1161.5864    6387.2388    11551.348    1866.1965 
   59700    302.80642   -1162.2909    6290.2354    11596.939    1840.7699 
   59800    298.69961   -1154.7402    6441.5094    11668.028    1917.0259 
   59900     303.3884   -1155.0818    6487.0469    11813.393    1939.3174 
   60000    300.35372   -1156.3572    6430.5483    11690.788    1800.5605 
   60100    299.21839   -1156.5502    6418.9342    11654.726    1856.1171 
   60200    301.05354   -1153.0927    6377.8781    11656.332    1846.4885 
   60300    299.74656   -1151.3241    6431.0261    11683.327    1798.9831 
   60400    302.32009   -1150.1558    6483.5141    11791.963    1855.7616 
   60500    304.51768   -1157.0875    6317.6335    11666.099    1848.7409 
   60600    300.31708   -1151.2625    6429.6368    11694.188    1906.6021 
   60700    298.77263   -1152.5986    6414.6424    11644.863    1920.1317 
   60800    300.19092   -1157.3111    6373.3521    11629.159    1860.5484 
   60900      299.282   -1150.0679    6492.6308    11736.263    1864.6655 
   61000    298.36838   -1154.5807    6405.0867    11624.689    1796.3003 
   61100    304.55151   -1148.9738    6351.3649    11708.667    1836.8218 
   61200    297.35497   -1150.8633    6459.7084    11661.378    1916.5127 
   61300    307.59911   -1147.7605    6463.9311    11887.554    1846.9013 
   61400    298.99799   -1148.9527    6384.2268    11622.907     1823.336 
   61500    302.87579   -1146.5038    6488.9966    11812.969    1898.7406 
   61600    295.60879   -1151.9279    6437.7783    11601.079     1838.977 
   61700     305.0648   -1156.5058    6281.9516    11642.687    1783.6151 
   61800    300.86455   -1161.6288    6463.0304    11728.911     1885.741 
   61900    303.27334    -1158.224    6394.1549      11714.9    1825.0329 
   62000    298.18405   -1163.9045    6372.9924    11579.333    1830.3185 
   62100    300.83322   -1160.7139    6362.0182    11628.144    1838.2458 
   62200    303.41486   -1164.5574    6459.8776    11777.313    1812.5949 
   62300    297.57395   -1159.9509    6444.5332    11641.793    1776.1701 
   62400    299.00345   -1163.6981    6332.6311    11556.683    1846.0777 
   62500    301.32612   -1171.1122    6373.1947    11639.453    1855.0796 
   62600    301.24432   -1167.4577    6339.0459    11607.211    1805.8821 
   62700    297.17508   -1166.9531    6423.6038     11605.34    1896.2674 
   62800    300.87508   -1163.8615    6486.9617    11750.835     1908.218 
   62900    301.71913   -1168.7791    6441.3914    11718.378    1846.4421 
   63000    296.11194   -1169.6043    6394.8436    11551.217    1899.0448 
   63100    302.12788   -1171.0158     6279.826    11563.309    1893.1052 
   63200    299.92651   -1172.7557    6466.6235    11701.338    1877.6801 
   63300    301.19256   -1162.5365    6473.4379    11745.418    1886.6042 
   63400    298.61065   -1166.6375    6393.5047    11606.226    1905.7273 
   63500    300.97674   -1164.0448    6412.8461    11678.708    1938.3591 
   63600    301.88456   -1160.3407    6357.8604     11646.82    1857.4946 
   63700    296.89092   -1161.2506    6338.6137    11519.982    1870.7498 
   63800    300.54916   -1161.7924    6513.9162    11772.895    1906.6901 
   63900    299.88448   -1156.6735    6540.9896    11790.888    1905.9878 
   64000    299.74758   -1152.6207    6357.3494    11608.376    1831.8591 
   64100    302.68135    -1155.201    6371.4365    11682.558    1886.2057 
   64200    297.08125   -1146.7503    6484.3817    11684.316    1864.5122 
   64300    300.94234   -1149.1224    6393.4838    11673.533    1851.0195 
   64400    301.09847   -1145.0779    6427.9263    11715.355    1888.0783 
   64500    299.11365   -1145.6312    6575.2017    11819.675    1918.3005 
   64600    307.90657    -1149.223    6445.6383    11874.367    1877.4722 
   64700      299.113    -1145.086    6449.1146    11694.119    1888.5326 
   64800    303.14276   -1145.1717     6485.075    11816.083    1879.3956 
   64900    296.08327   -1148.1445    6423.1595     11600.38     1850.647 
   65000    296.92473   -1149.7661    6402.6577    11596.233    1861.7918 
   65100    300.31606   -1142.8802    6506.1643    11779.076    1920.0652 
   65200    296.78322   -1147.6368    6345.3678    11538.049    1872.5181 
   65300    304.02176   -1146.5363    6470.4442    11818.866    1977.4319 
   65400     299.5513   -1147.4153    6404.2878    11656.326    1921.9524 
   65500    300.80171   -1148.5778    6369.9397    11647.529    1844.8682 
   65600    302.07144   -1151.4289    6481.8802    11783.744     1880.999 
   65700    304.17765   -1155.9188     6421.462    11763.832    1886.4151 
   65800    297.84042   -1154.3905    6397.2115    11605.724    1894.6434 
   65900    302.95522    -1161.421    6472.1139    11782.866    1883.2449 
   66000    298.10331   -1156.1714    6499.0903    11711.439    1880.8471 
   66100    302.39912   -1154.9832    6420.7429    11726.053    1832.1049 
   66200    298.50408   -1162.7511    6330.7404    11545.071    1794.2239 
   66300    301.86281   -1159.1634    6483.6586    11773.331    1925.3468 
   66400    299.45199   -1159.8019    6424.0333    11661.564    1897.5179 
   66500    301.80462   -1160.4908    6357.4503    11644.552     1910.056 
   66600    290.96187   -1162.7665    6328.6999    11381.887     1853.056 
   66700    299.56161   -1164.3876    6391.2334     11626.52    1912.4813 
   66800    295.92073   -1164.5925     6474.702    11632.002    1854.2725 
   66900    302.50498    -1161.882    6504.4209    11805.094    1906.5576 
   67000    298.03215   -1165.2612    6379.1253    11580.864    1865.8451 
   67100    297.72861   -1156.0102     6424.203    11628.708    1830.0554 
   67200     299.4127   -1160.7206    6406.5539    11642.326    1902.5483 
   67300    298.54647   -1151.5719    6294.2122    11520.628    1868.4022 
   67400    302.14251   -1156.2236    6445.9143    11744.502     1964.088 
   67500    301.41296   -1155.5992    6495.6656    11779.292    1923.2427 
   67600    301.08713   -1159.1593    6485.8585    11758.964    1899.2087 
   67700    300.84484   -1157.2788     6364.023    11633.833    1798.6112 
   67800    297.36908   -1161.0132    6472.2676    11664.089    1891.9927 
   67900    305.64604   -1157.4292    6419.6773    11791.907     1883.651 
   68000    300.45876   -1156.8187    6419.7778    11681.799      1818.82 
   68100    302.54027   -1154.9013     6475.738    11784.145    1867.6198 
   68200    297.83948   -1158.2944    6449.5941    11654.183    1848.8764 
   68300    300.33562   -1157.6153    6478.7127    11737.307    1867.3511 
   68400    299.75355   -1155.1995      6352.98    11601.555    1822.3583 
   68500    299.53057   -1158.3391    6380.5562    11621.228    1864.0296 
   68600    303.59044   -1159.7086    6365.6116    11691.647    1877.7628 
   68700    302.01471   -1155.1408    6472.7942    11769.734    1890.4427 
   68800    300.03043   -1161.5247    6500.0249     11748.19     1857.088 
   68900    298.02327    -1160.419    6459.6474    11666.038    1896.0191 
   69000    299.41632   -1155.7184     6352.943    11593.795    1877.1107 
   69100    302.63297   -1156.0247    6457.0068    11766.271    1987.6101 
   69200    300.43862   -1153.8844    6426.6123    11691.138    1897.7151 
   69300    303.76092   -1158.5385    6408.8948    11739.742    1884.1352 
   69400    297.76186   -1157.8351    6367.5576    11570.948     1923.018 
   69500     296.4639   -1153.9487    6407.4785    11587.026    1899.0611 
   69600    296.72697   -1156.5794    6482.6684    11665.205    1841.4632 
   69700    294.73698   -1152.2186    6385.0024    11529.387    1893.6917 
   69800    298.17587   -1160.9934    6371.4753    11580.552    1880.9233 
   69900    303.12609   -1156.9545    6437.1835    11756.053    1864.3877 
   70000    298.47466   -1156.7621     6503.146    11722.837     1888.464 
   70100    301.45242   -1160.1296    6512.3921    11792.331    1881.4769 
   70200    302.97095   -1149.8511    6465.5463    11788.205    1813.0922 
   70300    297.09148   -1151.0068    6431.8768    11627.774    1865.2331 
   70400    300.35302   -1156.4226    6401.0618    11661.221    1866.3765 
   70500    298.17751   -1160.5628      6352.56    11562.102    1719.5711 
   70600    295.50277   -1155.6787     6578.291    11735.575     1849.431 
   70700    303.61218   -1149.4714    6550.7249    11887.462    1919.1658 
   70800    296.17371   -1156.6267    6352.2896     11522.96    1794.7442 
   70900    300.47214   -1158.3767     6356.934    11617.683    1835.1512 
   71000    301.88307   -1158.1163    6375.9343    11667.087     1856.028 
   71100    302.60233   -1160.1073     6397.183     11701.71    1815.4734 
   71200    300.87942   -1158.8612    6433.5122    11702.478    1782.2517 
   71300    299.80958   -1161.5272    6498.3481    11741.793    1924.2878 
   71400     299.2342   -1158.6237    6331.2789    11565.335    1867.6437 
   71500     295.8406   -1163.4371    6344.1131    11500.857    1884.8593 
   71600    299.01959   -1168.6916    6382.7723    11602.175    1885.1567 
   71700    304.06416   -1160.9841    6490.4615    11825.342    1913.3763 
   71800     306.3184   -1162.8193    6468.1504    11849.354    1862.9037 
   71900    305.48539   -1167.8569    6451.2003     11809.57    1906.5199 
   72000    300.41466   -1170.6276    6497.2245    11744.495    1916.5478 
   72100    298.48102   -1164.6034    6328.9488    11540.934    1823.1612 
   72200    299.14181   -1168.9228    6333.3118    11555.095    1840.6655 
   72300    300.53927   -1170.0377    6497.6899    11748.213    1916.7315 
   72400    299.63569   -1172.6987    6455.7585    11684.317    1903.5223 
   72500    300.25512   -1172.4808    6432.4726    11674.482    1874.8042 
   72600     300.1564   -1169.0376    6473.5194    11716.863    1977.5197 
   72700    299.82516    -1166.938    6304.4772    11542.844     1878.068 
   72800    300.10359   -1165.2829    6323.4366    11569.407    1828.4454 
   72900    299.20491   -1164.3967    6543.0208    11770.678     1915.038 
   73000    304.64854   -1159.4562    6554.5337    11903.426    1982.5086 
   73100    299.98223   -1164.0002    6313.0208    11557.681    1847.4956 
   73200    300.91051   -1156.4991    6347.4059    11619.398    1873.7688 
   73300    299.49281   -1156.9126    6411.8763    11653.168    1951.7185 
   73400    301.78138   -1156.5613    6464.7301    11755.265     1916.529 
   73500    294.70456   -1151.5284    6379.7017    11524.084    1779.7125 
   73600    303.45219   -1151.0206    6465.2405     11797.01    1984.4632 
   73700    297.32212   -1155.3742    6442.7417    11639.198    2003.9929 
   73800    302.41188   -1152.2721    6335.0169    11643.311    1892.6139 
   73900    301.64536   -1150.4131    6532.8531     11826.63    1990.2083 
   74000    300.85193   -1149.8306    6432.7558    11710.165    1937.2803 
   74100    297.99837   -1149.7011    6511.5027     11728.08    1978.8089 
   74200    301.36441   -1150.8918    6332.9886    11620.285    1901.0718 
   74300     298.3616   -1151.7444    6410.6865     11632.98    1920.0929 
   74400    299.16883   -1154.7366    6570.5545    11807.101    1885.9313 
   74500    299.76808   -1155.5506    6407.9552     11656.49    1845.7259 
   74600    298.34395   -1150.3601    6374.1996      11597.5    1915.3318 
   74700    304.81078   -1149.9414    6500.3381    11862.211    1910.9744 
   74800    299.89852   -1158.0376    6430.6272    11679.461    1825.7427 
   74900    307.40389   -1157.1607    6365.2724    11775.324    1868.8299 
   75000    299.29838   -1157.7673    6450.6154    11686.899    1907.0019 
   75100     307.0813   -1163.2912     6456.837    11853.867    1948.1064 
   75200    298.26433    -1171.845    6367.6016    11567.716     1896.831 
   75300    299.39065    -1165.141    6441.6952    11672.576     1911.624 
   75400    298.99382   -1162.6005    6502.2173    11727.161    1935.9515 
   75500    302.68465   -1169.0238    6318.1999    11615.569    1919.1247 
   75600    302.74261   -1171.1551    6404.7614    11701.238    1988.2889 
   75700    296.32967   -1160.8233    6422.9492    11592.755    1977.9393 
   75800    299.71375   -1165.0323    6323.5377     11561.43    1918.5039 
   75900     300.1694   -1175.0734    6385.9853    11623.571    1918.4007 
   76000    296.42981    -1176.391     6470.088    11626.465     1954.981 
   76100    302.94751   -1164.2008    6466.5561    11774.364    1944.0071 
   76200    306.23172   -1172.1508    6394.5198     11764.54    1976.0121 
   76300    297.82521   -1168.0304    6377.5328    11572.081    1955.6974 
   76400    298.13056   -1159.9709    6404.7016    11613.833    1879.2942 
   76500    304.14804   -1157.5051    6434.5885     11774.74    1960.9743 
   76600    296.41389   -1162.3836    6494.4829    11664.527    1976.2925 
   76700    301.31652   -1161.0857    6378.0448    11654.124    1949.6501 
   76800    298.51378   -1159.0625    6364.3064    11582.533    1899.2632 
   76900    301.46785   -1158.0932    6419.4459    11701.751    1877.3277 
   77000    296.40245   -1158.9146    6568.3624    11741.631    1899.3385 
   77100    300.80626   -1160.6705    6450.1202    11715.714     1881.487 
   77200    295.28634   -1151.7856    6401.0347    11557.589    1886.6224 
   77300    294.94177   -1146.8014    6426.9218    11581.099    1872.2331 
   77400    306.13065   -1147.2435    6491.3148    11884.083    1883.2892 
   77500    295.58899   -1153.1358    6333.2334    11494.903    1874.2053 
   77600     302.0426   -1146.3188    6474.0068    11780.365    1950.5356 
   77700    294.76615   -1148.4035    6389.9137    11538.737    1868.1803 
   77800    302.94503   -1150.9385    6503.4514    11824.469    1934.1631 
   77900    297.74503   -1154.2151    6337.6639    11544.314    1852.3398 
   78000    294.65293   -1152.8994    6457.9612    11599.869    1890.5907 
   78100    302.38724   -1152.6595    6564.3212    11871.701    1990.9694 
   78200    299.71422   -1155.6523    6306.1734    11553.455    1820.8037 
   78300    300.89804   -1149.5896    6485.5428    11764.178    1875.6385 
   78400    301.77106   -1151.4724    6487.7636    11783.167    1910.1961 
   78500    298.81451   -1158.2259    6325.0142    11550.502    1872.3727 
   78600    301.18681   -1162.8644    6328.4202     11599.95    1939.2863 
   78700    299.66008   -1160.1821    6565.4293    11807.025    1986.7572 
   78800    300.41442   -1152.9849    6401.5592    11666.467    1818.8751 
   78900    297.37362   -1165.5862    6289.3099    11476.655    1827.6535 
   79000    302.28713   -1166.6292    6351.2158    11642.487    1931.4882 
   79100    301.22294   -1167.3693    6503.0313    11770.828    1906.9953 
   79200    296.01377   -1168.0948    6431.9409    11587.726    1893.7053 
   79300    300.25704   -1168.3459    6362.8583    11609.043    1901.5049 
   79400     305.2156   -1171.1732    6411.3108    11760.601    1871.5123 
   79500    296.36185   -1170.2681    6377.6649    11538.713    1896.7969 
   79600    299.59581    -1158.152    6424.3647    11666.617    1901.3052 
   79700    306.94704   -1161.8058    6366.0027    11761.649    1896.8013 
   79800     301.1944    -1175.197    6544.6062    11803.965    1975.7321 
   79900    303.14422   -1165.2622    6392.1282    11703.077     1950.025 
   80000    304.71722   -1166.1401    6363.4101    11707.086    1941.5888 
   80100    299.46489   -1162.2024    6429.7186    11665.124      1930.27 
   80200    304.71104   -1158.1086    6467.4817    11819.057    2009.7885 
   80300    300.62833   -1168.6688    6438.9038    11692.698    1928.5517 
   80400    300.38516   -1167.6963    6436.3922    11685.964    1959.1854 
   80500    301.26321   -1160.4251    6416.6999    11692.301    1887.8363 
   80600    302.85387   -1158.7022    6377.7656    11689.072    1837.8946 
   80700    300.31253   -1159.7177    6554.2832    11810.282    1997.2766 
   80800    299.99712   -1159.0587    6307.8963    11557.816    1893.9941 
   80900    295.14036   -1151.0718    6425.8387    11579.988    1870.7338 
   81000    302.15688   -1152.5878    6540.6446    11843.175      1874.65 
   81100    303.18181    -1153.298    6446.1095    11769.826    1851.6867 
   81200    302.08847   -1161.3487     6366.253    11658.561    1874.3027 
   81300    300.28752   -1157.2137    6452.3824    11710.351      1862.74 
   81400    301.52103   -1160.2299    6519.8659     11801.17    1877.4706 
   81500    300.57493   -1161.6484    6453.5636    11713.237    1929.1501 
   81600    296.73149   -1157.9102    6411.8219    11593.125    1891.9696 
   81700     301.0796   -1156.3476    6400.1021    11675.858    1889.1276 
   81800    300.85697   -1162.8276    6407.4318    11671.952    1945.6359 
   81900     300.9848   -1160.5002    6481.8194    11751.398    1934.4117 
   82000     302.0929   -1160.7039    6379.2173    11672.265    1826.6053 
   82100    301.36453    -1156.227    6507.9401    11789.904    1941.2201 
   82200    297.76044   -1156.9148    6399.5786    11603.859    1906.8603 
   82300     301.8599   -1159.0485    6386.0309    11675.756    1838.4214 
   82400    294.18614    -1163.411    6396.2606    11517.685    1885.5061 
   82500    300.65127   -1160.8326    6400.0833    11662.204    1925.6209 
   82600    302.29555     -1163.68    6458.7101    11753.111    1865.8463 
   82700    297.93806   -1170.7984    6436.1001    11630.291    1900.9561 
   82800    302.60942    -1164.177    6448.5677    11749.177    1909.4795 
   82900    301.25071   -1155.7378    6469.1847    11749.206    1919.9285 
   83000    294.67115   -1158.8066    6436.6243    11573.015    1905.6571 
   83100      300.285   -1162.5779    6442.2417    11694.792    1861.8978 
   83200     297.8667   -1164.1027    6509.8228    11709.185    1927.9604 
   83300    306.74203   -1162.7335    6347.9411     11738.28    1870.5635 
   83400    296.34758   -1161.4291    6469.2167    11638.799    1930.3299 
   83500    299.96606   -1155.5882    6452.5074    11705.234    1853.2018 
   83600    306.26445   -1162.1835     6338.849    11719.535    1842.4226 
   83700    298.24469   -1162.7037    6396.3535     11605.19    1944.7803 
   83800    299.26639   -1161.7551    6403.7936    11635.406    1947.6446 
   83900    301.71525    -1161.724    6393.8749    11677.834    1910.4255 
   84000    297.69841   -1157.4966    6419.6292    11622.002    1907.9074 
   84100    301.73568   -1157.7495    6457.0809    11745.451     1918.198 
   84200    300.64236   -1162.8452    6393.3265    11653.244    1879.3745 
   84300    296.99467   -1163.5196    6374.2739     11555.59    1845.6275 
   84400     307.4284    -1161.712    6461.4808    11867.505    1914.0926 
   84500    298.40188   -1156.8598    6405.1491    11623.188    1867.6863 
   84600     298.4158   -1157.7922    6409.6196    11627.023    1835.5924 
   84700    302.93147   -1159.3578    6479.9365    11792.245    1919.6052 
   84800    300.52197    -1159.238    6389.5905    11650.543    1927.3487 
   84900    298.48814   -1163.9622    6338.8666    11551.646    1877.9581 
   85000    301.95403   -1158.7515    6464.2198    11756.253    1939.2241 
   85100    302.38316   -1165.1609    6410.1959    11704.987       1952.4 
   85200    301.48786   -1155.1757    6447.5446    11733.194    1891.6861 
   85300    301.58499   -1164.1721    6473.5163    11752.245    1864.8326 
   85400    297.60878    -1162.145    6386.4171    11582.227    1881.8508 
   85500    302.49146   -1161.2192    6439.2803    11740.327    1938.5892 
   85600    294.17737   -1157.1522    6465.0271    11592.523     1925.685 
   85700    301.61006    -1159.849    6398.2555    11681.843    1898.1466 
   85800    297.76366   -1165.2807    6418.0004    11613.983     1930.822 
   85900    300.16596   -1165.3233    6322.3395    11569.601    1905.9225 
   86000    299.32911   -1160.2364    6517.7201    11752.191    1872.1672 
   86100    299.42375   -1157.5719    6469.7851    11708.942    1837.6287 
   86200    300.18613   -1164.8851    6361.4625    11609.594    1914.3015 
   86300    299.67634   -1163.8097    6289.0092    11527.325     1803.107 
   86400    302.87064   -1159.3019    6568.0949     11879.16    1944.1811 
   86500     300.2696    -1154.891    6446.5257    11706.434    1936.1485 
   86600    302.64119   -1160.0217    6374.7621    11680.205    1900.4646 
   86700    297.78456   -1161.2114    6414.6673    11615.166     1845.446 
   86800    298.72888   -1164.6969    6359.1068    11576.294     1894.028 
   86900    303.09336    -1162.846    6410.9372    11723.216    1938.5691 
   87000    296.27658    -1153.204    6522.8138    11699.104    1938.7823 
   87100    298.07724   -1165.0896     6396.381    11599.254    1801.8195 
   87200    301.15119   -1164.3488    6495.3018    11764.586    1864.3195 
   87300    301.76192    -1166.092    6391.4989    11672.087    1793.7913 
   87400    301.19644   -1157.6413    6537.9114     11814.87    1934.0601 
   87500    298.89261    -1164.384    6450.6255    11671.623    1947.1787 
   87600    301.61698   -1159.5972    6439.8267    11723.814    1920.8061 
   87700    297.35311   -1163.1114    6337.8554    11527.237    1868.8042 
   87800    297.04966   -1162.3298    6495.2453    11678.926    1989.6543 
   87900    300.45766   -1162.6792    6373.7819     11629.92    1858.9127 
   88000    295.45681   -1160.6114    6339.8154    11491.185     1849.866 
   88100    294.87979   -1163.3736    6397.5366    11533.817    1864.2971 
   88200    308.63517   -1160.9648    6514.1064    11946.659    1923.2122 
   88300    299.09103   -1168.5964    6360.1298    11581.154    1830.5299 
   88400    298.41742   -1161.0791     6381.138    11595.289    1897.5885 
   88500    303.06068   -1162.1758    6419.3707    11731.621    1884.4066 
   88600    299.20758   -1159.7044    6525.9693    11758.376    1960.1119 
   88700    298.55438   -1160.8141    6441.7711    11659.113    1947.7196 
   88800    304.51272   -1163.7801    6287.9396    11629.607    1920.7777 
   88900    295.20749   -1162.1896    6491.1536    11635.619    1913.5422 
   89000     299.8735   -1154.4431    6431.5718    11683.466    1859.7281 
   89100    303.12481   -1158.2827    6491.7585    11809.272     1952.295 
   89200    298.78191   -1160.3013    6344.3431    11567.059    1861.0271 
   89300    301.19774    -1156.224    6472.3925    11750.796    1917.5691 
   89400    303.60734   -1157.1639    6469.4568    11798.398    1864.5382 
   89500    303.83027   -1154.5886    6433.6877    11769.967    1895.1712 
   89600    297.76456   -1156.3705    6415.8557    11620.768    1876.6813 
   89700    304.52987   -1154.7164      6412.24    11763.337    1882.9506 
   89800    297.53098   -1155.0996    6419.2425    11620.436    1856.4689 
   89900    304.63983   -1158.4327    6495.7337    11845.463    1897.2847 
   90000    298.61999   -1155.4615    6460.3854    11684.482     1871.631 
   90100     299.3454   -1151.4816     6290.687    11534.261     1763.374 
   90200    303.38561   -1150.7987    6464.7064    11795.276    1875.2798 
   90300    299.40831   -1154.8371    6532.6996    11774.261    1873.0131 
   90400    302.38606   -1152.2228    6351.8256    11659.617    1830.8437 
   90500    304.06408   -1154.3484    6409.4801    11750.994    1902.6722 
   90600    298.84623   -1160.4385    6466.7161    11690.669    1922.1711 
   90700    298.88945   -1163.5329    6413.0026    11634.784    1902.1383 
   90800    305.20861   -1162.5467     6354.499    11712.266    1846.0337 
   90900    299.62703   -1158.1346    6419.9846    11662.922    1825.2252 
   91000    303.76914    -1158.172    6535.4655    11866.855    1893.0016 
   91100    297.31931   -1159.9924    6409.8295    11601.608    1839.8427 
   91200    306.41937   -1162.4082    6328.7111    11712.483    1853.1765 
   91300    299.52317   -1167.9845    6341.3777    11572.246    1881.6534 
   91400    303.36426   -1158.8971    6492.9494    11814.964    1913.9289 
   91500    300.99503   -1160.3232    6472.7614    11742.735    1847.8936 
   91600    301.44557   -1165.2202     6432.061    11706.763    1927.8419 
   91700    301.18419   -1165.3199    6396.5478    11665.566    1945.8938 
   91800    298.31021   -1163.2433    6347.4435     11557.14    1865.6212 
   91900    299.78855   -1173.6776    6466.9993    11697.844     1934.749 
   92000    302.56325   -1167.5353    6391.9298    11688.194    1916.4268 
   92100    300.89032   -1167.1302    6489.6225    11750.552    1892.5659 
   92200    300.13154   -1172.0825    6397.6731     11637.44    1863.4058 
   92300    298.74297   -1168.3332    6415.5366    11629.389    1891.9879 
   92400    306.46255   -1159.8112    6376.0006    11763.292    1855.1907 
   92500      298.565   -1160.1583    6380.7948     11599.02    1846.2009 
   92600    302.02329   -1163.5031    6422.5934    11711.354    1905.5455 
   92700     303.6786   -1160.3535    6518.0654    11845.339    2002.2453 
   92800    293.09968   -1164.9592    6326.8444     11423.51    1852.7086 
   92900    300.49655   -1164.0474     6356.789    11612.389    1867.3299 
   93000    300.12504   -1162.7663    6422.5758    11671.521    1900.0074 
   93100    295.92555   -1160.0028    6510.7363    11672.729    1893.3289 
   93200    296.80652   -1158.1086    6571.3625     11754.07    1909.3524 
   93300    301.79466   -1160.6043    6280.1349     11566.91    1862.6396 
   93400     296.7329   -1157.5485    6368.5546    11550.249    1900.0212 
   93500    298.97819   -1153.1037    6381.5041    11615.611    1855.4974 
   93600    299.67149   -1158.6232    6452.4804    11695.879    1818.5312 
   93700    306.06038   -1159.3744    6419.6096    11798.746    1889.8762 
   93800    297.99557   -1152.9666    6434.6269    11647.878    1901.2236 
   93900      299.122    -1157.431    6435.9773    11668.829    1866.6275 
   94000    302.58677   -1160.5311    6421.1992     11724.97    1870.0923 
   94100    298.17951   -1160.0311    6444.9998    11655.117    1854.5876 
   94200    301.81558   -1157.3193    6378.4939    11669.001    1879.6713 
   94300    305.55971   -1157.9578    6514.5282    11884.385    1984.5111 
   94400    297.52954   -1162.8248    6423.2985    11616.736    1923.3942 
   94500    303.00216   -1159.3261    6424.3453    11738.195    1982.2409 
   94600     300.1649   -1154.9033    6379.4284    11637.088    1948.2173 
   94700    300.97975   -1160.6898    6447.0369    11716.318    1870.9268 
   94800    301.24008   -1163.1884    6579.1732    11851.517     1951.395 
   94900     301.8946   -1163.0951    6328.0568    11614.477    1865.4629 
   95000    299.32257   -1166.1336    6390.9622    11619.396     1911.455 
   95100    298.78278   -1164.0517    6467.3742    11686.358    1879.2039 
   95200    301.99663   -1164.1126    6409.1263    11696.708     1867.208 
   95300     293.1068   -1164.2396    6482.8616    11580.399    1892.7795 
   95400    303.52366   -1158.4013    6371.3907    11697.307    1844.5186 
   95500    298.96982   -1161.8073    6419.3784    11644.603    1914.2253 
   95600    306.04668   -1157.1466    6414.9095    11795.981    1946.6748 
   95700    292.08746   -1155.1095    6445.2734    11530.164    1881.8063 
   95800    301.43869   -1159.1391     6351.586    11632.222    1847.0826 
   95900    297.67529   -1159.9964    6535.3111     11734.69    2005.9938 
   96000    299.82698   -1164.8836    6428.9434    11669.403    1924.2773 
   96100    293.66018   -1165.0201    6391.9104     11500.49    1893.7461 
   96200    302.28679   -1162.7304    6468.0739    11763.237    1930.5508 
   96300    295.18811   -1158.7043    6458.8371    11606.374     1811.352 
   96400     300.6618   -1158.1716     6414.246    11679.252    1859.6107 
   96500    300.12978     -1158.48    6445.2202    11698.552    1892.6334 
   96600    301.81686    -1150.235    6440.0394    11737.658    1923.9757 
   96700      304.795   -1155.5875    6326.5488    11682.439    1866.0807 
   96800    297.49863   -1156.7304    6381.2934    11580.165    1885.3517 
   96900    296.31775   -1155.2549    6397.6216    11572.741    1853.5077 
   97000    302.08336   -1152.7801    6466.9731    11767.741    1811.5535 
   97100    298.52657   -1159.8748    6533.3454    11751.033    1896.5877 
   97200    300.04096   -1159.8928    6382.0234    11632.045    1932.8034 
   97300    294.32331   -1159.0497    6406.3532    11535.069    1901.8563 
   97400    300.67396   -1162.7871    6441.1185    11701.769     1955.355 
   97500    298.19237   -1157.3841    6404.5428    11617.581    1927.5804 
   97600    294.63498   -1153.6426    6485.3137    11626.095    1947.9209 
   97700     303.2948    -1152.264    6425.8704    11753.035    1885.3936 
   97800    302.90975   -1155.2631    6400.5522    11716.491    1921.0078 
   97900    301.14305   -1159.5531    6362.7786    11636.685    1937.6711 
   98000    300.56498   -1161.8746    6365.8883    11625.123     1824.521 
   98100    301.13309   -1161.7292    6538.0886    11809.606    1905.8939 
   98200    303.87492   -1162.6803    6480.9159    11810.057    1920.2583 
   98300    298.22863   -1164.4499    6337.2266    11543.974    1884.7213 
   98400    300.06101   -1161.7525    6506.0651    11754.656    1952.2612 
   98500    300.37256   -1164.6649    6425.5219    11677.856    1917.8629 
   98600    300.73948   -1161.4157    6309.1045    11572.526    1894.1366 
   98700    295.73332   -1154.2638    6405.0334    11568.658    1902.3719 
   98800    303.89936   -1160.6464    6403.5618    11735.259    1876.4735 
   98900    299.93257   -1160.3954    6447.4447    11694.648    1893.0925 
   99000    302.74394   -1166.1559    6399.2455    11700.749    1846.0629 
   99100    297.51598   -1168.4167    6482.9255    11670.481    1967.1996 
   99200    304.18783   -1169.5337    6373.0539    11702.027    1932.6874 
   99300    297.68786   -1165.8313    6380.7916    11574.605    1860.9059 
   99400    297.89921   -1165.9735    6421.0208    11619.207    1862.2214 
   99500    304.81226   -1165.1839    6474.5924    11821.255     1914.942 
   99600    301.07272   -1160.4844    6460.1335    11731.606    1914.9855 
   99700    306.26501   -1164.7053    6323.0187    11701.195    1851.7808 
   99800    298.99666   -1159.0579    6455.6177    11684.165     1933.445 
   99900    298.56742   -1162.1494    6447.8087    11664.094    1865.2915 
  100000    301.10652   -1163.0751    6375.9386    11645.542    1834.3717 
  100100    303.11966   -1162.4542    6475.2575     11788.49    1945.9495 
  100200    299.85817   -1159.7398    6564.2478    11810.518    1943.0162 
  100300     303.4286   -1160.3781    6449.5222    11771.431    1905.5014 
  100400    296.62636   -1164.8783    6266.5844    11438.673    1895.4834 
  100500    300.82683   -1162.7237    6366.2887    11630.269    1895.6737 
  100600    296.47908   -1153.6312    6577.8968    11758.086    1915.8851 
  100700    300.43313    -1158.043    6386.2124    11646.462    1882.1484 
  100800    302.16907   -1159.8397    6403.6534    11699.192    1968.1824 
  100900    300.99049   -1153.9444    6414.2116    11690.467    1857.8576 
  101000    300.74391    -1156.457    6424.8573    11693.332    1883.5082 
  101100    299.43712   -1164.3156    6435.3088    11668.008    1884.8269 
  101200     300.7196   -1157.7112    6472.1574    11738.859    1878.9219 
  101300     301.9515   -1162.5371    6340.4398    11628.633    1871.0639 
  101400     299.6935    -1162.015     6403.156    11643.633    1965.4682 
  101500    304.25226   -1163.5468    6518.3445     11854.68    1961.0946 
  101600    299.28288   -1156.7383    6405.6501    11642.631    1875.9651 
  101700     303.5299   -1151.5732    6393.6555    11726.533    1919.0554 
  101800    301.49269   -1156.6636    6607.3181    11891.583    1981.8435 
  101900    298.27904   -1161.3836    6315.3427    11526.233    1798.3187 
  102000    298.66745   -1162.4876    6309.2697    11527.354    1859.9973 
  102100    300.97985   -1163.5188     6487.579    11754.033    1922.9414 
  102200    299.36764   -1161.9102    6373.9912    11607.611    1877.6829 
  102300    297.21188   -1159.5657    6379.0836    11568.994    1866.0212 
  102400    304.33878    -1164.643    6530.6092    11867.697    1962.2301 
  102500    297.96829   -1160.2402     6465.798    11671.193    1897.3647 
  102600    302.47002   -1164.9066    6368.3952    11665.296    1935.5953 
  102700     297.5993   -1160.2261    6428.6378    11626.164    1977.1651 
  102800    298.31638   -1155.3372    6475.6349    11693.369      1949.29 
  102900    300.25431   -1157.0449    6518.8388    11776.267    1914.2589 
  103000    297.10685   -1153.4562    6445.5639     11639.34    1905.9779 
  103100      296.545   -1157.4602    6453.7414     11631.51    1910.8513 
  103200    299.34821    -1162.247    6379.9186    11612.787    1855.8354 
  103300    298.86716   -1163.8421    6427.1849    11648.181    1950.3877 
  103400    299.50331   -1161.1065    6406.4938    11643.816    1923.0635 
  103500    299.92901   -1161.4702    6435.8936    11681.947    1947.6425 
  103600    305.11353   -1161.4996    6360.1959    11716.979    1906.9974 
  103700    297.23921   -1155.0702    6320.2911    11515.281    1907.2877 
  103800    301.29802   -1162.8495    6383.7559    11657.676    1856.7536 
  103900    298.42448    -1154.236     6403.295     11624.44    1865.2379 
  104000    304.37691    -1159.436    6474.3566    11817.466    1963.2356 
  104100    295.55061   -1159.7853    6419.4853    11573.685    1936.4027 
  104200    299.96518   -1167.4571     6327.606    11568.445    1869.0097 
  104300    298.83067   -1166.4339    6518.2322    11735.857    1895.2724 
  104400    304.09968   -1161.6783    6374.2938    11709.238    1811.5046 
  104500    294.41496    -1169.059    6447.5652     11568.23    1867.1944 
  104600     299.2704   -1159.4292    6487.0066     11721.03    1924.9878 
  104700    298.30734   -1163.5402    6380.0731    11589.411    1906.3702 
  104800    298.91668   -1159.8193    6389.9487    11616.026    1867.3575 
  104900    303.05502   -1159.2231      6443.74    11758.822    1917.9872 
  105000    298.97402   -1155.5744    6393.1072    11624.654    1938.8416 
  105100    299.30749   -1169.0421     6455.999    11681.202    1958.0599 
  105200    298.24255   -1171.7189    6365.1612    11564.937    1874.1222 
  105300    303.67424   -1171.7051     6404.427    11720.256    1913.0707 
  105400    301.81028   -1172.6049    6389.4765    11664.585     1888.187 
  105500    299.52521   -1165.3164     6562.864    11796.444     1991.748 
  105600    302.31178   -1155.6307    6345.0593    11647.856    1904.8163 
  105700    297.52269   -1154.4248    6335.2311    11536.922    1919.8714 
  105800      306.362   -1150.1764    6389.9875    11784.765    1983.3109 
  105900    303.83623   -1161.8591    6455.9776    11785.113    1957.8333 
  106000    299.01127   -1164.5398    6511.0525     11734.43    1973.3565 
  106100    303.20088   -1167.9638    6391.1191    11700.577    1972.1938 
  106200    295.25693   -1165.1568    6370.3149    11512.869    1901.0658 
  106300    301.29997   -1168.9805    6466.4636    11734.295    1947.2305 
  106400     306.4658   -1164.4775    6525.9798    11908.674    1949.1727 
  106500    293.78889   -1159.5992    6498.8936    11615.643    1946.8473 
  106600     302.0738   -1156.0229     6377.278    11674.598    1916.8749 
  106700    303.38584   -1153.5417    6406.7472    11734.578    1926.4528 
  106800    297.13055   -1155.6767    6397.5916    11589.653    1878.6479 
  106900    300.88537   -1156.9233    6427.6436    11698.675    1910.3491 
  107000    297.76035   -1154.5518    6527.7133    11734.354    1966.4573 
  107100    302.22181   -1161.1906    6378.2733    11673.588    1884.2061 
  107200    300.63903   -1156.4739    6414.4639    11680.682     1954.192 
  107300    294.97669   -1161.2407    6391.0831    11531.567    1929.9781 
  107400     296.0694   -1156.8324    6414.2618    11582.498     1895.729 
  107500    298.69309    -1156.217     6447.682    11672.585    1838.4325 
  107600    295.57761   -1153.9804    6552.3964    11712.978    1927.6681 
  107700    302.80472   -1159.4045    6418.3424    11727.896    1902.1856 
  107800    297.73201   -1158.1064    6401.0798    11603.561    1917.9664 
  107900    307.54707   -1161.3256    6290.0834    11699.029    1929.2021 
  108000    298.68456   -1164.2888    6424.2916     11640.94    1964.1052 
  108100    295.75312   -1162.9585    6509.3791    11664.732    1888.7382 
  108200    301.77587   -1163.8966    6414.4901    11697.572    1891.1226 
  108300     299.6487   -1167.1425    6382.8274     11617.22    1929.7937 
  108400    297.29067   -1161.1845    6397.1524    11587.127    1908.3036 
  108500    299.96022   -1161.5344    6468.5369    11715.192    1911.1619 
  108600    301.76341   -1157.4048     6392.403     11681.71     1929.371 
  108700    304.34493   -1163.3732    6341.4357    11679.925      1880.02 
  108800    301.93384   -1168.4046    6423.4964    11705.445    1906.0498 
  108900    299.05586   -1170.6491    6458.5933    11676.814    1891.6374 
  109000    303.42108   -1165.9683    6539.0051    11855.163    1937.1956 
  109100    296.87435   -1168.6848    6347.2098     11520.79    1867.8559 
  109200    295.27674   -1162.1854    6395.6559    11541.605      1935.01 
  109300    304.14327   -1166.7757    6452.4193    11783.198    1910.8674 
  109400    299.66041   -1160.2187    6491.7311    11733.297    1939.4113 
  109500    300.27394   -1159.9961    6324.6097    11579.506    1893.6681 
  109600    306.31069   -1158.2281    6287.8877    11673.517    1939.5014 
  109700    301.12752   -1160.4314    6403.4632    11676.159    1934.6794 
  109800    302.17008   -1156.0064    6592.7287    11892.122    1994.8662 
  109900    300.65783   -1153.6148    6414.8296    11684.308    1926.7395 
  110000    301.31133   -1155.7233    6371.4222    11652.753    1952.0886 
  110100    299.08317   -1158.0553    6375.3377    11606.736    1866.8019 
  110200     297.9484   -1159.0375    6412.6463    11618.819    1845.7652 
  110300    304.37022    -1149.287    6528.9043     11882.02    1881.0473 
  110400    300.51966   -1157.2693    6476.8906    11739.763    1870.8864 
  110500    300.51331   -1153.8035    6407.6064    11673.809    1882.6693 
  110600    302.35685   -1156.1954    6313.3016    11616.496    1828.8705 
  110700    296.98284   -1155.4334    6416.5229    11605.672    1840.3209 
  110800    301.34513   -1149.7064    6491.2671    11779.337    1848.0052 
  110900    297.78908   -1152.2971    6442.9975    11652.507    1895.1879 
  111000    296.64664   -1150.6254    6416.3808    11603.156    1845.6775 
  111100    303.97404   -1150.8806    6489.0093    11832.068    1882.0603 
  111200     302.1346   -1158.8344    6386.7575    11682.565    1921.8034 
  111300    303.17001   -1160.6047    6379.3681    11695.525    1865.8128 
  111400    301.46258   -1160.8306    6542.4365    11821.891    1885.0283 
  111500    296.93493   -1166.5753    6359.6225    11536.606    1904.6505 
  111600    304.80948   -1165.1639    6341.9134    11688.536    1949.3744 
  111700    298.38352   -1166.5621    6444.4983    11652.442    1901.7555 
  111800    304.48374   -1163.3497    6357.3053    11698.784    1909.9423 
  111900    297.36283   -1163.6776    6453.4937    11642.517    1973.3535 
  112000    294.68593   -1160.1799    6411.1972     11546.53    1907.4321 
  112100    302.66918   -1158.0466    6338.8937     11646.91    1921.5699 
  112200    298.52307   -1157.8094    6493.7802    11713.458    1992.8217 
  112300     297.1156   -1166.2243    6408.4611    11589.656    1930.2868 
  112400    296.58398    -1168.595    6479.6397    11647.106    1883.9158 
  112500    306.76823     -1166.36    6417.9273      11805.2    1910.3067 
  112600     297.6102    -1170.335    6409.5348    11597.185     1857.509 
  112700    304.50214   -1167.7325    6302.9261    11640.415    1794.6058 
  112800    298.14052   -1166.4639    6508.3039    11711.155     1926.376 
  112900    295.42489   -1162.9796    6463.2292    11611.549    1920.6873 
  113000    305.72828   -1165.3951    6430.9798        11797    1968.2254 
  113100    296.52888     -1159.65    6485.8568    11661.091     1988.077 
  113200    302.58444   -1158.9147    6402.1585    11707.496    1979.9824 
  113300    299.77693   -1161.2965    6310.8871    11553.865    1938.3334 
  113400    299.83526   -1154.5599    6497.6167    11748.577    1925.6676 
  113500    296.08583   -1159.3221    6518.6308    11684.728    1949.8205 
  113600    302.27184   -1162.7778    6420.0739     11714.87    1912.8527 
  113700    302.14244   -1156.6677    6413.7955    11711.938    1889.1532 
  113800    299.66501   -1163.1382    6438.1196    11676.865    1899.0218 
  113900    300.95479   -1156.2909    6375.7955    11648.942    1881.1088 
  114000    299.50354   -1157.8836     6400.469    11641.019    1926.8901 
  114100    301.76465   -1159.4522    6454.2401    11741.527    1879.8685 
  114200    299.77084   -1159.4024    6479.8459    11724.587    1969.2236 
  114300    298.40873   -1155.6761    6379.2838    11598.652    1945.1346 
  114400    304.47903   -1156.9697    6402.1768    11749.934    1920.2397 
  114500     298.5795   -1159.2019    6457.0217    11676.513    1909.2782 
  114600    304.58308   -1164.7861    6429.0937    11771.258    1964.9625 
  114700    296.77005   -1166.7133    6455.5507    11628.874     1882.831 
  114800    304.25956   -1165.6341     6473.577    11807.982    1893.4356 
  114900    300.26084   -1163.0017    6533.8232    11785.434    1960.7774 
  115000    302.91436     -1168.64    6401.6556    11704.316    1920.6656 
  115100    299.38999   -1168.5468    6359.5973    11587.058    1923.1162 
  115200    300.52566   -1166.1081    6394.9071    11649.069    1900.9338 
  115300    297.47121   -1167.6042    6415.6872    11603.099    1916.7781 
  115400    304.47043   -1165.2558    6457.8717     11797.16    1951.6381 
  115500    296.00974   -1166.0367     6392.872    11550.629    1906.2821 
  115600    301.59921   -1166.4521    6370.7536    11647.506    1954.0278 
  115700    303.75922   -1164.8467    6421.1753    11745.678    1968.4801 
  115800    297.78255   -1165.5371    6434.5829    11630.713    1922.9855 
  115900    302.18522   -1165.8029    6502.0151    11791.936    2030.7005 
  116000    300.82772   -1165.8631    6341.7059    11602.565    2012.6572 
  116100     300.5112   -1165.5557    6429.6745    11684.079    1989.5583 
  116200    301.94579   -1168.3676     6392.526    11674.767    1953.7774 
  116300    296.43426   -1165.5365    6451.8491    11619.176    1953.8525 
  116400    298.46809   -1164.0432     6475.187    11687.457    1859.4464 
  116500    297.15642   -1161.1398    6471.6542    11658.805     1867.783 
  116600    302.81344    -1157.974    6420.9701    11732.141    1933.8746 
  116700    301.21761   -1155.4664    6415.5046     11695.09    1919.7558 
  116800     299.4455   -1158.3214    6515.7745    11754.647    1970.3853 
  116900    302.24723   -1155.6569    6380.8529    11682.244     1956.167 
  117000    302.37562   -1161.3959    6402.1792    11700.575    1946.0043 
  117100    298.60506     -1155.42    6499.3069    11723.126    1883.5675 
  117200    302.45163   -1159.1534    6470.3542    11772.616    1872.5596 
  117300    295.83823   -1156.9803    6455.8339    11618.983    1889.3955 
  117400    302.71572    -1162.646    6395.6862    11700.097    1861.6412 
  117500    298.48531   -1156.1855    6461.9866    11682.482    1933.3568 
  117600    301.50609   -1152.9419    6438.9132    11727.186    1983.4503 
  117700    295.86991   -1161.8938    6482.1757    11641.088    1870.1388 
  117800    300.78497   -1155.4945    6455.5161    11725.831    1917.6339 
  117900    301.65768   -1165.2218     6310.337    11589.569    1963.6361 
  118000    301.91865   -1157.1013    6429.7075    11722.635    1955.9524 
  118100    296.58704   -1169.0062    6459.7946    11626.916    1920.7221 
  118200    303.34421   -1165.9637    6482.9073    11797.427    1954.9622 
  118300    298.40537   -1167.1417    6413.2321    11621.063    1939.9691 
  118400    294.21742   -1168.0426    6435.9211    11553.382    1883.5705 
  118500    300.40567   -1171.6581    6380.0088    11626.057    1850.7866 
  118600    301.18794   -1167.7813    6414.6802    11681.317    1864.3341 
  118700    297.44809   -1163.1763    6437.3444     11628.69    1852.4317 
  118800    299.07492   -1167.3947    6473.3497    11695.232    1928.5002 
  118900     302.5581   -1172.2533    6389.3319    11680.768    1924.0153 
  119000    296.45876   -1171.9671    6433.0083    11594.428    1924.7229 
  119100    303.45473   -1169.3567    6461.1956    11774.684    1954.5697 
  119200      304.314   -1165.7103    6443.4909    11778.982    1954.8491 
  119300    298.38804   -1168.2841    6356.9525    11563.271    2001.8338 
  119400    297.96711   -1164.7646    6344.5584    11545.404    1969.3576 
  119500    303.36424   -1159.3877    6439.9896    11761.513    2001.2849 
  119600    306.42096   -1160.7547    6504.2138    11889.673    1996.5489 
  119700    300.09988   -1157.5023    6433.6149    11687.286    1930.5955 
  119800    304.12834     -1166.15    6433.7426    11764.828     1973.684 
  119900    295.88266   -1163.2353     6365.285    11523.129    1937.8925 
  120000    301.87745   -1167.3013    6411.7407    11693.588    1914.6623 
  120100    297.77649   -1160.9233    6494.6382    11695.253    1934.6886 
  120200     300.4007   -1159.7514     6399.553    11657.402    1911.2256 
  120300    303.55075    -1150.018    6475.1538    11810.032    1946.0927 
  120400    299.30396   -1152.8451    6379.1024    11620.427    1914.5178 
  120500      293.832   -1155.4322    6454.1548    11575.992    1970.2664 
  120600    301.60617   -1158.6918    6473.0469    11757.708     1948.633 
  120700     298.9336   -1156.6587    6389.0199    11618.619    1858.1779 
  120800    298.69913   -1158.4493    6389.2572    11612.057    1884.6372 
  120900    302.04634   -1162.2037    6527.8078    11818.361    1975.7383 
  121000    296.61646   -1161.2134    6368.9521    11544.494    1882.5337 
  121100    300.52821   -1158.7916    6392.8383    11654.371    1941.6714 
  121200    301.88741   -1164.9806    6439.3784    11723.759     1948.875 
  121300    303.44302   -1161.4882    6455.3823    11776.489    1971.2956 
  121400    298.97022   -1160.1851    6387.2722    11614.127     1920.126 
  121500    299.19946   -1157.5852    6433.7714    11668.124     1891.374 
  121600    302.48885   -1159.2367    6359.1203    11662.094    1904.6612 
  121700    296.99632   -1167.2548    6380.2169    11557.833    1933.0814 
  121800    299.51023     -1171.94    6470.3556    11696.992    1944.6239 
  121900    301.63084   -1167.4458      6392.44    11668.874    1930.6763 
  122000    300.19241   -1172.6996    6419.9096     11660.36    1946.0946 
  122100    299.26893   -1168.0977    6339.9598    11565.284    1860.1863 
  122200    299.08005   -1168.8949    6517.4661    11737.958    1958.0994 
  122300    300.43215   -1164.0398    6397.6097    11651.842      1900.04 
  122400    293.67258   -1169.7555    6376.6224    11480.731      1869.29 
  122500    299.99971   -1166.8604    6447.7385    11689.912     1929.024 
  122600     301.2349   -1171.3357    6331.9503    11596.036    1891.1877 
  122700    298.08998    -1170.845    6401.9041    11599.294    1921.7041 
  122800    305.78341   -1166.6093    6479.4485    11845.432    1943.8197 
  122900     297.6926   -1167.0684    6536.2069    11728.884    1951.2756 
  123000    304.93881   -1158.6484    6271.7252    11627.627    1923.6144 
  123100     298.5261    -1159.513    6393.5785    11611.618    1920.2487 
  123200    299.70545   -1161.6864    6437.4003    11678.461     1889.354 
  123300    306.17078   -1161.7288    6480.3564    11859.497    1930.6518 
  123400     295.2314   -1163.4075    6359.5067    11503.265    1889.8379 
  123500    299.89487   -1157.1791    6421.6825    11671.297    1889.3091 
  123600    305.65632   -1160.5679    6436.5506    11805.861    1944.1282 
  123700    297.80874   -1159.9109    6440.8106    11643.127    1971.2108 
  123800    303.31902   -1158.8857    6417.3921    11738.452     1943.671 
  123900    300.88102   -1150.0051    6530.1419    11807.998     1928.502 
  124000    301.98055   -1156.0748    6522.1449    11817.421    1980.6529 
  124100    296.20493   -1159.3398    6389.5712    11558.195    1887.2448 
  124200     304.9664   -1162.3788    6338.3951    11691.156    1881.2543 
  124300    300.54083   -1163.7997    6556.8673    11813.661    1992.3838 
  124400    299.86159    -1159.208    6415.7882    11662.663    1893.8216 
  124500    297.59052   -1162.3695    6352.2733    11547.469    1870.7372 
  124600    305.15472    -1159.779    6416.3008    11775.684    1940.9857 
  124700     298.8661   -1159.8421    6470.9043    11695.878    1861.4211 
  124800    301.62533   -1164.0009    6469.9284     11749.69    1905.7966 
  124900    301.50369   -1165.9741    6378.2296    11653.419     1995.901 
  125000    297.11231   -1171.7007    6418.9711    11594.619    1987.7094 
  125100    301.97692    -1168.417    6447.8105    11730.667    1947.4372 
  125200    299.88175   -1170.7817    6451.4288    11687.161     1911.958 
  125300    296.55482   -1166.4352    6427.7241    11596.728    1935.8875 
  125400    303.15969   -1173.8829    6368.8602    11671.519    1899.2285 
  125500    298.13048    -1169.712    6467.9984    11667.387    1998.0593 
  125600    302.79751   -1169.1559    6460.9059    11760.554    1997.3472 
  125700    298.45691   -1160.8119    6384.4696    11599.732    1885.7931 
  125800    305.39673   -1163.2511    6333.5364    11694.618    1891.0502 
  125900     304.1694   -1160.1236    6374.6398    11712.629    1960.6666 
  126000    294.95546    -1164.804    6308.0594    11444.526    1900.2478 
  126100    301.39453   -1161.4081    6468.2521    11745.676    1981.6425 
  126200    299.19956   -1169.6875    6570.1006    11792.353    1956.0925 
  126300    301.69764   -1167.4823    6404.8555     11682.68    1886.0346 
  126400    297.63298   -1161.4376    6220.5301    11417.565    1789.8494 
  126500    300.10372   -1164.6202    6443.4495    11690.085    1958.7761 
  126600    298.05446   -1162.8094    6519.9609    11724.628    1927.2957 
  126700    301.86868   -1164.0058    6542.4609    11827.416    1939.0538 
  126800    298.83685   -1160.9717    6427.8199    11651.039    1918.7264 
  126900    303.51063   -1158.7465    6383.3603    11708.653    1946.2281 
  127000    299.67032   -1157.5417    6358.7662    11603.221    1860.1976 
  127100    299.46836   -1155.0569     6535.789    11778.414    1944.4822 
  127200    300.59466    -1155.081    6404.1438    11670.807    1883.5866 
  127300    299.17947   -1154.5437    6440.1419    11677.109    1866.2974 
  127400    296.46705   -1158.5342    6595.3525    11770.382    1967.4005 
  127500    300.85176   -1162.6842     6343.095    11607.647    1885.6104 
  127600    297.85129   -1162.7586    6336.5859    11536.963    1880.7085 
  127700    298.36703   -1164.5672    6452.6824    11662.269    1970.1697 
  127800    305.77121   -1160.8047    6557.3327    11928.861    1964.0008 
  127900    298.30387   -1159.0382    6406.7824    11620.549    1887.8674 
  128000    294.64433   -1161.5315      6275.54    11408.632    1855.2741 
  128100    301.68661    -1160.766    6462.6106    11746.916    1967.7571 
  128200    300.38898   -1163.3845    6458.7998    11712.765    1946.4513 
  128300    294.08725   -1152.8953    6414.1354    11543.963    1955.1979 
  128400    303.55855   -1159.6699     6410.799    11736.192    1953.3961 
  128500    299.93864   -1161.0591    6417.2081    11663.878    1907.4089 
  128600    302.34048   -1168.4455    6360.3563    11650.951    1916.5134 
  128700     299.6788   -1158.1258    6470.0824    11714.134    1964.3574 
  128800    297.76706   -1166.2042     6452.267    11647.399    1947.6937 
  128900    300.93007   -1161.3353    6449.5349    11717.109     1938.107 
  129000    305.06288   -1155.7922     6397.871    11759.279    1942.5093 
  129100    298.05703    -1153.898     6417.744    11631.377    1937.9468 
  129200    296.29918   -1160.4708    6390.2738     11559.78     1886.504 
  129300     301.6812   -1157.0096    6460.3157    11748.262    1940.3021 
  129400    299.51316   -1159.9713    6348.4789    11587.147    1876.1833 
  129500    304.61892   -1161.9058    6388.2404    11734.051    1938.4171 
  129600    296.25378   -1161.8143    6403.9484    11571.142    1931.0992 
  129700    295.53261   -1154.8135    6388.1857    11546.973    1878.3113 
  129800    300.15723   -1152.4871    6450.2199    11710.132    1941.6413 
  129900    302.03893   -1152.8335    6440.0342    11739.799    1932.5374 
  130000    302.61847   -1155.5727    6496.8791    11806.286    1918.5232 
  130100    298.94089   -1153.2602    6360.6358    11593.789    1896.4311 
  130200    299.76825   -1157.3128    6417.0266    11663.802    1937.7325 
  130300    300.76216   -1155.3931    6349.1976    11619.127    1895.2238 
  130400    297.97752   -1159.5796    6463.8338    11670.087     1928.428 
  130500    299.31448   -1160.7684     6438.859    11672.485    1960.4319 
  130600    302.90951   -1164.4127    6437.6465    11744.431     1984.311 
  130700    303.35267   -1160.3702    6407.3893    11727.683    1875.9643 
  130800    299.01768    -1161.496    6429.7217     11656.28    1901.1435 
  130900    305.28048    -1161.126    6450.5683    11811.291    1917.1641 
  131000    300.21427   -1165.7071    6478.6744    11726.585     1955.935 
  131100     296.7451   -1162.4064    6412.6343    11589.732     1931.631 
  131200    303.46344   -1159.3209    6454.2328    11777.943    2006.2426 
  131300    295.93181   -1161.6609    6334.5022     11494.97    1932.4523 
  131400    302.44986   -1164.7375    6454.8654    11751.505    1965.4769 
  131500    299.40872   -1161.9821    6449.6845     11684.11    1930.9091 
  131600     303.2116   -1166.0165    6434.8018    11746.436    2006.4092 
  131700    296.19944   -1163.8709    6442.2887    11606.264    1915.2551 
  131800    300.31499   -1162.8998    6388.0158    11640.885    1914.2511 
  131900     298.9323   -1165.1632    6316.3872    11537.454    1880.3731 
  132000    303.36007   -1166.1555    6480.9732     11795.64    1962.1554 
  132100    293.53656   -1164.9483    6444.4297     11550.44    1898.4622 
  132200    298.95262   -1162.5523    6364.9541    11589.066    1831.4055 
  132300    302.11555   -1160.4582    6399.6581    11693.435    1835.6219 
  132400    300.59916   -1157.4344    6355.6898    11620.095    1854.4815 
  132500    298.91839   -1158.7574    6450.1735    11677.349    1914.9542 
  132600     300.2899   -1152.0625    6410.8491     11674.02    1857.8293 
  132700     302.1987   -1153.6452    6363.9594    11666.326    1839.5292 
  132800    295.51372   -1158.3612    6466.3048    11621.141    1883.7027 
  132900    300.94158   -1159.2758    6482.5903     11752.47    1866.1546 
  133000    297.61566   -1156.6261    6458.1465    11659.622    1878.2353 
  133100    298.03307    -1155.241    6510.8022    11722.581    1922.7782 
  133200    307.38548   -1156.8994    6494.7233    11904.643    1938.1427 
  133300    300.00887   -1153.8866    6373.3005    11628.643    1886.1092 
  133400    297.04352   -1153.4157    6435.2621    11627.726    1895.4034 
  133500    305.15204   -1149.1279    6510.4495    11880.427     1939.902 
  133600    299.96115   -1155.0602    6396.0794    11649.229    1953.3682 
  133700    297.99523   -1157.9458    6355.8944     11564.16    1921.8515 
  133800    298.37245   -1161.7993    6495.7433    11708.214    1921.3554 
  133900    299.16091   -1162.6224    6317.8603    11546.352    1828.1736 
  134000    298.45909   -1167.2237    6456.1145    11665.011    1952.2993 
  134100    295.04876    -1167.298      6407.75    11543.716    1903.4492 
  134200     302.0718   -1159.7657    6493.3278    11786.863    1957.8642 
  134300    298.03603   -1154.6322    6466.6804    11679.131    2009.0973 
  134400      299.466   -1163.5524    6280.8051    11514.884    1891.6693 
  134500    298.66842   -1159.8193    6452.4831    11673.256    1958.1289 
  134600    301.53708   -1162.4017    6450.9623    11730.438    1922.2851 
  134700      302.011   -1168.9797    6316.8037    11599.826    1917.5739 
  134800    296.60276   -1169.1246    6354.1762    11521.514     1919.974 
  134900      303.826   -1162.7174      6470.23    11798.289    1952.4899 
  135000    300.16928   -1165.3378    6454.6172    11701.936    1910.1705 
  135100    302.78459   -1170.7277    6497.0123    11794.813    1946.4262 
  135200    299.72298   -1172.5688    6418.9108    11649.464    1909.7913 
  135300    298.73656   -1165.6428    6399.6969    11616.102    1883.6951 
  135400    301.38512   -1164.5776    6458.6284    11732.681    1973.5925 
  135500    296.47978   -1156.5076    6356.7327    11534.061    1857.6163 
  135600    299.46754   -1160.8055    6428.1043    11664.963    1872.6216 
  135700    296.01947   -1160.5003     6371.689     11535.19    1868.7966 
  135800    301.66451    -1157.072    6468.7594    11756.287    1942.7824 
  135900    297.81757   -1159.9316    6414.7821    11617.266    1950.4523 
  136000      303.146   -1157.3604    6399.2367    11718.125    1909.8267 
  136100    299.66166   -1156.8792    6415.1033    11660.036    1863.3982 
  136200     298.7066   -1156.2173    6396.2627    11621.453    1916.7558 
  136300     296.0692   -1160.1223    6505.6844    11670.626    1995.8768 
  136400    299.28981   -1153.8624    6474.4263    11714.432    1954.9004 
  136500    298.04714    -1158.827    6368.5043    11576.997     1853.335 
  136600    302.03137   -1159.0943    6445.5256    11738.868    1883.1378 
  136700    299.74176   -1154.0007    6485.3134    11734.836    1875.0156 
  136800    299.81937    -1156.416    6370.7421    11619.507    1840.6409 
  136900    295.58035   -1153.9039    6491.7149    11652.432    1946.3335 
  137000    297.97573   -1159.2073    6369.2794    11575.866    1918.9396 
  137100    300.41975   -1160.9031    6420.2642    11677.368    1948.0221 
  137200    297.92643   -1164.8771    6389.8217    11589.686    1910.7603 
  137300    304.55435   -1160.6494      6500.64    11846.327    1969.9528 
  137400    297.22435   -1159.6654    6372.6732     11562.75    1898.8918 
  137500     300.0615    -1164.237    6425.5023    11671.619     1937.961 
  137600    301.25126   -1165.6216    6399.1759    11669.325    1902.0301 
  137700    299.97953    -1169.631    6394.7615    11633.733    1927.9671 
  137800    298.37392   -1169.8013    6348.2229    11552.723    1899.9541 
  137900    299.47052   -1167.9547    6444.8665     11674.64    1938.2963 
  138000    300.03438   -1171.3071    6449.0704    11687.538    1950.3721 
  138100    300.76828   -1169.5874    6367.1454    11623.011    1934.4453 
  138200    299.93612   -1167.3753    6395.0127    11635.312    1922.9993 
  138300    299.31778   -1170.9302    6459.2139    11682.749    1939.5102 
  138400    296.14227   -1158.4038    6432.2651    11600.487    1987.8222 
  138500    301.14376   -1173.4759    6325.0565    11585.055    1947.6371 
  138600    298.01223   -1167.5198     6421.689    11620.743    1950.1299 
  138700    304.87251   -1166.3658    6441.6216    11788.389    1923.5993 
  138800    297.73497   -1166.6998    6444.0577    11638.009    1868.5803 
  138900    305.38004   -1162.0329    6334.3247    11696.268    1812.3559 
  139000    302.87921   -1164.7123    6513.1014    11818.939     1927.958 
  139100    296.16793   -1155.2991    6396.6063    11568.481    1929.5778 
  139200    299.10058   -1162.2609    6325.1757     11552.74    1915.4604 
  139300    301.64086    -1154.744    6439.1236    11728.474    1908.4703 
  139400    293.49559   -1160.8013    6369.7325    11479.014    1852.1463 
  139500    299.05317   -1157.4976    6402.5585    11633.873    1851.3353 
  139600    305.38819   -1158.1142    6488.1898    11854.226    1898.3295 
  139700    297.17056   -1155.1512    6426.4015    11619.843     1862.961 
  139800    303.39292   -1155.7059    6315.7418     11641.56    1860.1564 
  139900    299.59715   -1153.3958    6424.3457    11671.383    1870.9513 
  140000    299.19871   -1155.5354    6399.6957    11636.082    1864.3593 
  140100    295.28799     -1151.35    6489.2497    11646.274    1912.6855 
  140200    303.60748   -1146.8845    6473.0479    11812.271    1925.1289 
  140300    300.93709   -1148.9904    6278.0775    11558.146    1843.1987 
  140400    293.89829   -1155.5765    6410.2273    11533.337    1916.1545 
  140500    306.66816   -1158.9231    6575.8053    11968.377    1915.6567 
  140600     294.2713   -1157.5725    6493.4262    11622.509     1937.929 
  140700    300.16315   -1162.4696    6312.8211    11562.877    1889.0645 
  140800    301.23002   -1160.9277    6455.4332    11729.823     1917.844 
  140900     300.5733   -1160.8752    6516.5094    11776.922    1927.4337 
  141000    301.72065   -1159.1404    6367.8564    11654.515    1940.4344 
  141100     295.4318   -1161.5552    6382.6029    11532.495     1900.201 
  141200    301.34192   -1160.1715    6412.0423    11689.579    1939.7201 
  141300    296.26149   -1160.5544    6517.2598    11685.878    1933.6987 
  141400    300.78053   -1162.1049    6373.6703     11637.28    1858.7549 
  141500    300.48779   -1162.8117    6411.9345    11668.583    1872.4435 
  141600    302.58396    -1164.965    6392.1744    11691.451    1879.3987 
  141700    299.43827   -1167.1807    6448.7349    11678.593    1909.4329 
  141800     300.7295   -1167.4667    6434.1566    11691.314    1890.6236 
  141900    306.09988   -1161.1529    6369.3299    11747.531    1890.1191 
  142000    298.04979   -1166.5309    6465.9937    11666.839    1942.0455 
  142100    300.02877   -1159.0169    6451.7797    11702.417    1895.7915 
  142200    305.08185   -1164.1532    6450.8189    11804.271    1927.8376 
  142300    298.00398   -1164.5893    6459.6455    11661.454     1963.195 
  142400    302.31146   -1165.9176    6403.0788    11695.582    1880.3899 
  142500    298.23409   -1162.8903    6455.1359    11663.559    1863.9228 
  142600    300.90024   -1165.2854    6407.1527    11670.139    1930.3684 
  142700    299.47035   -1163.8711    6368.7993    11602.653    1970.4819 
  142800    299.39853   -1160.2596    6347.7423    11583.673    1919.4879 
  142900    300.25323    -1161.158    6501.1513    11754.443    1950.5144 
  143000    302.84873   -1160.7334    6507.8388    11817.004    1933.2715 
  143100     296.7227   -1164.4871    6380.7002    11555.238    1818.4756 
  143200    297.68606   -1164.6183     6382.302     11577.29    1874.7375 
  143300    296.31826   -1156.0356    6502.0264    11676.376    1948.6382 
  143400    300.13625   -1156.8029     6359.965    11615.113    1864.0704 
  143500    296.18434   -1165.4575    6354.2159    11516.282    1834.1151 
  143600    291.98397   -1160.8635    6457.8696    11534.796    1944.1919 
  143700    301.27485   -1162.3458    6389.5655    11663.495    1887.2322 
  143800    302.04194   -1166.7097    6442.8447    11728.798    1893.1893 
  143900    300.14263    -1161.952    6538.4477    11788.582    2021.2596 
  144000    304.75417   -1162.1875    6400.7255    11749.143    1912.3342 
  144100    300.06079   -1160.8954    6391.8223    11641.265    1938.4693 
  144200    297.39807   -1160.9921    6441.6356    11634.097    1894.6131 
  144300    304.99019   -1162.2536    6480.0073    11833.401    1902.6827 
  144400    299.05468   -1158.7183    6317.1037     11547.23    1868.8532 
  144500    298.90854   -1156.5277    6332.0866    11561.281    1924.0219 
  144600    305.09961   -1165.4829    6489.3588    11841.861    1950.6911 
  144700    298.00438   -1166.5106    6426.1002    11625.996    1834.4142 
  144800     301.4547   -1162.6067    6351.1862    11628.697    1845.8247 
  144900    295.91705   -1172.7303    6414.1059    11563.189    1885.4487 
  145000    301.91422    -1168.094    6374.5376    11656.378    1893.3696 
  145100    301.15514   -1162.8203    6434.8046    11705.702    1879.4086 
  145200    296.32351   -1164.8961    6549.6125    11715.214    2002.9213 
  145300    303.22322   -1162.6529    6424.0842     11739.33     1951.258 
  145400    301.40333     -1161.79    6375.7082    11652.938    1934.5966 
  145500    306.75146   -1158.1471    6306.2154    11701.342    1974.5302 
  145600    300.51136   -1160.0302    6434.5166    11694.451    1988.4435 
  145700    302.91108   -1160.5492    6453.3479    11764.029    1886.1304 
  145800    297.54083   -1162.4669    6380.9858    11575.022    1857.1892 
  145900    297.75437   -1165.2054    6432.5395    11628.399    1928.2435 
  146000    297.25303    -1166.992    6323.9813    11507.344    1879.4387 
  146100    299.69165    -1166.752    6358.0081    11593.708    1916.3602 
  146200    304.44389   -1166.2858    6523.0086      11860.7    2052.4366 
  146300    298.29933   -1165.5824    6436.6479    11643.773    1890.6929 
  146400    299.10965   -1163.0097    6453.0478    11680.057    1927.3231 
  146500    302.03447   -1162.6345    6452.3016     11742.17    2061.4392 
  146600    299.09687   -1153.9716    6431.2386    11667.013    1981.6685 
  146700    300.44961   -1163.3648    6410.9835    11666.264    1916.5749 
  146800    298.40981   -1165.8157    6341.8826    11551.135     1909.518 
  146900    297.24135   -1164.7521    6413.1838    11598.537    1947.0485 
  147000    303.11923   -1164.4221    6439.6507    11750.906    1882.9283 
  147100    296.22983   -1171.1209    6409.8322    11567.207    1921.8765 
  147200    300.26199   -1166.2972    6394.8369    11643.177    1922.8857 
  147300    307.03659   -1165.9658    6357.2692    11750.669    1896.7154 
  147400    295.29332   -1162.7416    6343.3626     11489.11    1907.6649 
  147500    303.04415   -1162.3202    6552.7489    11864.502    1978.5589 
  147600    298.68486   -1165.4066    6534.9304    11750.468    1866.9578 
  147700    300.71621   -1162.0322    6376.9065    11639.215    1838.5502 
  147800    305.27973   -1168.5145    6301.2784    11654.597    1944.6346 
  147900    298.45353   -1163.6375    6457.1414    11669.506    1924.9911 
  148000    295.55703   -1165.3053     6467.816    11616.633    1903.5988 
  148100    301.18819   -1165.4789    6500.4814    11769.426    1957.5409 
  148200    302.85294   -1165.2527    6488.4977    11793.233    1928.2058 
  148300    302.97661   -1161.8105    6441.4893    11752.309    1859.3979 
  148400    297.84988   -1162.0114    6456.1731    11657.267    1910.9506 
  148500    299.43824   -1162.5111    6388.4946    11623.022    1938.8278 
  148600    304.34585   -1164.2998     6355.246    11692.828       1885.5 
  148700    295.47518   -1159.9205    6352.7367     11505.19     1863.699 
  148800    300.76737   -1154.0122    6472.4958    11743.917    1899.7402 
  148900    299.64224   -1159.6951    6464.7471    11706.449    1856.7662 
  149000    299.90704    -1160.526    6320.5936    11567.121     1876.068 
  149100    298.98976   -1162.8383     6338.623    11563.242    1919.4101 
  149200     298.2161   -1159.8322    6368.9185    11580.016    1929.7643 
  149300    297.44613   -1159.2176    6507.0417    11702.304    1915.2091 
  149400    301.24039   -1161.3301     6522.179    11796.388     1905.987 
  149500    300.69194   -1160.9161    6383.5996    11646.505    1909.6674 
  149600     301.7115   -1161.2405    6400.7557    11685.118    1971.4229 
  149700    292.16107   -1165.6034    6464.4009     11540.37    1963.5167 
  149800     300.7581   -1167.4142    6427.6818    11685.503    1886.2724 
  149900    303.08254   -1158.5977    6528.6329    11844.929    1883.2381 
  150000    302.77785   -1161.6818     6390.548     11697.25    1865.1229 
  150100      302.105   -1168.9485    6382.3891     11667.45    1926.9444 
  150200    301.85538    -1166.288    6450.6671    11733.056    1965.9015 
  150300    301.19065   -1162.9801    6340.0375    11611.534    1906.3579 
  150400    301.01716   -1166.6095    6473.1003    11737.261     1911.988 
  150500    302.39617   -1162.6652    6533.6858    11831.251    1945.7727 
  150600     299.1417    -1165.541    6433.0619    11658.224    1927.6205 
  150700    302.69014    -1169.415    6390.7196    11687.815    1924.9405 
  150800    297.55469   -1165.3882    6367.8345    11559.246    1894.0686 
  150900    303.39724   -1167.5557    6437.5845    11751.645     1965.931 
  151000    296.37034   -1169.0218    6447.4368    11609.913    1921.2294 
  151100    299.14992    -1164.659    6410.4458    11636.666    1898.3877 
  151200    300.84208   -1170.9127    6458.2624    11714.379    1907.6522 
  151300    301.48584   -1158.8176    6435.6368    11717.602    1894.4255 
  151400    296.20947   -1167.7799    6442.3829    11602.664    1902.6792 
  151500    300.33943   -1167.9956    6416.4866    11664.782    1866.3409 
  151600    303.68628   -1161.7992    6430.7731    11756.765    1911.2155 
  151700    293.32438   -1159.3426    6393.0117    11500.094    1893.9503 
  151800    304.98799    -1162.579    6484.8982     11837.92    1921.8533 
  151900    297.60848    -1160.026    6474.8067    11672.729    1865.8811 
  152000     299.8535   -1162.4469    6382.1478    11625.611    1782.5766 
  152100    302.70235    -1159.228    6425.4793    11733.023    1886.3903 
  152200     295.4186   -1159.5716    6363.9433    11515.537     1891.898 
  152300    300.23105   -1159.1152    6432.4586    11687.319    1935.3751 
  152400    306.32064   -1157.9692    6342.5496    11728.651    1954.3815 
  152500    298.24351   -1160.1692    6370.0742     11581.42    1934.3664 
  152600    304.27133   -1156.3038    6481.2657    11825.252     1888.351 
  152700    301.29207   -1163.6186    6445.6759      11718.7    1948.5623 
  152800    300.32969   -1162.4179    6346.0901    11599.755    1886.2192 
  152900    304.31267   -1158.5257    6380.5859    11723.233    1859.3568 
  153000    297.23479   -1160.2457    6412.5099    11602.229    1924.9031 
  153100    303.18845   -1159.1903    6391.6643     11709.63    1876.3674 
  153200    302.12081   -1159.6412    6562.6039     11857.31    1887.8074 
  153300    299.19073    -1163.426     6409.085     11637.41    1866.6406 
  153400    299.98677   -1162.3688    6382.2141    11628.602    1841.3697 
  153500    299.80006   -1160.6036    6502.9288    11747.093    1860.0372 
  153600     306.3661   -1157.4565    6375.5832    11763.168     1815.605 
  153700    295.30092   -1171.9741    6387.3489    11524.026    1889.4593 
  153800     300.1676   -1170.0063     6435.938    11678.552    1951.3972 
  153900    298.89395   -1167.1906    6455.2166    11673.437    1898.9289 
  154000    300.65028   -1170.4574    6387.9358     11640.41    1908.3738 
  154100    300.76015   -1165.0433    6368.0318    11628.268    1994.2232 
  154200    299.34489   -1161.2282    6293.3205    11527.137    1859.5417 
  154300    300.28183   -1161.1661    6510.6664    11764.561    1969.4489 
  154400    302.88161   -1161.1697     6417.615    11727.046     1927.151 
  154500    300.73956   -1164.3801     6481.692    11742.151    1910.8081 
  154600    302.80026   -1165.3709    6398.7328    11702.225     1860.006 
  154700    298.39456   -1159.9445    6393.9313    11608.729    1925.2988 
  154800    299.64205    -1162.573    6458.3118    11697.131    1872.1674 
  154900    300.15309   -1164.9536    6402.2211    11649.578    1894.3406 
  155000      297.819   -1163.2656    6369.2154    11568.396    1969.5027 
  155100     295.9749   -1158.5741    6360.4955    11524.971    1892.3019 
  155200    301.06805   -1161.5464    6430.7395     11701.05    1935.2103 
  155300    299.39145   -1161.8119    6426.5906    11660.818    1996.7908 
  155400    295.88665   -1157.8341    6460.3235    11623.654     1913.628 
  155500    302.02891   -1160.0999    6375.9705    11668.255    1890.3528 
  155600    298.67696   -1162.2989    6384.3938     11602.87    1978.4402 
  155700    302.23865   -1161.1281    6460.8068    11756.544    1892.5773 
  155800    295.45332   -1161.4813    6400.8155    11551.241    1873.7458 
  155900    300.80441   -1162.6208    6368.2464     11631.85    1941.0139 
  156000    300.46841    -1157.703    6509.6502    11770.994    1910.4246 
  156100    299.93347   -1159.5528    6396.7048     11644.77    1869.2281 
  156200    300.64539   -1156.7746    6365.8373     11631.89      1954.59 
  156300    301.14309   -1158.4767    6496.4364     11771.42    1940.9315 
  156400    301.32549   -1162.0334    6340.6863     11616.01    1847.7065 
  156500    301.09483   -1164.2325    6396.7375    11664.934    1983.6678 
  156600     298.6019   -1168.0607    6444.3523    11655.463    1911.8466 
  156700    298.72831    -1165.685    6435.2175    11651.404    1845.1287 
  156800    290.47978   -1164.9805    6510.4979    11551.172    1878.6928 
  156900    303.29161   -1162.7389    6430.4398    11747.061    1898.1841 
  157000    301.11288   -1163.0714    6301.8243    11571.568     1853.976 
  157100    301.19035   -1167.4137    6331.9139     11598.97    1939.2047 
  157200    298.67942   -1156.2151    6538.4846    11763.097    1988.8171 
  157300    301.96595   -1159.7897    6443.3466    11734.596    1897.0625 
  157400    302.44885   -1168.8792     6396.641    11689.117    1931.7631 
  157500    301.37807   -1169.4469    6366.4463     11635.48    1927.5009 
  157600     302.7198   -1165.5615    6411.7538    11713.336    1867.7655 
  157700    297.14242    -1167.854    6448.3697    11628.508    1893.5277 
  157800    303.77599   -1164.7504    6500.9497    11825.907    1949.9764 
  157900    299.87526   -1161.6209    6418.3567    11663.111    1861.2627 
  158000    302.48274   -1164.1563    6351.7494    11649.673    1892.7389 
  158100    300.02165   -1165.4039    6417.2857    11661.384    1966.6387 
  158200    300.17363   -1159.1348    6455.3571    11708.971    1928.3775 
  158300    296.37934   -1155.2191    6341.3719    11517.843    1839.2413 
  158400     302.1745   -1160.8587     6502.257    11796.893    2009.4781 
  158500    295.08703   -1162.9751    6405.4447    11546.551    1920.9363 
  158600    297.44489    -1156.952    6361.3934    11558.895    1877.2485 
  158700    300.93481   -1160.5517    6512.7664    11781.225    1947.9515 
  158800    298.79804   -1164.1569    6429.2806    11648.485    1870.2746 
  158900    300.50937   -1157.3021    6378.0512    11640.671    1801.8996 
  159000    296.68079   -1156.3957    6440.4588    11622.193    1917.3659 
  159100    299.81837   -1157.5364    6412.2815    11659.905    1892.4137 
  159200    301.07827   -1159.0486    6419.6775    11692.704    1909.9159 
  159300    299.98525   -1160.6067    6401.1222     11649.24    1955.6419 
  159400    297.37213   -1160.1348    6448.6123    11641.377    1945.3699 
  159500    301.97603   -1160.6654    6451.5178    11742.107    1850.1929 
  159600    297.81463   -1159.9385    6398.6825    11601.096    1829.1073 
  159700    297.80892   -1165.8786    6512.9924    11709.344    1931.4718 
  159800    301.52768   -1169.5909    6428.5511    11700.637    1940.8871 
  159900    295.50661   -1162.6475    6314.1608    11464.559    1880.6715 
  160000    305.86433     -1164.79    6478.0026    11847.535    1978.9642 
  160100    299.91844   -1157.2658    6475.0346    11725.066    1964.8507 
  160200    299.77888   -1159.0222    6391.8207    11637.114    1860.4433 
  160300    302.29477   -1165.5759    6338.5481    11631.036     1873.579 
  160400    303.28338    -1166.021     6480.917     11794.08    1938.6653 
  160500    296.24407   -1168.9896    6444.4427    11604.253    1817.3732 
  160600    304.88659    -1166.065    6443.9958    11791.365    1906.0243 
  160700    303.65549   -1165.9478    6368.8085    11689.994    1929.1034 
  160800    293.84463   -1163.1795    6345.7443    11460.104    1849.7802 
  160900    301.59935   -1160.6567     6353.776    11636.327    1944.7109 
  161000    299.67164   -1160.6752    6392.5065    11633.856    1937.5976 
  161100    301.79651   -1163.1196    6479.7623    11764.062    1917.3007 
  161200    301.34043   -1158.9828    6468.1885    11746.882    1920.1628 
  161300    301.11118   -1162.5832    6394.9739    11665.169    1883.3284 
  161400    293.00888   -1161.8088    6437.2682    11535.145    1834.9499 
  161500    301.83426    -1167.239    6456.1003    11737.087    1902.0848 
  161600    296.72692   -1165.4573    6367.9425    11541.601    1845.5585 
  161700    296.28227    -1160.455    6556.3639    11725.525    1898.4953 
  161800    303.48657   -1160.1156    6464.2554    11787.665    1923.1008 
  161900    300.94942   -1158.3244    6356.5001    11627.498    1927.1853 
  162000    295.54135   -1160.9334    6391.7397    11544.594    1865.3615 
  162100     307.7942   -1155.4466    6490.4187    11910.523    1886.7207 
  162200    296.93718   -1160.8756    6498.0085     11680.74    1928.4495 
  162300    302.88049   -1160.7457    6459.6104    11769.442    1940.9228 
  162400    300.16113   -1157.6977    6403.2709    11658.055    1932.8539 
  162500    299.51237   -1161.7183    6477.9909    11714.895    1940.0811 
  162600    299.17593   -1165.6711    6428.9474    11654.711    1854.6847 
  162700    299.17032   -1159.0725    6457.5769    11689.819    1943.8309 
  162800    299.73209   -1162.0244    6428.6986     11669.99    1930.5109 
  162900    302.79275   -1167.4002    6346.9332    11648.236    1873.6931 
  163000    296.76159   -1161.0709    6488.0034    11666.788    1922.9784 
  163100    300.18637   -1155.7774    6480.8036    11738.048    1953.4235 
  163200    302.39195   -1163.9456    6363.6164    11659.811    1934.8078 
  163300    299.99909   -1160.8116    6441.7821    11689.991     1978.441 
  163400      299.169   -1164.1298    6407.3172    11634.474    1971.8061 
  163500    302.09458   -1163.7679    6434.0428    11724.062    1964.8847 
  163600    303.37783   -1163.4902    6411.2645    11728.976    1906.4481 
  163700    300.42504   -1166.9449    6415.1845     11666.36    1936.1775 
  163800    299.38996   -1169.1378    6418.1358    11645.005    1966.6405 
  163900    294.98103   -1164.1186    6489.5156    11627.214    1906.4191 
  164000    303.93544   -1166.9636    6314.0584    11640.209    1841.8165 
  164100     298.8294   -1170.8185    6469.0469     11682.26     1957.161 
  164200    290.36559    -1166.354     6345.645    11382.506    1865.4415 
  164300     303.4972   -1168.1005    6320.4818    11636.133    1912.1473 
  164400    299.79261   -1157.9862    6483.7633    11730.386    1910.8459 
  164500    298.82633   -1159.8462     6505.338    11729.458    1806.4842 
  164600    303.46818   -1162.0169    6423.4723    11744.587    1855.5832 
  164700    301.08857   -1168.5532    6286.1872    11549.929    1914.2636 
  164800    297.18638   -1167.9454    6452.1631    11633.149    1905.5677 
  164900    297.07303   -1166.7073    6500.8203    11680.622    1875.9115 
  165000      299.068   -1163.1469    6421.5349    11647.517    1922.5625 
  165100    296.94475   -1158.4488    6421.1489    11606.469    1896.7176 
  165200    298.95961   -1161.4843    6404.2178    11629.547    1840.6579 
  165300    304.99892   -1157.0577    6442.5253    11801.302    1953.7711 
  165400    298.18954   -1162.4103     6406.931    11614.883    1910.5314 
  165500    301.63523   -1153.6447    6429.5677    11719.897    1938.6005 
  165600    298.09433   -1156.1949     6412.389    11624.522    1957.9624 
  165700    299.25536   -1154.9893    6387.6922    11625.835    1928.7154 
  165800    302.34349   -1157.8039    6526.2214    11827.522    1972.9137 
  165900    298.13787   -1162.9883    6451.2771    11657.547    1947.6813 
  166000    303.18028   -1155.1594     6413.271    11735.093    1925.8479 
  166100     297.0948   -1161.5327    6448.8119    11634.254    1858.0446 
  166200    307.58523     -1162.79    6442.6625    11850.959      1923.94 
  166300    298.67999    -1159.055    6417.2359    11639.021    1967.1871 
  166400    297.49559   -1161.2621    6498.1949     11692.47    1991.7804 
  166500    304.43417   -1155.0661    6403.0769     11751.78    1944.9441 
  166600    299.10482   -1158.4761    6465.2049    11696.644    1980.0715 
  166700    294.53597   -1164.6051     6435.237    11562.941    1882.3981 
  166800    303.55724   -1166.7411     6376.722    11695.016    1878.9765 
  166900    295.76042   -1163.8531    6395.1562    11549.771     1922.484 
  167000    302.12543   -1168.7118    6438.7538    11724.488    1948.1244 
  167100    296.79736     -1171.97    6412.2492    11580.899    1924.9877 
  167200    300.56434   -1167.8692    6347.0109    11600.238     1938.368 
  167300    299.54546   -1168.2267    6532.1342    11763.237    2040.8165 
  167400    305.09254   -1167.9318    6378.9253    11728.828    1942.0575 
  167500    298.76857   -1168.1849    6359.0545    11573.602     1868.305 
  167600    300.09497    -1165.522    6534.9739     11780.52    1942.7089 
  167700    300.36501   -1163.7243    6410.5579    11663.671    1883.7676 
  167800    300.01588   -1169.1082    6356.3652    11596.636    1903.7518 
  167900    300.79503   -1169.3736    6409.4099    11666.061    1973.0463 
  168000    299.42179   -1163.9449    6344.7552    11577.497     1875.688 
  168100    299.42586   -1169.3482    6371.6674    11599.093    1926.7854 
  168200    300.79468   -1171.5116    6424.1109    11678.616     1933.113 
  168300    300.53996   -1163.9341    6459.0104    11715.651    1867.8776 
  168400    297.09534   -1164.0627     6466.659    11649.582    1905.0582 
  168500     304.4879   -1166.6209    6517.7104    11856.006    1981.7578 
  168600     299.5929   -1166.9458    6316.4968    11549.894    1906.2862 
  168700    299.77403   -1165.3385     6491.679    11730.553    1975.4452 
  168800     300.0829   -1161.7334    6467.3343    11716.412    1914.2663 
  168900    299.18766   -1162.2814    6478.3897    11707.794    1925.6192 
  169000    302.66819   -1157.6228    6399.8246    11708.243    1842.7236 
  169100    297.04725   -1158.0802    6342.4224    11530.301    1851.0402 
  169200    302.24003   -1155.2251    6471.6075    11773.277    1911.0516 
  169300    296.08728   -1160.1366    6491.4165     11656.73    1877.9829 
  169400    299.91301   -1162.7397    6297.8654    11542.307    1812.9209 
  169500    302.63731   -1158.6585    6441.8755    11748.599     1965.259 
  169600    302.51581   -1161.1284    6491.6441    11793.302    1988.9949 
  169700    298.99719   -1156.6554    6465.8488     11696.81    1885.3062 
  169800    305.13421   -1160.7139     6439.216    11797.226    1929.6071 
  169900     299.4132   -1159.1999    6332.9788    11570.282    1870.3843 
  170000    295.24478    -1155.631    6438.5075    11590.328    1864.5483 
  170100    299.20418    -1167.148    6364.4597     11589.35    1848.7676 
  170200    304.22656   -1165.6736    6448.6286    11782.289    1906.3396 
  170300     297.6278   -1164.3223     6397.024    11591.063    1810.5775 
  170400    301.15175   -1166.0795     6509.252    11776.818    1847.8834 
  170500    296.78832   -1161.4981    6428.1682    11607.097    1876.0176 
  170600     305.5274   -1160.0436    6490.5667    11857.647    1944.8802 
  170700    297.38735   -1160.9595     6267.665     11459.93     1809.721 
  170800    298.29182     -1165.93    6553.3642    11759.981    2031.4624 
  170900    303.15985   -1162.4401    6489.7746     11803.88     1960.697 
  171000    308.75661   -1165.3011    6228.9175    11659.728    1833.1998 
  171100     300.7945   -1166.8006    6336.3011    11595.513    1855.2901 
  171200    302.90161   -1168.4458    6579.4724    11882.055    1840.4657 
  171300    298.82111   -1164.4692    6484.5952     11703.98    1802.4831 
  171400    299.56612   -1168.4062     6361.457    11592.821    1846.4396 
  171500     301.8833   -1167.1217    6323.4032    11605.555    1867.9444 
  171600    300.01952   -1157.3867    6454.8478    11706.918    1920.5822 
  171700    299.30961   -1159.9922    6424.2889    11658.587    1919.6695 
  171800    302.96663   -1161.1278    6448.4825    11759.772    1926.9658 
  171900    297.38398   -1163.1526    6425.8251    11615.825    1935.3524 
  172000    298.86398   -1159.0692    6370.6061    11596.307    1884.7697 
  172100    300.76462   -1163.2557    6400.5578    11662.677    1870.2026 
  172200    300.35646   -1164.2993    6493.5996    11745.955    1886.4112 
  172300    296.00852   -1164.5072    6423.2503    11582.511    1875.8385 
  172400    302.87942   -1159.6511    6472.3991    11783.302    1921.2077 
  172500    299.82924   -1157.4012    6317.5537    11565.544    1820.4621 
  172600    296.30208   -1153.5964    6324.1738    11500.617    1743.0808 
  172700    298.75378   -1160.3659    6475.0183    11697.068    1891.2832 
  172800    301.79045   -1161.5461     6482.199    11767.943    1890.4444 
  172900    301.58692   -1155.3408    6344.0168    11631.618    1881.7697 
  173000    300.25517   -1162.8012    6422.5202     11674.21    1964.8633 
  173100    300.92256    -1161.996    6432.5453    11699.298    1954.8069 
  173200    300.86975    -1154.418    6452.4935    11725.696    1978.6908 
  173300    297.07084   -1168.5695    6400.1834    11578.077    1940.9734 
  173400    304.94264    -1162.457    6411.7744    11763.949    1920.6453 
  173500    299.43925   -1163.7774    6538.6361    11771.919    1929.5095 
  173600    304.08774   -1165.5572    6310.5043    11641.315    1906.2718 
  173700    300.80594   -1159.1929    6417.4524    11684.517    1971.1361 
  173800     295.9803   -1160.7382    6463.6018    11626.029     1924.662 
  173900     300.6154   -1165.0662    6465.2374    11722.358    1901.7973 
  174000    306.01053   -1166.8859    6323.8862    11694.446     1926.933 
  174100    297.33748    -1167.939    6353.7845    11538.005    1941.5378 
  174200    301.59719   -1166.5453     6510.712    11787.328    1963.9153 
  174300    301.49471   -1164.3492    6387.7797    11664.403    1880.6421 
  174400    302.97592   -1171.2604    6350.1271    11651.482    1941.7582 
  174500    300.17125    -1166.965    6419.6749    11665.408    1944.7689 
  174600     297.4337   -1167.9204    6481.6282    11667.923    1933.0637 
  174700    304.17557   -1167.3339    6462.7971    11793.707    1978.4663 
  174800    297.15754   -1166.3695     6416.771    11598.716    1851.3894 
  174900    298.45041   -1163.9356     6351.577    11563.576    1831.6677 
  175000     303.0631    -1168.916     6418.682    11724.244    1896.6536 
  175100    303.36105    -1166.276    6493.2833    11807.851    1946.2614 
  175200    302.01491   -1168.4737    6354.3667    11637.978    1856.6776 
  175300    299.33536   -1159.8025    6460.2832    11695.321    1903.3374 
  175400    299.50685     -1166.35    6418.9872    11651.141    1894.5064 
  175500    301.25729    -1160.488    6409.3213    11684.733    1905.3045 
  175600    295.90379   -1168.6317    6388.4662    11541.365    1917.8991 
  175700    305.53142    -1158.454    6442.1638     11810.92    1890.3581 
  175800    298.32856   -1155.4387    6416.6428    11634.536    1802.1809 
  175900     299.8422   -1158.7196    6443.6129    11690.562    1864.8171 
  176000     303.0507   -1160.3754    6423.0989    11736.937    1909.0942 
  176100    297.78886   -1165.3028    6381.8128    11578.312    1884.9796 
  176200    304.65001   -1162.2105     6464.419    11810.588    1897.0142 
  176300    296.57124   -1162.4405    6542.3638    11715.713    1880.1108 
  176400      298.452   -1156.7164    6411.6233    11630.876    1883.2573 
  176500    300.97994   -1165.2646     6334.639    11599.349    1881.4225 
  176600    297.45891   -1160.7512    6441.1198    11635.122    1911.5637 
  176700    307.42745   -1159.9235    6415.8988    11823.691    1908.1585 
  176800    298.09074   -1152.2761    6421.1009    11637.076    1850.4391 
  176900    302.07411   -1154.5914    6497.1497    11795.908    1874.5732 
  177000    296.52939   -1160.2973    6440.2256    11614.824    1862.7467 
  177100    301.17007   -1158.0417    6440.8595    11716.854    1845.5093 
  177200    301.06245   -1163.8257    6462.8221    11730.734    1864.3746 
  177300    295.59024   -1168.6494    6397.4243    11543.607    1838.7805 
  177400    301.33283   -1165.1178    6524.0802    11796.476    1903.8284 
  177500    295.97658   -1159.8371    6427.6247    11590.873    1826.1407 
  177600    301.00674   -1159.1975    6437.1703     11708.52    1899.8456 
  177700     298.2658   -1157.7265    6494.5149     11708.78    1950.1849 
  177800     302.0972   -1162.4567    6405.8421    11697.228    1898.2165 
  177900    301.39679   -1160.9388    6425.8707    11703.812    1880.6052 
  178000     296.2447   -1158.7847    6434.8395    11604.868    1915.4471 
  178100    300.47249   -1165.7749    6317.0394    11570.398    1845.0543 
  178200    296.96979   -1162.3794    6474.6611    11656.585    1908.9354 
  178300    304.24591   -1163.0069    6422.3683    11759.108    1850.4221 
  178400    306.45204   -1164.5956     6379.491    11761.773    1788.3219 
  178500    299.69278   -1161.3541    6498.9416    11740.064    1870.7249 
  178600    304.53819   -1164.6029    6434.3401    11775.728     1935.886 
  178700     298.5096   -1164.5917    6349.5129    11562.121    1927.7292 
  178800    296.48755   -1160.5447    6389.5515    11563.009     1944.169 
  178900    298.41291   -1156.5449    6327.7201    11546.309    1907.3414 
  179000    302.59903   -1158.1309     6503.135    11809.568    2020.2807 
  179100    298.23439   -1159.8551    6446.7428    11658.208    1954.9123 
  179200    300.86801   -1158.8674    6405.8812    11674.597    1848.6328 
  179300    297.90426   -1164.8837    6465.9391    11665.323    1868.8392 
  179400    302.60035   -1160.6178    6427.2899    11731.264    1821.1217 
  179500    299.04051   -1162.7635    6399.7724    11625.551    1873.8029 
  179600    301.25432   -1163.7235    6364.4589    11636.572    1849.6605 
  179700    297.40983   -1158.0966    6449.7209    11645.329    1901.2928 
  179800    301.47309   -1158.6213    6416.1034    11697.992    1851.5001 
  179900    300.81169   -1159.2449    6383.7328    11650.868    1878.4971 
  180000    306.40764   -1154.0275    6470.6736    11862.575     1982.925 
  180100    297.75295   -1157.8754    6447.3875    11650.547    1977.7068 
  180200    301.20144   -1164.6657    6454.1428    11724.184    1921.1941 
  180300    292.72617   -1160.0397     6403.725    11497.331    1850.7276 
  180400    302.09371   -1170.1403    6401.2266    11684.855    1889.2581 
  180500    299.49361   -1169.3478    6417.1027    11645.976    1886.5083 
  180600    295.19836   -1160.2683    6433.0216    11579.213     1888.019 
  180700    301.09054   -1162.1447    6335.8229    11606.016    1840.1553 
  180800    299.70631   -1158.9348    6440.4979    11684.328     1844.565 
  180900    298.81678   -1160.0145    6430.2965    11654.044    1890.2166 
  181000    298.57621   -1164.9418    6367.4425    11581.123    1963.5981 
  181100    300.52209   -1158.5409    6371.9035    11633.556    1938.2271 
  181200    300.15929   -1160.9466    6505.4127    11756.909    1957.0969 
  181300    302.20056   -1161.4932    6360.8284    11655.386    1824.4593 
  181400    300.04018    -1164.068    6538.0154    11783.845    1890.1041 
  181500    298.62099    -1167.309    6367.5478    11579.818    1878.8166 
  181600    299.10573   -1160.9699    6526.2881    11755.253    1918.9354 
  181700    301.50455   -1162.3714    6480.8806    11759.691     1885.864 
  181800    296.71984   -1159.5312    6403.4742    11582.907    1869.5767 
  181900     300.6178   -1162.0965    6332.4376    11592.579    1876.3462 
  182000    299.27198    -1160.586     6496.112    11729.013    1909.1158 
  182100    302.88119   -1160.0481    6476.4196    11786.963     1923.588 
  182200    300.34898   -1162.6871    6371.8532    11625.661     1857.974 
  182300    302.13571   -1161.4113    6365.2869    11658.542    1871.7067 
  182400    296.85564   -1164.8381    6431.3128     11608.34    1898.9365 
  182500    300.86664    -1164.629    6544.7689    11807.694    1903.0157 
  182600    295.77217   -1159.1446     6423.984    11583.558     1851.718 
  182700    301.27051    -1156.378    6354.5353     11634.34    1912.7993 
  182800    303.53851   -1163.4097    6410.6198    11731.845    1943.2537 
  182900    297.22596   -1158.2428    6503.3818    11694.916    1832.5871 
  183000    303.93308   -1159.8936    6509.1549    11842.325    1866.2175 
  183100    293.86979   -1159.2903    6401.5225    11520.309     1893.909 
  183200    306.95574   -1161.8947    6398.1517    11793.895    1882.0937 
  183300    303.40546    -1161.459    6409.2831    11729.616    1837.3532 
  183400    297.91995    -1160.365    6488.1528     11692.39    1902.1884 
  183500     304.3153    -1160.337    6471.7614    11812.654     1897.441 
  183600    298.95514   -1159.1389    6447.4859    11675.065    1911.8949 
  183700    296.77537   -1167.2951    6508.8032    11681.658    1990.8567 
  183800    305.63128   -1162.8991    6305.6927    11672.137     1926.568 
  183900    297.47613   -1159.7188    6335.6917    11531.094    1914.0331 
  184000    297.57136   -1163.4114    6468.5742    11662.318    1955.1348 
  184100    301.17018   -1162.4312    6463.2472    11734.855    1989.3861 
  184200    302.48956   -1157.6336    6324.1427    11628.734    1905.4218 
  184300     300.9916   -1165.3227     6376.852    11641.753    1938.6424 
  184400    295.05981   -1158.8739    6433.0623    11577.688    1948.1632 
  184500    303.29346   -1165.0434    6407.2505    11721.606    1911.0092 
  184600    296.92668   -1167.3015    6422.4518    11598.533    1940.7348 
  184700    303.02778   -1170.0476    6482.7575    11786.433    1960.4158 
  184800    301.27463   -1168.3372    6531.5075    11799.441    1888.4268 
  184900    298.90474    -1169.242    6303.5579    11519.957    1900.0085 
  185000    302.69533   -1168.2861    6308.9801    11607.315    1959.7492 
  185100    299.40392   -1160.7551    6488.4491    11723.999    1931.7779 
  185200    293.79161   -1162.6051    6494.1944    11607.996    1875.2518 
  185300    294.74899   -1164.4814    6316.7269    11449.105    1795.6256 
  185400    298.35066   -1161.7425    6441.8249    11653.886    1867.0597 
  185500    302.70957   -1165.5889    6405.2525    11706.589    1827.2742 
  185600    299.13474    -1167.111    6454.0741    11677.518     1888.265 
  185700    301.48158   -1164.2943    6377.6137    11654.011    1837.2011 
  185800    302.59312   -1165.5881    6414.8891    11713.739    1864.5686 
  185900    300.65976   -1161.4823    6381.8785    11643.531    1927.7475 
  186000    298.01304    -1159.253    6404.7937    11612.132    1965.3644 
  186100    303.83989   -1160.7308    6479.3718    11809.714    2025.5645 
  186200    301.68366   -1160.8135    6307.0581    11591.253    1838.6154 
  186300    299.85485   -1157.7542    6457.3795    11705.564    1936.2116 
  186400    298.71248   -1158.4886     6436.611    11659.656    1935.7191 
  186500    299.53654   -1164.8796    6277.0036    11511.263    1811.4329 
  186600    295.48194   -1163.4317    6460.2517    11609.338     1896.872 
  186700    303.46798   -1165.2595    6528.3039    11846.172    1939.6704 
  186800    303.06535   -1162.4865     6357.395    11669.435     1906.535 
  186900    298.85114   -1158.0602    6380.4869    11606.923    1887.5485 
  187000    300.68556   -1159.3558    6481.4412    11745.771    1935.9748 
  187100    303.21754   -1157.9746    6411.3033    11731.106    1842.8678 
  187200    302.23619   -1154.9372    6430.3493    11732.224     1824.426 
  187300    301.09736   -1161.9388    6432.2743    11702.819    1852.9413 
  187400    299.29023    -1168.784    6356.9717    11582.064    1875.6443 
  187500    303.93325   -1160.1537    6415.9653    11748.879    1858.8606 
  187600    301.95284   -1169.2234    6484.3932    11765.929    1879.7344 
  187700    299.05473   -1163.6302     6377.591    11602.806    1872.0984 
  187800    303.36921   -1160.0301    6460.2894    11781.277    1909.4392 
  187900    296.87981   -1160.8874    6378.3847    11559.879    1877.6019 
  188000    300.29069    -1157.274    6487.6037     11745.58    1993.7892 
  188100    301.22433   -1160.6928    6409.6743    11684.177    1931.2727 
  188200    296.35012   -1163.2953    6319.4183    11487.189    1848.5266 
  188300    302.25358   -1161.1462    6428.6467    11724.684    1888.6719 
  188400    301.07239   -1158.1261     6550.647    11824.471    1929.7685 
  188500    297.66378    -1161.221    6400.6338    11598.543    1849.5755 
  188600    301.49611   -1163.4597    6366.5437    11644.086    1834.6318 
  188700    300.02368   -1166.6545    6370.7774    11613.669    1921.8696 
  188800    300.55382   -1157.2629    6524.5991    11788.207    1907.2869 
  188900    303.78993    -1160.223    6445.5435    11775.326     1871.868 
  189000    294.89445   -1161.4917    6401.0689    11539.545    1871.7552 
  189100    296.47891   -1160.5812    6356.9559    11530.192    1835.8973 
  189200    303.05668   -1158.1404    6430.8879    11747.088    1873.2936 
  189300    296.80178   -1160.5075    6568.4864    11748.693    1920.5995 
  189400     302.8649   -1163.3343    6515.1393    11822.049    1907.3155 
  189500    294.26196   -1162.5746    6291.1699    11415.051    1871.1704 
  189600    302.19084   -1158.5178    6373.9936    11671.319    1973.0556 
  189700    299.25449   -1164.8003    6416.7964    11645.109    1921.8513 
  189800    298.17257   -1159.0089    6414.1432    11625.134     1847.456 
  189900    305.28238   -1156.0651    6464.4121    11830.237    1909.2945 
  190000    297.23269    -1153.829    6435.7126    11631.804    1897.3456 
  190100    302.37693   -1157.2911    6408.2682    11710.796    1921.4942 
  190200    300.13769   -1169.6843    6448.8955    11691.192    1954.7802 
  190300    301.48918   -1163.4297    6418.5218    11695.946    1888.4476 
  190400    299.46643    -1165.248    6448.5857    11680.979    1946.9214 
  190500    296.81235   -1169.1927     6440.051    11611.799    1963.2129 
  190600    301.50137   -1163.3092    6425.4769    11703.282    1914.1041 
  190700    301.14314   -1160.4051    6424.0041     11697.06    1893.9961 
  190800    299.24241    -1163.048    6431.3118    11661.119    1868.2187 
  190900    299.79346    -1162.772    6395.3643     11637.22    1850.5852 
  191000    306.36339    -1161.511    6449.3403    11832.813    1881.9891 
  191100    299.10711   -1160.7864    6348.6788    11577.857    1809.7696 
  191200    292.29793   -1166.9777    6480.9195    11558.439    1875.0805 
  191300    300.21158   -1163.1223    6324.2324     11574.67    1806.1464 
  191400    297.64639   -1161.2309    6469.4017    11666.929    1841.8349 
  191500    300.96983   -1159.9069    6533.3745    11803.226    1937.1549 
  191600    298.26447   -1165.3669    6305.4987    11512.095    1896.0619 
  191700    304.02171    -1161.541    6377.2422    11710.658    1914.5362 
  191800    299.64611   -1163.8563     6468.213    11705.836    1925.6041 
  191900    297.44204   -1157.9015     6433.742    11630.233    1890.8197 
  192000     302.1376   -1158.0602    6449.3643     11746.01    1996.4427 
  192100    300.02194   -1162.5436    6363.5123    11610.477    1976.1138 
  192200    300.65919    -1160.721    6315.6692    11578.071     1872.505 
  192300    297.15381   -1156.8196    6503.6958    11695.111    1897.1757 
  192400    304.68148   -1161.0349    6424.4077    11772.425    1886.1512 
  192500    297.26792   -1159.7482    6399.6883    11590.613    1926.1486 
  192600    301.27527   -1154.6386    6408.1593    11689.805    1918.4985 
  192700    306.29055   -1160.5745    6383.0261    11765.879    1937.5232 
  192800      298.493    -1164.058    6356.6098    11569.397    1935.4449 
  192900     295.7196   -1162.1436    6426.6777     11582.13    1905.3788 
  193000    297.26703   -1162.0592    6478.5435    11667.138     1914.783 
  193100    299.59159    -1159.651    6440.1671    11680.831    1847.0586 
  193200    301.99485   -1163.6378    6467.4066    11755.425    1843.4125 
  193300    301.78055   -1160.9825    6406.1607    11692.257    1864.6698 
  193400    304.61471   -1161.1365    6497.1025    11843.592    1873.3654 
  193500    300.25587   -1161.7298    6454.0001    11706.776    1841.5424 
  193600     299.4246   -1167.4037    6323.8637    11553.207    1812.1486 
  193700     300.7091   -1164.1475    6384.7523    11644.793    1862.5571 
  193800      298.749   -1165.0699    6534.7594    11752.003    1856.9052 
  193900    301.62946    -1163.765     6407.585    11687.671    1818.6922 
  194000    297.66911   -1160.1411     6395.139    11594.242    1853.3536 
  194100    299.84876   -1163.6579     6416.909     11659.06    1876.0385 
  194200    301.32191   -1169.0536    6355.7785    11624.005    1832.9984 
  194300    296.62156   -1158.7066    6409.6228    11587.781    1867.0208 
  194400    303.58464    -1165.265    6503.8764    11824.231     1955.884 
  194500     299.2136   -1163.5173    6468.6989    11697.421    1861.0821 
  194600    301.88045   -1167.2573    6283.9095    11565.865    1840.2354 
  194700    299.21492   -1165.4408    6469.9506    11696.777    1924.9229 
  194800    299.77844   -1163.4026       6396.9    11637.804    1908.7879 
  194900    299.61363    -1158.958     6436.935    11678.763    1950.7633 
  195000    302.56866   -1159.5334    6414.8085     11719.19    1895.6044 
  195100     296.2041   -1157.8226    6383.5302    11553.654    1883.0739 
  195200    300.58681   -1162.2659    6338.8377    11598.148    1871.9754 
  195300    300.27992   -1162.8994    6482.0981    11734.219    1915.3407 
  195400    300.60439   -1165.9463    6431.2185    11687.224    1831.7345 
  195500    297.86828   -1163.2961    6379.4151    11579.618     1869.538 
  195600    300.69598   -1157.4382    6508.4059    11774.876    1884.7015 
  195700    296.88484   -1159.5284    6453.2126    11636.173    1821.7683 
  195800    300.52134    -1163.966     6493.565    11749.776    1920.9408 
  195900    298.86574   -1163.3794    6337.7708    11559.199    1848.3857 
  196000    299.50599   -1158.5101    6435.7565    11675.732     1872.803 
  196100    301.65626   -1160.9761    6495.5636    11779.011    1927.1934 
  196200     304.6001   -1161.7852    6541.1476    11886.676    1989.0219 
  196300    307.34446   -1160.2269    6459.8409    11865.557    1893.4271 
  196400    294.55036   -1162.4996    6392.3092    11522.426    1822.3019 
  196500    299.39499   -1165.2597    6365.7352     11596.59    1868.2617 
  196600     293.3262   -1166.7551    6280.9912      11380.7    1816.9257 
  196700    299.82206   -1161.5323    6412.5665    11656.273    1860.7075 
  196800     298.7825   -1160.0769    6466.5092    11689.462    1944.9443 
  196900    302.60676   -1160.8782    6296.3496    11600.201    1890.7992 
  197000    299.83594   -1168.4174    6506.8188    11743.936    1932.7251 
  197100    294.08237   -1165.5304    6499.7712    11616.859    1891.9269 
  197200    298.30221   -1165.6296    6353.2992    11560.439    1881.8742 
  197300    298.49421   -1162.4821    6433.9403    11648.329    1860.4365 
  197400    300.23859   -1165.7469    6288.1403     11536.53    1767.1673 
  197500    302.62874    -1166.224    6500.3156     11799.29    1872.8509 
  197600    304.72461   -1159.0125    6352.6477    11703.609    1872.9703 
  197700    300.75251    -1163.473    6405.7811    11667.424    1871.1128 
  197800    302.15939   -1161.1606    6504.6827    11798.694    1907.8505 
  197900     300.9545   -1166.3509    6412.9174    11675.997    1838.0444 
  198000    299.59083   -1160.8797     6369.622    11609.041    1887.7214 
  198100    295.99177   -1160.5297    6461.6345    11624.515    1907.3438 
  198200    301.42537   -1151.4483    6420.7355    11708.778     1847.023 
  198300    299.12438   -1161.8553    6424.4383    11652.916    1927.8213 
  198400     300.0049   -1163.8429    6416.4026    11661.704    1917.1378 
  198500    294.30617   -1160.8361    6356.9396    11483.503    1873.8937 
  198600    304.77359   -1160.1714    6496.0999    11846.949    1963.2765 
  198700    292.24759   -1162.1805    6411.8645    11493.105    1881.0784 
  198800    300.18784   -1160.0691    6392.2515    11645.235    1872.5319 
  198900    299.51956   -1159.4237     6336.112    11575.464    1936.2076 
  199000    300.68053   -1160.4411    6494.5051    11757.642     1953.962 
  199100    300.46044    -1162.891    6552.1829    11808.168    1922.2366 
  199200    302.82609   -1166.8418     6381.987     11684.56    1856.7801 
  199300    302.14769   -1159.8641    6450.8299    11745.888    1929.4137 
  199400     298.5186   -1163.5264    6390.0234    11603.889    1880.9659 
  199500    297.09797   -1166.0991    6349.4113    11530.354     1801.043 
  199600    296.81566   -1165.9053     6464.741    11639.847    1936.0253 
  199700    303.41984   -1162.4718    6481.1416    11800.769    1921.6947 
  199800     299.2027   -1168.7948     6424.114    11647.326    1876.5579 
  199900    299.41682    -1167.666     6387.421    11616.336     1900.823 
  200000    300.09968   -1159.5331    6302.8455    11554.482    1860.4461 
  200100    298.71077   -1160.7476    6485.5896    11706.339    1928.8547 
  200200    296.81886   -1163.1794    6451.9933    11629.893    1901.9239 
  200300    303.10363   -1163.4511    6448.9634    11760.856    1959.2443 
  200400    300.35578   -1168.0373     6415.521    11664.124    1899.7909 
  200500    299.63733   -1165.3491    6452.2307    11688.173    1921.9014 
  200600    301.50482   -1166.7258    6404.1487    11678.611    1906.2232 
  200700    301.09778   -1167.2033    6380.1302    11645.419    1934.6587 
  200800     297.0787   -1164.6885    6460.7844    11642.726    1914.9079 
  200900     300.4037   -1167.0532    6366.5665    11617.177    1917.8955 
  201000    299.66031   -1158.2552    6434.3171    11677.845    2010.2284 
  201100    300.64648   -1159.4318    6430.9286    11694.347    1981.7892 
  201200    299.55177   -1163.4338    6451.8117    11687.842    1907.8159 
  201300    300.21294   -1165.3405     6435.327    11683.575    1963.3146 
  201400    299.66897   -1159.2598    6371.4173    11614.125    1953.6357 
  201500     299.5254   -1163.1878    6545.1852    11780.898    1966.0227 
  201600    301.52398    -1167.218    6505.4182    11779.797    1899.2631 
  201700    300.24388    -1158.045      6388.02    11644.225    1911.2424 
  201800    299.41394   -1159.8985    6405.0646    11641.686     1963.356 
  201900    303.74694   -1159.9404     6426.604    11755.751      1948.52 
  202000    299.23171   -1160.0182    6471.3245    11703.933    1921.5864 
  202100    298.35669   -1159.1237    6420.0608     11634.87    1889.5002 
  202200    302.58575   -1161.5062    6374.1965    11676.971    1895.9764 
  202300    300.95345   -1165.6649    6452.8545    11716.598    1911.4732 
  202400    298.51646   -1163.6946    6391.7569    11605.408    1908.9398 
  202500    300.67793   -1164.7942    6538.5246    11797.253    1997.5606 
  202600    301.91312   -1167.5062    6383.6749    11666.079    1937.7333 
  202700    295.67679   -1158.9901    6425.9493     11583.64     1994.489 
  202800    301.07839   -1164.3953    6389.0734    11656.756    1901.9317 
  202900     299.3699   -1157.7926    6429.9993    11667.785    1939.1622 
  203000    303.97523   -1169.7374    6296.1404    11620.367     1952.071 
  203100    299.49068   -1171.2412    6413.7008    11640.618      1999.49 
  203200    299.70749   -1172.3662    6454.9415    11685.366    1883.5684 
  203300    300.97179   -1166.8963    6442.2253     11705.13    1901.8392 
  203400      299.564    -1171.366    6426.9381    11655.297    1872.4397 
  203500    300.98966   -1167.9048     6445.099    11707.377    1896.5809 
  203600     302.1741   -1168.3163    6443.6109    11730.781    1949.9076 
  203700    300.18332   -1163.1685    6430.2235    11680.011    1880.3071 
  203800    304.71905   -1166.8362    6443.2626    11786.281    1882.5757 
  203900    298.98912   -1166.2779    6488.4448    11709.611    1963.0089 
  204000      299.745   -1158.1852    6333.1827     11578.59    1910.5712 
  204100    300.61877   -1166.2067    6378.5377     11634.59     1894.204 
  204200    297.52328   -1167.2787    6525.2157    11714.065    1989.4294 
  204300    297.69681    -1168.009     6411.568    11603.395    1895.7424 
  204400    302.35588   -1162.0737    6352.8058    11650.102    1866.2516 
  204500    298.34141   -1151.8885    6497.5994    11719.317    1920.3022 
  204600    297.16365   -1164.6369    6425.1644    11608.973    1850.4965 
  204700    294.32764    -1158.891    6400.2703    11529.238    1794.2972 
  204800    299.47054   -1159.6532     6421.756    11659.832    1882.9347 
  204900    299.62684   -1162.2533    6298.8777    11537.692    1885.9958 
  205000    300.53191   -1162.9774     6403.117    11660.543     1929.701 
  205100    299.04308   -1162.9407    6437.7716    11663.428     1906.873 
  205200    301.62216   -1161.3463    6462.3278    11744.676    1935.5588 
  205300    295.25383   -1165.3586    6430.8988    11573.185    1879.0274 
  205400    300.07237   -1162.5892    6373.0437     11621.04    1885.8549 
  205500    295.74297   -1159.4585    6438.7279    11597.364    1795.3013 
  205600    305.41289   -1157.1738    6549.1614    11916.665      1881.91 
  205700    294.74341    -1161.973    6413.1972    11547.965    1885.7081 
  205800    300.78138   -1157.9427    6359.2368    11627.027     1928.514 
  205900     301.9254   -1161.4555    6497.3471    11786.064    1994.5029 
  206000    298.05275   -1161.4263    6410.5687    11616.582    1944.0157 
  206100    302.61556   -1152.1629    6507.6796    11820.434    1943.3257 
  206200    297.76571   -1165.8772    6384.6475    11580.078    1905.2739 
  206300    301.85522    -1168.964    6350.1982    11629.908    1864.2216 
  206400     299.0736   -1169.5242    6411.4259     11631.15    1895.1608 
  206500    304.06915   -1167.2016    6473.7495    11802.519    1900.7768 
  206600    297.25229   -1167.6898    6477.2296    11659.879    1863.7253 
  206700    302.05565   -1167.2194    6444.8918    11730.628    1979.7049 
  206800    299.45625   -1163.0824      6320.89    11555.231    1927.7409 
  206900    299.16193   -1162.8116    6364.4174    11592.741    1939.1801 
  207000    300.19366   -1165.5888    6463.2372    11710.825    1984.5992 
  207100    303.80224   -1159.0218    6555.3569    11886.604    1980.8888 
  207200    297.88334   -1163.3158    6434.7359    11635.241    1932.8893 
  207300    302.21598   -1167.2932     6317.229    11606.316    1941.4008 
  207400    297.55283   -1165.5131     6432.942    11624.188    1967.2849 
  207500    303.89581   -1166.3595    6451.6884    11777.597    1923.7546 
  207600    297.07423   -1166.2783    6463.4945    11643.751    1886.3372 
  207700      301.175   -1168.0143    6518.8241    11784.951    1983.9534 
  207800    300.90939   -1162.6726    6464.3433    11730.138    1983.9033 
  207900    302.74677   -1154.9106    6311.3711    11624.181    1882.5544 
  208000    300.86091   -1158.0622    6346.3983    11615.768    1969.3721 
  208100    298.34628   -1156.3455    6449.9362    11667.301     1919.334 
  208200    298.48476    -1155.578    6446.4758    11667.567     1820.135 
  208300    298.68267   -1159.4898    6438.1449    11659.552    1828.1886 
  208400    293.01316   -1160.7615    6511.9669    11610.982    1886.9082 
  208500     296.6213   -1164.2314    6384.9416    11557.569    1900.3738 
  208600    301.80308   -1162.5695    6321.8644    11606.855    1941.3066 
  208700    296.99955   -1157.2249    6530.5052     11718.22    2004.5675 
  208800    303.70563   -1156.6212    6505.5254    11837.109    1949.2419 
  208900    299.55007   -1157.4131    6370.9907    11613.005    1947.0564 
  209000    297.90143   -1159.3598    6408.0398    11612.887    1960.8067 
  209100    307.71426   -1156.0495    6426.5711    11844.365    1922.4214 
  209200    297.45813   -1163.3884    6433.2841    11624.632     1875.197 
  209300    301.91806   -1161.2682    6425.8454    11714.593    1961.1079 
  209400    300.90008   -1161.0303    6450.6384    11717.877     1925.989 
  209500    301.56341   -1163.7293    6462.6406    11741.351    1906.0963 
  209600    299.47399   -1163.2858     6350.631    11585.148     1918.715 
  209700    299.17237   -1166.4729    6332.2417    11557.128    1913.0973 
  209800    300.69788   -1161.4461    6478.9725    11741.475    1910.3847 
  209900    298.64394   -1165.1847    6473.0738    11687.959    1953.9499 
  210000    301.75067    -1163.669    6433.5777    11716.349    1926.4344 
  210100     295.5268   -1163.1639    6413.5633    11563.876    1919.7426 
  210200    298.52617   -1163.1429    6419.2622    11633.673    1956.3141 
  210300    303.71346   -1164.9331    6456.6108     11780.05    1989.3594 
  210400    301.61051   -1167.9638    6438.9706    11714.453    1936.5606 
  210500    300.50679   -1164.1059    6429.7562    11685.517    1912.2496 
  210600     295.6824   -1166.8545    6407.1412    11557.088    1919.7168 
  210700    299.44887   -1166.1923    6405.3359    11636.409     1869.924 
  210800    302.21259   -1156.0806    6458.9094    11759.137    1955.1118 
  210900    300.67766    -1168.408    6340.8511     11595.96    1964.3101 
  211000    292.60876    -1154.086     6469.085    11566.136      1950.08 
  211100    301.49559   -1158.5066    6483.7134    11766.197    1999.4984 
  211200    299.08397   -1166.5068    6334.9115    11557.875    1919.9013 
  211300    292.84165   -1167.6314    6525.1619    11613.643    1986.9285 
  211400    299.82904   -1168.0803    6435.1555    11672.463    1932.5961 
  211500    305.34214   -1167.4897    6399.4554    11755.132    1934.9775 
  211600    294.52128   -1159.6235    6422.7927    11555.165    1920.2778 
  211700    297.14487    -1164.097     6350.279    11534.226     1881.711 
  211800    299.42521   -1161.5722     6439.117    11674.305    1937.6924 
  211900    300.33807   -1161.8577    6476.5745    11730.979    1903.1025 
  212000    298.46271   -1161.0458    6424.9515    11640.104    1937.3897 
  212100    302.23218   -1164.0477    6376.6352    11669.314    1899.4538 
  212200    298.75445   -1158.6008    6467.5152    11691.345    1953.3163 
  212300    302.90293   -1164.4801    6390.8012    11697.377    1878.3895 
  212400    299.25951   -1163.9279    6440.9744    11670.267    1873.1214 
  212500    299.41352   -1163.6893    6419.6145    11652.436    1882.7683 
  212600     296.7841    -1158.438    6498.0562    11679.955    1927.1861 
  212700    297.26843   -1158.8592    6379.5965    11571.421    1891.6696 
  212800    305.13537   -1162.5758    6321.2869     11677.46     1908.747 
  212900    297.16157   -1154.5324    6502.0443    11695.913    1965.6013 
  213000    298.10913   -1154.2122    6399.4004    11613.832    1847.5783 
  213100    302.33412   -1159.7069    6356.2572    11655.455    1874.4884 
  213200    297.16156   -1163.2755    6446.6785    11631.804    1870.8756 
  213300    303.79375     -1157.64    6448.9782    11781.426    1879.3194 
  213400    300.04061   -1164.4781    6322.3995    11567.829    1849.7506 
  213500    300.11608   -1165.2916    6467.0602    11713.288    1925.1476 
  213600    296.46043   -1157.2307    6435.8729    11612.064    1904.6711 
  213700    305.66251   -1161.1275    6324.3652    11693.248     1943.878 
  213800    300.04955   -1157.5348    6499.4847    11752.048    1953.0465 
  213900    299.36926   -1160.9516    6383.5588    11618.172    1889.3177 
  214000    297.47712   -1160.1579    6346.0155        11541    1905.5249 
  214100    301.29338   -1160.5301    6492.7356    11768.876    1982.2887 
  214200    301.18281   -1158.5323    6451.8083    11727.585    1906.6954 
  214300    299.15499   -1162.0772    6375.4677    11604.378    1804.7775 
  214400     301.5098    -1159.013    6429.3302    11711.611    1893.9213 
  214500    300.08179   -1168.6715    6474.8185    11716.934    1907.4954 
  214600    296.48918   -1165.9418    6449.5908    11617.686    1863.3457 
  214700    298.55126   -1158.9992    6414.2261    11633.316    1871.4913 
  214800    298.22714   -1159.9741    6411.6145    11622.806    1889.4742 
  214900    301.43111   -1159.5231    6531.0031    11811.093    1934.8491 
  215000     298.2778   -1159.5852    6427.5792    11640.242    1898.0264 
  215100    298.73709   -1158.1346    6396.4339    11620.359    1971.2777 
  215200    302.02285   -1159.8112     6329.234    11621.678    1858.4705 
  215300    297.26425   -1167.1805    6471.8098    11655.224    1909.8778 
  215400    304.93313   -1165.9716    6356.1963    11704.653    1881.3672 
  215500    300.60295    -1169.657    6474.3468    11726.611    1861.4058 
  215600    298.12354   -1164.6542    6434.2038    11638.502     1868.945 
  215700     298.9135   -1163.0228    6399.9758    11622.781    1878.6391 
  215800     302.1861   -1160.9215    6531.2615    11826.082    1911.9856 
  215900    297.23163   -1154.9659    6363.7814    11558.713    1778.1912 
  216000    302.28821   -1152.8415    6319.7112    11624.794    1858.9619 
  216100     299.9006   -1155.3549    6495.7746    11747.336    1965.9446 
  216200    298.95717   -1157.1712    6333.1966    11562.787    1861.1619 
  216300     297.2934   -1162.8342    6407.1203    11595.504    1881.6691 
  216400    300.55355   -1169.0968    6493.8082    11745.577    1892.5643 
  216500    299.81684    -1164.315    6473.6768    11714.489     1858.763 
  216600    301.16578   -1159.4437    6457.6758    11732.177    1924.7131 
  216700    304.07136   -1160.2718    6452.5188    11788.265    1943.0468 
  216800    298.24525   -1154.4439    6389.5424    11606.651    1848.6096 
  216900    300.67312   -1157.2559     6435.094    11701.258    1862.3855 
  217000    302.09884   -1159.3281     6447.968    11742.518    1918.7027 
  217100    297.16694   -1149.4563    6309.3038    11508.363    1833.2594 
  217200    302.52283   -1153.1687    6500.6557    11810.423    1869.3411 
  217300    300.32209   -1155.7216    6608.8519    11869.051    1967.0911 
  217400    302.85268   -1158.5918    6298.6986    11610.089    1870.0532 
  217500    299.68977     -1162.49    6325.6979     11565.62    1853.8989 
  217600    306.20337   -1160.2699    6376.9561    11758.251    1849.9953 
  217700    298.05435   -1161.1515    6492.0316    11698.354     1851.569 
  217800    305.42226   -1161.0774    6552.0085    11915.809    1858.2974 
  217900    300.07116   -1162.1001    6441.0413    11689.501    1849.8467 
  218000    301.68331    -1160.196    6436.9927    11721.798    1993.4572 
  218100    298.62179   -1159.9692    6385.8835    11605.511    1924.9425 
  218200    298.93482   -1154.4728    6435.3522    11667.163    1890.8315 
  218300    298.63993   -1161.0646    6445.6268    11664.546    1932.1255 
  218400    300.80276   -1160.0086    6367.8435    11634.024    1910.3461 
  218500    305.18753   -1163.8159    6348.1179    11704.165    1859.3735 
  218600    295.97098   -1166.2377    6466.2305    11622.959    1945.8937 
  218700    301.09926   -1163.1084     6384.562    11653.977    1906.0145 
  218800    301.45059   -1162.0189    6458.3838    11736.394    1900.8812 
  218900    298.08927   -1161.6342    6557.0332    11763.619    1925.1234 
  219000    300.43419   -1162.3683    6432.8832     11688.83    2004.9197 
  219100    301.41615   -1166.5108    6283.7154    11556.498    1891.5862 
  219200    296.51923   -1162.4966    6457.9386     11630.12    1921.8226 
  219300    303.67222   -1166.5839    6481.7645    11802.672    1934.5478 
  219400    294.93416   -1161.2153    6452.2987    11591.899    1913.2111 
  219500    299.26154   -1161.7459    6291.8568    11523.374    1890.3787 
  219600     303.7947   -1161.9237    6447.7686    11775.953    2014.7416 
  219700    293.30057   -1161.6305    6447.9339     11552.22    1942.3181 
  219800    302.48526    -1161.681    6464.4887    11764.941    1894.8452 
  219900     296.6807    -1168.463      6376.16    11545.825    1835.8279 
  220000    294.96481   -1162.2116    6413.8609     11553.12    1888.4638 
  220100    298.93032   -1159.9061    6442.6226    11668.904    1933.3164 
  220200    302.87504   -1160.0322    6477.4356    11787.864    1921.9581 
  220300    297.68677   -1160.3352    6312.6752    11511.961    1908.8395 
  220400    300.69245   -1157.4979    6495.8634    11762.198    1950.3918 
  220500    301.54758   -1160.2018    6516.1399    11798.039    1938.2377 
  220600    298.06294    -1155.592    6428.1009    11640.166     1954.656 
  220700    300.49334   -1161.0599     6419.178    11677.697    1910.0883 
  220800    294.42397   -1161.6044    6313.3232    11441.635    1800.7209 
  220900    304.18467   -1163.8005    6496.0665    11830.705    1905.0615 
  221000    299.33711   -1162.6498    6523.3958    11755.624     1891.003 
  221100    299.82365   -1157.4664    6318.3406    11566.146    1817.1032 
  221200      302.352   -1160.0238    6315.6461    11614.909    1907.9682 
  221300    296.89903   -1160.0011    6511.9079    11694.699     1928.396 
  221400    298.42582   -1156.9703    6372.2685    11590.708    1808.6732 
  221500     299.2837   -1156.4143    6372.6767    11609.999    1848.1431 
  221600    301.17262   -1160.1103    6553.0088    11826.989    1944.7646 
  221700    302.71421   -1159.5779    6391.1224    11698.569     1885.977 
  221800    299.19486   -1162.1741    6338.7245     11568.39    1887.1152 
  221900     297.8986   -1162.4419    6444.5478    11646.252    1904.3442 
  222000    297.17463   -1153.5938    6455.5317    11650.618    1857.5599 
  222100    298.43342   -1160.7747    6399.6673    11614.465    1867.9659 
  222200    300.21358   -1166.5304    6405.2489    11652.321    1911.6647 
  222300    299.68325   -1164.6574    6465.1435    11702.759    1968.6884 
  222400    302.59408   -1165.7408    6470.2789    11768.996    1934.7791 
  222500    300.87791   -1161.7779    6464.1139    11730.131    1894.2687 
  222600    301.49147   -1156.7307    6408.5948    11692.767    1868.9628 
  222700    296.20866   -1166.0926    6447.5655    11609.517     1924.429 
  222800    301.31254   -1158.8921    6460.2411    11738.429    1910.8217 
  222900    303.36964   -1159.7627    6427.9344    11749.198    1906.7262 
  223000    299.32595   -1163.7914    6357.1123     11587.96    1921.5527 
  223100    301.69231   -1166.2603    6445.0757    11724.009    1910.5203 
  223200    296.85692   -1155.7029    6394.4091    11580.599    1873.4484 
  223300    299.22833   -1157.8529    6416.4556    11651.157     1870.689 
  223400    299.40077   -1166.8797    6382.5478    11611.906    1840.1216 
  223500    302.33752    -1163.921     6471.633    11766.689    1874.4954 
  223600    292.97209   -1161.3772    6497.8917    11595.414    1888.6069 
  223700     297.1071   -1161.5115    6359.2379    11544.964    1860.8482 
  223800    299.92839   -1167.4511    6300.1177    11540.176      1870.92 
  223900    298.57123   -1157.2503    6444.0135    11665.279     1890.877 
  224000    302.04656   -1158.9948    6566.9195    11860.686    1929.3505 
  224100    297.89662   -1161.2919    6472.7579     11675.57    1886.0222 
  224200    301.08908   -1156.5171    6351.6987    11627.488    1823.8181 
  224300    294.60103   -1162.1752     6449.293    11580.817    1887.7018 
  224400    304.91451   -1161.8988    6340.3458    11692.478    1850.3549 
  224500    302.12111   -1160.4003    6448.9325    11742.886    1924.9402 
  224600    299.01196   -1158.9556    6429.6633    11658.639    1936.9431 
  224700    302.04496   -1155.8137    6488.8891    11785.802    1896.4864 
  224800    303.13372   -1160.9244    6387.4179     11702.48    1856.3737 
  224900    299.57437   -1157.4491    6399.7142    11642.212    1861.2268 
  225000    301.45868   -1157.2823    6416.4775    11699.397    1905.0724 
  225100    304.96088    -1162.946    6388.4094    11740.485    1906.1841 
  225200    300.50011   -1158.7412     6440.997     11701.98    1906.6632 
  225300    296.96316   -1155.4431    6433.1675    11621.887    1889.3409 
  225400    297.07227   -1156.5559     6406.893     11596.83    1891.3676 
  225500    301.58856   -1159.2964    6423.5466    11707.227     1900.969 
  225600    295.85212    -1168.461    6383.4878    11535.453    1874.2558 
  225700     301.2026   -1157.9854    6383.2391    11659.985    1851.1173 
  225800    304.12097   -1162.3969    6383.3366    11718.017    1842.4489 
  225900     299.1213   -1151.8376    6546.7818    11785.212    1923.3321 
  226000    300.06412   -1156.2772    6370.3246    11624.457     1898.372 
  226100    300.57465   -1157.4836    6361.3841    11625.217    1857.4628 
  226200    299.20659   -1158.7911    6432.7204    11666.019    1894.7972 
  226300    301.23656    -1151.749    6364.1757    11647.883    1832.6533 
  226400    295.74686   -1156.5141    6583.5057    11745.169    1930.2581 
  226500    296.99881   -1165.9534     6395.596    11574.567    1821.6255 
  226600    301.06479   -1162.6551    6422.2788    11691.411    1861.7311 
  226700    300.18911   -1162.4874    6426.6037    11677.196    1904.7092 
  226800     308.3826   -1159.7162    6355.0935    11783.498    1894.6446 
  226900    299.07935   -1158.6452    6441.9066    11672.633     1898.462 
  227000    302.18344   -1162.3423    6512.1113    11805.454    1952.2379 
  227100    300.68183   -1163.4763    6418.6553    11678.785    1838.2211 
  227200     296.6488   -1164.3433    6432.2622    11605.365    1897.1237 
  227300    302.65319   -1162.9282    6368.0284    11670.821    1913.0324 
  227400    297.31737   -1162.8341    6348.1979    11537.093    1834.7778 
  227500    295.84941   -1162.7025    6502.2998    11659.966    1905.2251 
  227600    304.17867   -1157.2243    6526.9692    11868.056    1937.1274 
  227700    294.84953   -1157.8367    6395.4909    11536.662    1864.4568 
  227800    304.14928   -1162.8329    6393.1718    11728.022    1920.4037 
  227900    303.28785   -1159.0138    6402.5822    11722.848    1972.7848 
  228000    300.45483   -1157.1137    6399.7491    11661.392    1962.7398 
  228100    304.81308    -1164.476    6364.9184    11712.306    1871.8739 
  228200    300.81767   -1161.7372    6541.6374    11806.408    1920.2415 
  228300    295.61255   -1157.8346    6398.6559     11556.13    1928.4142 
  228400    305.09383   -1159.7477    6473.6224    11831.736    1926.0261 
  228500    297.68364   -1162.3565    6364.1454    11561.343    1921.0248 
  228600    296.77719   -1163.4587     6487.131    11663.861    1986.4682 
  228700    296.28513   -1158.5232    6422.8686    11594.023    1869.5305 
  228800    307.56509   -1161.4476    6319.7688    11728.977    1860.8175 
  228900     300.7735     -1160.39    6413.8918    11679.066    1916.8773 
  229000    302.08389   -1165.6581    6481.4966    11769.397    1932.4373 
  229100    297.89704   -1159.4255    6378.6241    11583.312    1874.0393 
  229200     296.4103   -1153.0255    6467.1426    11646.468    1960.0284 
  229300    296.08827   -1159.3639    6412.5509    11578.659    1942.0071 
  229400    295.70024   -1162.5309    6338.1075    11492.758    1880.2796 
  229500     299.0307   -1159.4355    6432.8917    11661.788    1882.0831 
  229600    299.18182   -1158.7191    6517.1808    11750.022    1891.3846 
  229700    303.81564   -1160.1839    6474.2991     11804.67    1948.1998 
  229800    299.16352   -1161.2266    6311.1246    11541.067    1904.4844 
  229900    302.21693    -1159.283    6388.7419     11685.86    1971.7507 
  230000    299.02005   -1167.3719    6520.3168     11741.05     1916.842 
  230100    303.50048   -1160.9995    6442.7004    11765.523    1914.4945 
  230200    300.41626   -1162.1528    6306.4912    11562.271    1937.3142 
  230300     298.3379   -1157.9357    6449.9196    11665.516    1944.7481 
  230400    297.05638   -1165.6534    6456.0898     11636.59    1885.9244 
  230500    302.15447   -1163.5528    6530.1434    11821.657    1933.2796 
  230600    297.57973    -1154.932    6405.5816    11607.984    1912.7063 
  230700    304.50183   -1158.2143    6291.4085    11638.409    1875.9969 
  230800    299.73537   -1157.0705    6445.0081    11691.324    1886.2046 
  230900    300.82717   -1161.5336    6528.7875    11793.965    1908.0523 
  231000    302.53311   -1161.5041    6416.7415    11718.393     1854.751 
  231100    302.57561   -1166.0034    6421.2433    11719.304    1928.8289 
  231200    299.67503    -1163.496    6459.5993    11698.201    1960.9638 
  231300    298.55826   -1162.4106    6393.4544    11609.283      1848.25 
  231400    304.73191   -1156.5765    6326.6749    11680.228    1864.2896 
  231500    302.26774   -1158.6552    6369.0785     11667.91    1890.5534 
  231600    299.81377   -1159.8127    6485.7256    11730.974    1982.8672 
  231700    302.97317   -1158.2049    6347.3417    11661.694    1912.5593 
  231800    301.22554    -1161.131    6407.2636    11681.354    1894.4937 
  231900    296.52426   -1155.3641    6516.2069    11695.629    1907.0679 
  232000    303.82604   -1160.5383    6385.7718    11716.011    1844.6246 
  232100    302.15432   -1158.8989    6378.5804    11674.745    1861.5302 
  232200    296.11248   -1162.4473    6360.6886     11524.23    1882.6056 
  232300    304.31165    -1156.417    6500.6714    11845.406    1885.3211 
  232400    295.90034    -1159.887    6489.3385    11650.908    1908.0186 
  232500      303.047   -1159.9237    6374.4654    11688.676    1998.2163 
  232600    298.95351   -1152.2147    6357.8419     11592.31    1892.0464 
  232700    302.92046   -1146.3926    6443.9239    11768.962    1888.5735 
  232800    297.45708   -1153.1825    6457.9117    11659.443    1938.7639 
  232900    300.23114   -1157.1192    6416.0777    11672.936     1909.104 
  233000    305.74128   -1163.4845    6411.9107     11780.12    1846.7729 
  233100    298.46443   -1167.0331    6390.8452    11600.047    1878.8414 
  233200    302.46294   -1167.2203    6388.4587    11682.895    1900.7019 
  233300     293.6311   -1165.1722    6386.4546     11494.26    1873.7109 
  233400    294.33502   -1161.2675    6448.6245    11575.373    1883.7752 
  233500    300.82439   -1159.3766    6438.4596    11705.734    1959.8182 
  233600    301.05571   -1153.3514    6384.8546    11663.097    1961.7133 
  233700    297.67143   -1158.2605    6343.5886    11544.621    1849.6894 
  233800     297.3609   -1158.4738    6452.7794    11646.965    1925.1669 
  233900    300.37833    -1165.417     6391.012    11642.717    1878.4114 
  234000     301.4744   -1163.7854    6427.7574     11704.51    1943.9569 
  234100     296.8996   -1168.5618     6352.806    11527.049     1921.107 
  234200    295.64592   -1163.3369    6405.8168    11558.501    1898.6625 
  234300    298.83386   -1166.6463    6349.9199      11567.4    1911.7452 
  234400    297.48611   -1163.8367     6455.314    11646.812    1949.1422 
  234500    305.66714   -1158.8769    6371.2239    11742.457    1916.2801 
  234600    297.20058   -1159.6677    6384.4103    11573.977    1931.4796 
  234700    300.91129   -1160.4415    6450.5851    11718.652     1958.247 
  234800    297.79355   -1163.9294    6461.1843    11659.157     1929.833 
  234900    302.56015   -1161.3308    6404.4287    11706.831    1904.4407 
  235000    296.53691   -1161.4954     6439.966    11613.527    1972.0885 
  235100    303.46055   -1162.4144    6347.6379    11668.192    1918.8513 
  235200    301.05534   -1164.5994    6454.0938     11721.08    1944.5268 
  235300    304.69195   -1162.2885    6489.1306    11836.118    1910.8573 
  235400    297.54323   -1159.9622    6356.9394    11553.532    1838.8962 
  235500    299.30666   -1160.8713    6392.3429    11625.699     1836.463 
  235600    302.13961   -1158.1953    6434.5418    11731.096    1921.1811 
  235700    298.53202   -1164.4981    6457.4671    11670.648    1954.5895 
  235800    305.19503    -1158.494    6428.8307     11790.36     1904.133 
  235900    296.75623   -1155.6249    6462.7354    11646.852    1965.1021 
  236000     301.5823   -1161.5644    6373.9803    11655.259    1927.4792 
  236100    297.73452   -1157.1523    6515.5466    11719.035    1876.0567 
  236200     301.2113    -1154.094    6498.2366     11779.06    1897.4245 
  236300     300.6624   -1159.0006    6354.1551    11618.345    1899.8426 
  236400    299.25483   -1159.1725    6400.7334    11634.681    1852.7208 
  236500    300.98545   -1157.7596    6445.5715    11717.904    1946.7013 
  236600    303.44812    -1157.103    6403.7045    11729.305    1919.8435 
  236700    298.11537   -1162.7836    6448.8339    11654.828    1910.8976 
  236800    305.43282   -1164.5788    6386.7149     11747.24    1863.5113 
  236900    301.45106   -1160.3962    6470.1933    11749.836    1902.0302 
  237000    302.04788   -1167.4287    6522.5952    11807.956    1919.9985 
  237100    297.26104   -1163.8284    6343.2837    11529.981    1868.0692 
  237200    300.60738   -1160.1134    6369.4536    11631.356    1960.4075 
  237300    300.55769   -1166.7497    6456.3209    11710.525    1949.0221 
  237400    300.85762   -1164.3008    6365.2531    11628.314    1870.7548 
  237500     300.0482   -1166.5176    6467.6173    11711.169    1986.4618 
  237600    298.63244   -1165.8988    6489.9472    11703.872    1902.3244 
  237700    300.89752   -1166.1633    6348.2042    11610.255    1873.7429 
  237800    297.09097    -1165.948    6399.8219    11580.767    1919.0958 
  237900    305.33046    -1166.891    6454.9281    11810.954    1910.8621 
  238000    297.46785   -1162.7421    6424.2089    11616.411    1908.0127 
  238100    302.53326   -1164.0666    6422.5339    11721.626    1895.5385 
  238200    299.95449   -1159.9548    6420.0377     11668.15    1895.2275 
  238300    302.38135    -1162.659    6331.8318    11629.086    1827.9429 
  238400    302.30399   -1158.1889    6385.3012    11685.373    1866.3626 
  238500    295.52045   -1165.9735    6431.4396    11578.807    1841.3642 
  238600    299.08581   -1168.7288    6403.7909    11624.572     1816.842 
  238700    300.69401   -1160.7564     6466.088    11729.198     1828.666 
  238800    299.46957   -1161.9496    6398.6976    11634.456     1846.202 
  238900    306.31823   -1157.8027    6531.3939     11917.61    1900.9639 
  239000    293.64437   -1151.4774    6455.5883    11577.372    1843.1809 
  239100    300.72205   -1155.8963    6315.2883    11583.857    1870.3187 
  239200    299.87099   -1159.5607    6384.4297    11631.153    1875.9107 
  239300    302.25914   -1155.0583    6535.1686    11837.413    1957.1644 
  239400    301.75534   -1158.9503    6302.1528    11589.742    1883.8044 
  239500    297.63757   -1153.9567    6349.0548    11553.668    1881.6078 
  239600    299.19557   -1154.9001    6535.3713    11772.326    1898.3112 
  239700    302.93156   -1156.5476    6417.8683    11732.989    1859.2264 
  239800    296.44618   -1161.8475    6412.6922    11583.962    1848.9122 
  239900    301.17486   -1154.0022    6512.9374    11793.074    1863.9116 
  240000    300.38199   -1158.5635    6362.3096    11620.946    1837.1086 
  240100    301.26493     -1160.01    6530.9626    11807.016    1898.4613 
  240200     299.2119   -1163.0032    6342.7287    11571.929    1855.4806 
  240300    301.38095   -1160.5197    6365.1199    11643.142    1970.6922 
  240400     299.6599   -1162.6677    6545.7381    11784.844    1965.0097 
  240500    300.11407   -1167.2857    6361.7988     11605.99    1865.2094 
  240600    300.88086   -1161.7553    6487.8716    11753.974    1903.0919 
  240700     298.7829   -1171.4366    6363.1856    11574.787    1874.4033 
  240800    300.59625   -1169.3582    6378.2196    11630.639    1883.5176 
  240900    295.50646   -1169.6902    6501.9748    11645.327     1957.602 
  241000     296.1917   -1168.1546    6480.9029    11640.429    1900.0153 
  241100    300.59038   -1169.3675    6271.5151      11523.8    1798.4242 
  241200    302.65029   -1169.6836    6396.2551     11692.23    1880.3275 
  241300    301.77922   -1168.6976    6445.4441    11723.796    1899.4394 
  241400    294.09206   -1168.1396    6343.2212    11457.907    1834.3891 
  241500    301.25878   -1164.9722     6367.698    11638.657    1894.8733 
  241600    302.15156   -1165.6968    6432.0596    11721.367    1927.7212 
  241700    297.64195   -1163.3025    6376.8233    11572.184    1903.8552 
  241800    303.68581   -1163.8854    6528.8535     11852.75    1917.5627 
  241900    301.58548   -1167.0867     6414.316     11690.14    1913.1754 
  242000    300.26537   -1163.9843    6385.4131    11636.138    1927.4478 
  242100    296.67568   -1165.1857    6500.7043    11673.539    1895.8216 
  242200    297.71352   -1160.3107    6455.8416    11655.723    1882.6029 
  242300    302.88564   -1162.6385    6403.1514      11711.2    1855.1638 
  242400    296.77428   -1162.3698    6332.2313    11509.989    1844.0481 
  242500    304.04334   -1153.9699     6399.048    11740.498    1896.1907 
  242600    299.14498     -1156.05    6545.1375    11779.861    1886.0947 
  242700    301.84802   -1159.3312    6380.1784    11669.367    1857.4815 
  242800    298.23153   -1156.3279    6395.7372    11610.668    1860.8057 
  242900    307.00765   -1162.2999    6518.7144    11915.162    1937.2034 
  243000    295.79302   -1156.9259    6420.5078    11582.746    1835.0692 
  243100    297.85434   -1161.3621    6414.6368    11616.476    1828.5837 
  243200    299.50689   -1158.0046    6380.2443    11620.745    1797.3714 
  243300    301.63835   -1162.5721      6468.27    11749.739      1873.51 
  243400    302.38569   -1158.5302    6431.4169    11732.893     1924.826 
  243500    297.52617   -1158.2554     6341.856    11539.791    1867.5772 
  243600    294.13702   -1162.6091    6422.1605    11543.337     1893.531 
  243700    302.01154   -1160.8775     6488.974     11780.11     1878.959 
  243800    298.43207   -1165.1262    6521.6276    11732.045    1890.0009 
  243900    301.61435   -1169.3491    6381.7668    11655.946    1878.3933 
  244000    298.55072   -1173.8927    6399.2173    11603.403    1834.9869 
  244100     299.1299   -1168.4059    6431.4011    11653.447    1819.3185 
  244200    305.43811   -1168.4872    6403.0639    11759.793    1894.8747 
  244300    296.54529   -1172.1046    6433.7166    11596.847    1894.6983 
  244400    296.55639   -1169.0953    6411.9454    11578.322    1832.7259 
  244500    301.99579   -1167.0777    6443.7876    11728.387    1867.8613 
  244600     303.7978   -1170.0103    6383.4794    11703.643    1869.2111 
  244700    305.51701   -1168.2611    6465.9001    11824.541    1898.6315 
  244800    297.54958   -1164.3268     6504.408    11696.772    1911.8882 
  244900    304.89411   -1168.9438    6323.2047    11667.856    1912.4772 
  245000     297.3704   -1165.4268    6397.9506    11585.386    1897.1808 
  245100    300.05085   -1165.9675    6518.3342    11762.493     1959.782 
  245200    301.32804   -1168.6163     6399.201    11667.996    1869.1984 
  245300    297.46469   -1167.9252    6411.9812    11598.933    1887.7001 
  245400    299.85863   -1165.3274    6390.1355    11630.828     1924.967 
  245500    304.89003   -1163.5248    6466.8253    11816.808    1988.7781 
  245600    298.33102   -1165.7986    6345.1056    11552.691    1945.0047 
  245700    299.39253   -1157.9968    6448.1469    11686.212    1938.5065 
  245800    300.31507   -1157.7461    6375.2863    11633.311    1958.0057 
  245900    298.69932     -1161.87    6386.7423    11606.125    1950.4422 
  246000    296.16683   -1158.0066    6495.3652    11664.509     1928.226 
  246100    295.46237   -1158.1899    6339.0025    11492.913      1855.26 
  246200    307.28755   -1157.2864    6469.0221    11876.463    1967.5926 
  246300    299.35698   -1161.5263    6349.1942     11582.97    1863.2395 
  246400    298.85689   -1154.3363    6454.4497    11684.732    1951.5796 
  246500    301.82997   -1159.4773    6416.0427      11704.7    1936.6157 
  246600    295.91963   -1159.5005    6396.6899    11559.058    1886.6024 
  246700    302.53386   -1156.9362    6472.0092    11778.245    1949.0998 
  246800     299.3294   -1162.2805    6394.9019    11627.335    1914.6887 
  246900    294.52716   -1166.1411    6391.4096    11517.389    1801.3264 
  247000     300.7233   -1158.1591    6528.1568     11794.49     1887.501 
  247100    294.14457   -1159.5921    6467.7704    11592.126    1871.3981 
  247200    304.64791   -1160.5127    6268.9917    11616.814    1878.4649 
  247300    301.36053   -1162.4353    6450.8955    11726.566    1966.0933 
  247400    296.35438   -1159.7953    6429.0744    11600.436    1932.7504 
  247500    301.51484   -1170.0931    6412.2694    11683.578    1941.1061 
  247600    299.51683   -1160.3022    6437.6962    11676.112    1932.2425 
  247700    301.32779   -1169.0134    6430.6383    11699.031    1912.8557 
  247800    303.86534   -1166.4865    6358.7287    11683.859    1905.5915 
  247900    295.22023   -1161.3729    6395.6368    11541.191    1916.7817 
  248000    303.39115   -1171.4003    6370.0169    11680.103    1939.9679 
  248100    297.47143   -1167.0051    6440.3433    11628.359    1925.0192 
  248200    299.50004   -1169.8376     6401.094    11629.615    1898.7529 
  248300    299.92752   -1168.1736    6437.9139    11677.232    1923.1951 
  248400    298.45293   -1161.1518    6371.2597    11586.097    1917.8746 
  248500     300.2161   -1156.7294    6363.5868    11620.514    1919.4669 
  248600    297.82406    -1165.973    6429.8345    11626.415    1933.8056 
  248700     301.7735   -1161.7083    6434.9397    11720.159    1927.9163 
  248800    298.90009   -1165.4505    6404.0821    11624.173    1938.9574 
  248900     297.7448    -1167.146    6344.6247     11538.34    1859.4351 
  249000    301.65117   -1171.7777    6531.6735     11804.21    1953.4296 
  249100     299.3299   -1162.4979    6475.7415    11707.968    1946.9664 
  249200    295.07288    -1164.837    6481.3951    11620.337     1921.448 
  249300    297.47239   -1159.6558    6312.8902    11508.275    1874.7382 
  249400     302.5215   -1163.4769    6449.3933    11748.824    1981.2511 
  249500     294.4155   -1159.4789    6428.1209    11558.377    1861.0806 
  249600    300.99239   -1160.2328    6441.8646    11711.872    1883.8309 
  249700    306.94162   -1166.2782    6521.2676    11912.326    2021.9971 
  249800      301.711   -1165.0631    6412.8744    11693.404    1901.3021 
  249900    297.09688   -1161.6797    6396.2589    11581.598    1909.5064 
  250000    302.71846   -1159.8168    6469.1414     11776.44    1939.5124 
  250100    294.18042   -1161.6256    6401.8698    11524.958    1859.1622 
  250200    305.32917   -1159.5369    6476.3141    11839.666    1897.3964 
  250300    304.41354   -1164.0651    6477.6786    11816.942    1822.4166 
  250400    300.60982   -1160.7185    6385.6913     11647.04    1918.0687 
  250500    294.95238   -1162.2722    6279.2806    11418.214    1857.0058 
  250600    305.74748    -1161.935    6454.8406    11824.731    1956.1704 
  250700    297.93944   -1165.0302    6520.6344    11720.623    1886.2029 
  250800    294.87264   -1166.1581     6519.534    11652.877    1924.4185 
  250900     300.9409   -1167.0369    6355.5849    11617.689    1927.8711 
  251000    303.76655   -1167.1327    6399.7891    11722.163    1938.7512 
  251100    299.57156   -1166.3562    6349.0213    11582.552    1912.2613 
  251200    296.75126   -1158.4732    6391.5578     11572.72       1866.1 
  251300    301.33157    -1157.061    6471.7212    11752.147    1875.6764 
  251400    305.51534   -1156.8533    6427.2673     11797.28    1958.9085 
  251500    301.52901   -1162.0918    6390.8895    11670.502    1974.6301 
  251600    300.92255   -1161.2626    6435.7058    11703.192    1941.4937 
  251700    296.84099   -1169.4011    6314.4877    11486.639    1870.1227 
  251800    302.59967   -1168.3824    6468.7741    11764.969    1959.2888 
  251900    297.76635   -1164.5924     6474.029    11670.758    1937.1199 
  252000    303.29664   -1164.9602    6447.0051    11761.512    1946.5892 
  252100    301.02312   -1165.6973    6434.0624    11699.262    1963.6523 
  252200    297.08067   -1161.9024    6503.4152    11688.185    2006.6406 
  252300    302.12585   -1167.6293    6326.1845    11613.011    1971.7177 
  252400    291.12279   -1162.8811    6334.5078    11391.018    1914.9601 
  252500    295.64154   -1163.7577    6432.6795     11584.85    1916.8007 
  252600    304.25802   -1153.9779     6509.132     11855.16    1886.4908 
  252700    300.96212   -1159.9499    6577.3237    11846.968    1891.1707 
  252800    298.65989   -1160.8916    6357.3318     11576.85    1858.9273 
  252900    307.42212   -1163.3567    6301.9312    11706.177    1924.0648 
  253000    299.47126   -1161.8559     6434.781    11670.669     1933.485 
  253100    295.51562   -1160.3793     6434.138    11586.996    1873.1918 
  253200    299.10802   -1162.3661    6393.2579    11620.876    1909.6655 
  253300    304.36749   -1166.4626    6378.2744    11714.156    1961.2432 
  253400    300.00802   -1159.8742    6447.0542    11696.391    2002.9531 
  253500    301.60909   -1159.4267    6363.1545    11647.143    1996.5149 
  253600    300.95677   -1164.2245     6396.693    11661.948    1903.8254 
  253700    300.36954   -1158.7961    6566.8389    11824.977    1941.0732 
  253800    296.38832    -1166.166    6437.1298    11602.846    1976.6816 
  253900    303.29326   -1166.2521    6330.5281    11643.671    1921.3757 
  254000    295.49271   -1163.4139    6436.4788    11585.813    1921.6103 
  254100    303.45651   -1158.6033    6443.3325    11767.612    1988.2395 
  254200    303.94894   -1157.1676    6435.1287    11771.364    2001.8964 
  254300    297.11754   -1161.8328    6368.2354    11553.863    1883.8736 
  254400    303.55878   -1165.1364     6445.691    11765.622    1950.7642 
  254500     296.5953   -1163.9518    6444.7615    11617.113    1963.3418 
  254600    299.28574   -1158.4323    6538.1491    11773.497    1921.4001 
  254700    301.31363   -1166.2704    6413.3043    11684.137    1866.4812 
  254800     301.5756   -1167.4717    6446.6461    11721.874    1948.5538 
  254900    294.84882   -1164.2362    6383.6153    11518.372    1889.7654 
  255000    303.65721   -1161.9937    6507.6521    11832.829    1955.6928 
  255100    300.07884   -1162.4134    6440.2974    11688.608    1975.1843 
  255200    299.42357   -1164.6248    6348.8164    11580.917    1969.1062 
  255300    302.72528   -1164.2686    6344.7796    11647.772    1905.1776 
  255400    298.85707   -1164.3947    6538.1977    11758.426    1957.4979 
  255500     299.0802   -1164.2738     6394.246    11619.362    1912.3829 
  255600     301.5557   -1160.6086    6511.3019    11792.968    1972.3793 
  255700    298.41615   -1162.1702    6366.2921    11579.325    1914.7243 
  255800     304.1781    -1169.579    6338.7195    11667.439     1934.101 
  255900    299.92342   -1167.0137    6432.7533    11673.143     1914.957 
  256000    295.23715   -1167.4036     6340.458    11480.343     1829.845 
  256100     300.5377   -1162.6632    6386.9188    11644.783    1934.6681 
  256200     303.6923   -1159.6966    6407.4004    11735.624     1897.089 
  256300    299.97159   -1158.9309    6548.8612    11798.363    1922.4808 
  256400     298.8826   -1159.8284    6395.6278    11620.967    1950.5223 
  256500    303.17797   -1160.6419    6344.6495     11660.94    1962.6392 
  256600     301.0397   -1164.6995    6439.2164    11705.768    1897.4192 
  256700    306.18858   -1170.3717    6424.3755    11795.253     1915.398 
  256800    296.35099   -1166.9501    6442.5462     11606.68    1870.4112 
  256900    302.51057   -1165.6954    6461.4895    11758.468      1875.17 
  257000    300.17098   -1162.2353     6396.514    11646.971    1908.5109 
  257100    297.68795   -1162.9493    6403.0034      11599.7    1951.8486 
  257200    305.99661   -1163.4027    6457.4285    11831.174     1962.443 
  257300     301.6537   -1157.3043    6453.7381    11740.802    1952.8843 
  257400    301.03256   -1160.1642    6450.9345    11721.869    1933.3464 
  257500    300.59733   -1163.9484    6481.7746    11739.627     1930.528 
  257600    299.03406   -1161.4504    6420.1677    11647.121    1890.6368 
  257700    303.51954   -1160.3025    6353.7934     11677.72    1927.3585 
  257800    299.86791   -1159.7498    6448.7624     11695.23    1973.7798 
  257900    299.12071   -1160.1665    6351.6418     11581.73    1906.4165 
  258000    298.35328   -1162.3859    6443.4201    11654.894    1921.0563 
  258100    303.95481   -1161.9693    6423.0626    11754.621    1865.4884 
  258200    297.30444   -1162.4297    6452.7239    11641.748    1921.4175 
  258300    300.01514   -1160.4545    6370.7435    11619.652    1948.3912 
  258400    300.22805   -1150.6998    6375.3193    11638.531    1966.9856 
  258500    299.67286   -1161.1841    6401.2066    11642.073    1963.3199 
  258600    299.76408   -1164.2194    6447.2232    11687.003    1945.3805 
  258700    301.52261    -1166.933    6486.9163    11761.551    1933.3937 
  258800    298.62086   -1163.8099    6392.1491    11607.916     1854.026 
  258900    295.98678   -1167.3174    6439.9483    11595.934    1914.6557 
  259000    300.02171    -1161.318    6469.8475    11718.033    1949.8002 
  259100     300.6297   -1161.9119    6465.8332    11726.414    1947.0989 
  259200     299.4453   -1160.0675     6373.275    11610.397     1901.482 
  259300    305.50568    -1162.122    6326.4403    11690.978    1943.4209 
  259400    296.81821   -1163.0903    6318.6171    11496.592    1890.2148 
  259500    301.27861   -1166.0961     6443.187    11713.446    1963.5138 
  259600    297.85612   -1169.2853    6525.2053    11719.159    1918.7446 
  259700    301.92523   -1168.9308    6361.6326    11642.871    1890.3265 
  259800    299.88803    -1164.901    6409.1014    11650.848    1923.1423 
  259900    297.40196   -1167.0189    6367.4918     11554.01    1843.9902 
  260000    301.45964   -1166.5867    6416.9723    11690.608    1894.6692 
  260100    299.01675   -1165.7271    6465.8126     11688.12    1937.6319 
  260200    298.35777    -1160.292    6407.8016    11621.466    1892.2338 
  260300    297.31566   -1163.8275    6323.3879    11511.253    1831.7325 
  260400     304.3904   -1165.3179    6447.6692    11785.185    1850.3356 
  260500    302.40084   -1164.8879    6455.5232    11750.965    1842.3663 
  260600    302.20003    -1162.015    6392.1899    11686.215    1923.3488 
  260700    296.25665   -1165.4266    6371.7924    11535.434    1893.7923 
  260800    298.43794    -1164.708    6420.5473    11631.508    1867.4397 
  260900    302.61323   -1159.0007    6340.2263    11646.093    1840.6145 
  261000    301.06184   -1158.2553    6339.3974    11612.866    1921.8735 
  261100    299.19654   -1160.3799    6568.6371    11800.132    1930.3232 
  261200    295.45369   -1157.9171     6477.538    11631.536    1854.5875 
  261300    301.84007   -1166.3995    6274.6347    11556.585     1903.522 
  261400    296.81854   -1162.8883    6398.0706    11576.255    1952.1548 
  261500    297.01541   -1163.4135    6457.8155    11639.681    1877.0891 
  261600    303.41936   -1157.6934    6458.3374    11782.733    1896.9978 
  261700    299.85392   -1157.5646    6429.0347    11677.389     1894.537 
  261800    301.98628    -1158.913    6463.2869    11755.847    1951.6577 
  261900    296.54761   -1158.6659    6345.3802    11521.999    1937.6029 
  262000    295.23428   -1155.2942    6355.0977    11507.031    1956.0112 
  262100    299.74681   -1151.6254    6453.1726    11705.178    1932.6066 
  262200     299.7925   -1160.2485    6427.5636    11671.922    1959.7644 
  262300    292.69343   -1160.5149    6401.3396    11493.771    1886.7076 
  262400    296.91958   -1170.7187    6424.0929    11596.605    1910.6066 
  262500    302.85434   -1166.0023    6520.6392    11824.655    2001.1499 
  262600      295.745   -1170.1322    6402.0243     11550.03    1832.5459 
  262700    304.80432   -1164.1576    6391.9054    11739.424    1881.1108 
  262800    301.02426   -1164.0884     6328.097     11594.93    1884.3121 
  262900    300.75729   -1166.9767    6483.5971    11741.838    1940.1501 
  263000    303.70047   -1162.9162    6394.2095    11719.388    1855.5279 
  263100    297.85579   -1162.7235    6423.7585    11624.267    1883.9311 
  263200    301.34385   -1163.1299    6346.6127    11621.232    1849.4693 
  263300    297.84498   -1167.5668    6416.4152    11611.849    1864.5405 
  263400    303.56507   -1171.6434    6428.8302    11742.389    1893.3171 
  263500    299.58152    -1174.425    6501.1522    11726.827    1971.0546 
  263600    303.05317   -1169.2996    6389.1375    11694.104      1821.05 
  263700    302.33605   -1165.3934    6416.9188    11710.471    1877.0341 
  263800     296.5458   -1163.9413    6446.1408    11617.446    1946.6179 
  263900    301.89818   -1162.3984    6337.0141    11624.207    1894.1381 
  264000    301.88474   -1165.5641     6427.885    11711.625     1920.347 
  264100    300.46749    -1163.815     6454.897    11710.109    1990.2636 
  264200    298.84892   -1159.1817    6324.5437    11549.811    1896.1574 
  264300    297.95011   -1163.5693    6455.7074    11657.385    1954.1536 
  264400    302.57219   -1157.5764    6444.9549    11751.369    1972.7264 
  264500    297.91928   -1165.9843    6383.8786    11582.483    1899.3962 
  264600    301.49117   -1163.0859    6418.9091    11696.719     1929.688 
  264700    295.01978   -1159.4347    6507.0498     11650.26    1971.5649 
  264800    304.73422   -1161.1391    6500.9001     11849.94    1968.6912 
  264900    298.93186   -1160.6802    6422.2383    11647.779    1953.7267 
  265000    298.78291   -1162.0469    6352.3923    11573.384    1934.7896 
  265100    297.36283    -1161.701    6427.5578    11618.557     1895.639 
  265200    301.17195   -1158.0125    6355.3539    11631.418    1845.4922 
  265300    295.39423   -1158.5403    6440.0199    11592.124    1855.5004 
  265400    298.95798   -1149.3697    6528.5011     11765.91    1857.2814 
  265500    304.74444   -1163.0102    6446.0622    11793.449    1910.1866 
  265600    298.83126   -1161.1114    6351.5788    11574.539     1903.527 
  265700    296.61053   -1164.8714    6380.9726     11552.73    1881.0199 
  265800    301.25573   -1160.6933    6444.8844    11720.058    1867.3806 
  265900    303.96216   -1164.9156    6483.3182    11812.088    1875.7919 
  266000    294.94569   -1161.4968    6441.1185    11580.684    1865.2641 
  266100    301.56193   -1161.9452    6404.0009    11684.464    1839.5809 
  266200    298.87641   -1160.7712    6361.4858    11585.751    1858.4819 
  266300    304.43773   -1164.0089    6450.6369    11790.473    1872.1087 
  266400     300.1158   -1164.2872    6457.6281    11704.854     1925.561 
  266500    307.01937   -1164.4423    6454.3132    11848.869    1973.0766 
  266600     301.5772    -1168.214    6371.9587    11646.479    1885.9614 
  266700    300.63977   -1164.0915    6486.2462    11744.862    1879.5698 
  266800    301.60795   -1164.7929    6591.8103    11870.408    1955.9986 
  266900    300.92263   -1163.8717    6422.5867    11687.465    1918.9179 
  267000    299.09255   -1166.5808    6295.2252    11518.298    1856.8146 
  267100    302.10971   -1165.8441    6519.7687    11808.035    1955.1235 
  267200     300.4134   -1168.6378     6318.737    11567.971    1894.2468 
  267300    298.65725    -1168.065    6412.5563    11624.845    1934.5662 
  267400    304.00742   -1170.4467    6504.3393    11828.545    1971.4689 
  267500    298.33899   -1168.0121    6324.8264    11530.369    1887.0861 
  267600    292.31171   -1165.4869    6395.6414    11474.946    1900.2322 
  267700    301.31048   -1161.7056    6470.7326    11746.063    1918.5173 
  267800     295.6645   -1163.3833    6411.3476    11564.383    1893.9178 
  267900    300.48882   -1161.0573    6400.6678    11659.093    1864.0005 
  268000    302.73674   -1164.0819    6469.4152    11772.839    1931.3462 
  268100    300.77624   -1164.0557    6430.3528     11691.92    1920.3606 
  268200     299.9127    -1164.083    6458.3149    11701.407    1889.1841 
  268300    300.01597     -1165.14    6373.8568    11618.098     1850.896 
  268400    303.05044   -1164.7269    6386.2575    11695.738    1856.1994 
  268500    297.93275   -1160.5105    6496.4016    11700.767    1863.2421 
  268600    301.91821   -1163.2197    6495.1166    11781.916    1894.5011 
  268700    308.28601   -1161.7651      6334.43    11758.722    1883.9651 
  268800    300.74921   -1157.5828    6445.0249    11712.487    1895.7647 
  268900    300.92393    -1155.206    6296.4077     11569.98    1881.8032 
  269000    296.30178   -1161.2567    6412.4786    11581.255    1889.6015 
  269100    306.68438   -1155.2868    6520.7756     11917.33    1943.0464 
  269200    301.05245   -1159.9851    6399.5714     11671.11    1880.9513 
  269300    299.32758   -1156.3972    6372.7797    11611.057    1901.2994 
  269400    303.23292   -1159.5782    6437.9174    11756.445    1915.3306 
  269500    298.35024   -1157.1814     6401.441    11618.055    1867.9383 
  269600    300.83138   -1165.0372    6353.6129    11615.377    1827.4687 
  269700    302.00443   -1162.2127    6492.3532    11782.002    1894.5071 
  269800    305.48279   -1162.8744    6529.7581    11893.055    1920.6177 
  269900    298.60531   -1163.8043    6421.3958    11636.836    1938.6288 
  270000    300.32066   -1162.2749    6298.3451     11551.96    1903.5957 
  270100    299.91735   -1162.8037    6426.4778    11670.948    1906.2048 
  270200    301.00209   -1168.3837    6528.9785    11791.042    1977.1594 
  270300    297.59112   -1162.7114     6529.152    11724.018    2054.3575 
  270400    301.54091   -1168.4381     6205.003    11478.524    1885.5371 
  270500    299.39103    -1169.772    6492.1906    11718.449    2024.4047 
  270600     299.2595   -1167.7009    6437.0559    11662.575    1933.1903 
  270700    300.07653   -1167.6022    6377.4124    11620.485    1960.2393 
  270800    295.67646   -1167.5274    6499.7199    11648.866    1985.1382 
  270900    297.75283   -1160.7991    6362.6131    11562.846    1889.6478 
  271000    302.02392   -1163.2929    6331.8281    11620.813    1846.5121 
  271100    300.11075   -1158.9147     6453.742    11706.233    1897.8984 
  271200    299.43038   -1164.4406    6454.3551    11686.785    1960.9191 
  271300    300.12413   -1170.0533    6262.9996    11504.638    1870.9187 
  271400    301.23207   -1165.6957    6440.9797    11710.645    1958.8266 
  271500    299.67545   -1164.6653    6459.9724    11697.413    1926.9774 
  271600    302.64071   -1163.3455    6384.3654    11686.474      1877.09 
  271700    295.84819   -1157.4968    6384.4624    11547.308    1865.0571 
  271800    301.85619   -1163.2344    6360.7438    11646.204    1938.8513 
  271900    299.47995    -1153.263     6512.913     11757.58     1941.147 
  272000    301.21685   -1152.8335    6430.2419    11712.444    1854.2658 
  272100    303.73621    -1159.158    6483.7368    11813.437    1873.5652 
  272200    300.56338   -1159.7847    6523.5478    11784.838    1927.9745 
  272300    303.12649   -1158.8768    6402.6102    11719.566    1848.4988 
  272400    293.52619   -1160.8316    6420.2857    11530.191    1877.7315 
  272500    301.09258   -1154.1963    6484.2888    11762.473    1935.7757 
  272600    301.42449   -1159.5349    6390.3995    11670.336    1819.9184 
  272700    295.32506   -1157.8869    6372.8791    11524.159    1786.4016 
  272800    298.46009   -1157.0336    6511.1217     11730.23    1893.3602 
  272900    303.20297    -1156.025    6481.0218    11802.463    1931.2252 
  273000    297.47809   -1159.9778    6452.8879    11648.073    1945.9152 
  273100    297.54182   -1160.2081    6311.8834      11508.2    1952.8306 
  273200    293.08878   -1162.8755    6489.5466    11588.063    1946.0356 
  273300    299.22508   -1165.9346     6433.402    11659.952    1910.4187 
  273400    298.62389   -1167.4862    6507.7267    11719.882    1988.6043 
  273500    301.72037   -1168.0892    6352.6651    11630.369    1959.5164 
  273600    298.85878   -1170.4636    6377.3042      11591.5    1896.7678 
  273700    294.36764      -1160.9    6530.8472     11658.66    1980.8675 
  273800    302.18122   -1163.7847    6400.7313    11692.585    1929.0989 
  273900    300.03765   -1166.7469    6424.4534    11667.551    1945.4855 
  274000    300.16153    -1169.595    6369.3408    11612.236    1938.4226 
  274100    303.79165   -1167.6127    6415.6115    11738.041    1949.1455 
  274200    300.49231   -1169.7617    6528.6095    11778.405    1999.5297 
  274300    300.11452   -1176.0637    6357.0352    11592.458    1903.8294 
  274400    303.40772   -1170.3042    6317.6087    11629.145    1869.7058 
  274500    298.30681   -1168.7839    6471.5404    11675.624    1914.0601 
  274600    301.13133   -1169.6182    6380.4758    11644.067    1892.8311 
  274700    294.92937   -1163.6381    6359.0113    11496.087    1925.6644 
  274800    295.79082   -1165.3668     6424.587    11578.337    1924.8394 
  274900    304.08106   -1165.4009    6514.0057     11844.83      1993.97 
  275000    299.08769   -1164.9311     6332.123    11556.742     1941.961 
  275100    297.54407   -1163.4152    6349.8172    11542.974    1944.0167 
  275200    303.09597   -1162.6003    6430.3952    11742.975    1923.7322 
  275300    299.55316   -1161.8185    6435.6814    11673.357     1934.403 
  275400    305.07157     -1156.51    6387.0921    11747.968    1916.4893 
  275500    297.99051   -1158.3663     6421.625    11629.369    1896.5924 
  275600    297.82786   -1158.8066    6512.8802    11716.709    1882.9932 
  275700    299.85827   -1157.5853    6476.3515    11724.778    1894.7968 
  275800    300.58102   -1160.2667    6355.9768    11617.162    1904.3077 
  275900    302.79057   -1157.8694    6413.6339     11724.42    1897.8324 
  276000    298.46482   -1155.0829    6455.0045    11676.165    1863.0078 
  276100    297.49019   -1153.4168    6515.2502    11717.255     1919.885 
  276200    303.93961   -1152.8128    6375.1033    11715.494    1931.1174 
  276300    298.38172   -1153.0198    6356.6366    11578.084    1930.8956 
  276400    298.92331   -1156.5689    6498.9243    11728.393    1959.4371 
  276500    300.83552   -1156.1706    6439.2174    11709.936    1953.4286 
  276600    298.43461   -1166.7587    6370.7783    11579.617    1917.0362 
  276700    300.14648   -1163.0523    6461.4228     11710.54     1965.261 
  276800    305.14224   -1168.4129    6356.6637    11707.147    1893.3393 
  276900    299.55126   -1161.4781    6463.0017    11700.977    1919.0242 
  277000    303.24867   -1169.5136    6481.7161    11790.645    1931.4888 
  277100    297.43688   -1164.1678     6377.464    11567.579    1870.7858 
  277200    300.46687   -1162.7914    6399.5845    11655.807    1821.7819 
  277300    300.89226   -1164.7118    6430.0116    11693.401     1925.797 
  277400    298.69723   -1167.8334    6401.8513    11615.226    1970.9593 
  277500    298.43281    -1167.229    6449.4162    11657.746    1976.1971 
  277600    300.66352   -1168.3136    6410.5561    11665.457    1865.8113 
  277700    300.74958   -1172.2062    6528.5301    11781.377     1887.844 
  277800    300.92544   -1173.4204    6368.7033    11624.093    1900.0467 
  277900    298.35411   -1174.2387    6351.3849    11551.024    1896.3622 
  278000    299.41207   -1169.9575    6340.3976     11566.92    1933.8445 
  278100    299.80757   -1162.0576    6470.2906    11713.162    2005.3972 
  278200    299.12024   -1154.9997    6384.4191    11619.664    1894.1088 
  278300    303.36644   -1166.0853    6411.4215    11726.295    1889.1857 
  278400    305.04186   -1165.0469    6403.0547    11754.759    1838.5508 
  278500     304.8017   -1165.9532    6492.4537    11838.121    1875.7507 
  278600    303.76986   -1164.0979    6483.5383    11809.017      1925.65 
  278700     300.9035   -1160.9501    6390.8949    11658.286    1937.9554 
  278800    296.66343   -1162.4325    6452.4168    11627.743    1936.9313 
  278900    302.39827   -1155.3471    6383.6998    11688.628    1995.1105 
  279000    295.65842     -1154.63    6385.7138    11547.372    1997.8378 
  279100    301.89567   -1153.6249    6439.8666    11735.779    1935.8685 
  279200    295.08088   -1155.0145    6432.2351    11581.171     1887.839 
  279300    297.76534   -1157.7203    6362.7579    11566.337    1929.4164 
  279400    303.75795   -1152.8731    6483.0967    11819.546    1897.0052 
  279500    303.14303   -1157.8349    6466.3007    11784.651    1883.7708 
  279600    301.38627   -1160.7691    6353.5631    11631.449    1946.2968 
  279700    300.19349   -1154.5467    6455.6981    11714.325    1939.9512 
  279800    306.78003   -1161.2652    6398.3688    11790.988     1889.199 
  279900    300.99684   -1161.8772    6356.5903    11625.049    1951.6564 
  280000    305.28619   -1164.7763    6484.1252     11841.32     2009.321 
  280100    298.50325   -1157.0569    6459.3015    11679.309    1911.4998 
  280200    302.80594   -1163.6487    6362.3674    11667.703    1940.7527 
  280300    297.98398    -1159.539    6479.6552    11686.087    2011.7934 
  280400    303.31328   -1159.8205    6434.5916    11754.594    1881.7385 
  280500    295.58994   -1167.1337    6445.5147    11593.207     1918.185 
  280600    301.02112   -1167.3091    6421.7275    11685.273    2003.4319 
  280700    302.32956   -1171.6963    6385.9038    11673.015    1971.0168 
  280800    296.81531   -1165.3086    6469.2155    11644.911    1961.0512 
  280900    301.17794   -1172.6899    6454.7649    11716.279    1940.5305 
  281000    299.75572    -1169.115    6502.7128    11737.419    2003.1165 
  281100    299.82807   -1169.6438    6288.2399    11523.963    1925.7019 
  281200    297.03823   -1167.0251    6395.9956    11574.737    2018.3823 
  281300     303.3899   -1167.6461    6471.6514    11785.465     2010.642 
  281400    300.71818   -1165.0088    6474.6586    11734.032      1997.43 
  281500    297.18308   -1169.2111    6343.5914    11523.241     1936.006 
  281600    302.81141   -1170.5421    6429.1109     11727.67     1980.146 
  281700    298.94702   -1166.2499    6518.5011    11738.796    2003.9753 
  281800     301.1996   -1167.1197    6359.3026     11626.85    1994.3444 
  281900    294.99276   -1164.9629    6341.0392    11478.144    1926.7207 
  282000    303.20191   -1164.9997    6468.0473    11780.491    1939.2684 
  282100    299.08773    -1166.075    6463.4409    11686.916     1919.043 
  282200    301.69512   -1159.2539    6560.6452    11846.645    1969.7866 
  282300     298.7835    -1161.778    6399.1661    11620.439    1950.8096 
  282400    300.91927   -1158.8728    6332.3004    11602.106    1926.9241 
  282500    296.55086   -1165.2985     6429.177    11599.233    1922.4921 
  282600    302.50343   -1163.9501    6451.1596    11749.731    1961.5142 
  282700    293.50558   -1158.5777    6371.9909    11483.709    1889.5684 
  282800    296.75496   -1149.9853    6360.0988    11549.828    1926.0681 
  282900    298.85865   -1155.4535    6408.9399    11638.143    1885.3702 
  283000    302.59312   -1159.3875    6424.9108    11729.961    1838.3777 
  283100    295.28566   -1155.2402     6421.658    11574.743    1908.8227 
  283200    301.95462   -1159.6363    6493.7611    11784.922    1956.1116 
  283300    298.11347   -1159.7037     6310.211    11519.244    1839.8053 
  283400    300.32947   -1160.7295    6441.2045    11696.553    1941.0387 
  283500     303.9051   -1159.9753    6469.9817    11802.472    1974.6347 
  283600     298.0783   -1161.8414    6428.5227    11634.667     1948.123 
  283700    297.69024   -1158.4012    6426.6482    11627.942    1976.8975 
  283800    302.31397   -1161.4833    6400.8109    11697.802    1963.9491 
  283900    299.66249   -1159.3353    6427.5334    11670.027    1908.3653 
  284000     300.7007   -1161.2967    6517.6869    11780.399      1985.98 
  284100    300.76933   -1166.0624    6455.8757    11715.289    1927.8012 
  284200     298.7534   -1165.9689    6448.7468    11665.186    1983.4871 
  284300    303.23474   -1162.0235    6382.0225    11698.144     1924.104 
  284400    298.97255   -1163.7463    6436.0011    11659.345    1920.8057 
  284500     297.3878   -1158.2562    6446.8803    11641.858    1937.1566 
  284600    299.92113   -1161.8561    6465.6611     11711.16     2002.268 
  284700    292.65806   -1161.4388    6548.7536    11639.505    1976.8995 
  284800    300.22084   -1158.0124    6372.1807    11627.926    1884.6769 
  284900    294.36645   -1162.9016    6390.8568    11516.643    1905.2745 
  285000    302.19546   -1161.7234    6419.2808      11713.5    1962.9812 
  285100    300.65232   -1159.7348    6451.7835    11715.024     1953.306 
  285200    296.04294   -1164.0666    6401.3456    11561.782    1891.1147 
  285300    308.06431   -1158.4984    6471.0672     11893.89    1982.5439 
  285400    301.00233   -1165.7715    6393.9185      11658.6    1939.1906 
  285500    301.02377   -1163.9426    6446.6246    11713.593    1979.2557 
  285600    295.64944   -1162.7051    6417.8824    11571.274    1949.7193 
  285700    301.14533   -1164.8856    6418.9185    11687.541    1916.8207 
  285800    300.64377   -1161.0412    6509.1481      11770.9    1954.5061 
  285900    303.56001   -1160.6199    6415.1447    11739.619    1953.7317 
  286000    297.11876   -1158.9464    6371.9399     11560.48    1949.2841 
  286100    304.37002   -1164.0436    6340.8915    11679.246    1932.4465 
  286200    301.89528    -1161.999    6503.5953    11791.126     1980.242 
  286300    298.98501   -1169.3253    6394.4071    11612.438    1875.9211 
  286400    298.79737   -1163.4037    6514.7358    11734.679    1853.9623 
  286500    307.22658   -1163.6325     6418.674    11818.466    1878.5629 
  286600    294.15899   -1166.2529    6360.5603    11478.563    1923.0075 
  286700    300.39527   -1162.2662    6391.5782    11646.796    1935.6759 
  286800    301.80231   -1159.2954    6491.5947    11779.843      1930.22 
  286900    294.01316   -1158.3921    6499.8704    11622.618    1989.4097 
  287000    302.41624   -1165.4947     6366.491    11661.655      1924.92 
  287100    293.93057   -1166.7601    6395.4737    11508.089    1952.0829 
  287200    301.46691   -1164.3581    6457.2558    11733.276    1995.1962 
  287300    302.31509   -1162.6186    6468.5135    11764.393    1952.5698 
  287400    299.06032   -1169.9343      6356.02    11575.051    1887.5978 
  287500    300.84672   -1164.7172    6435.2743    11697.686    1956.9279 
  287600     300.1236   -1161.2593    6472.9979    11723.419    1998.0503 
  287700     296.0436   -1165.2061    6367.7087     11527.02    1932.6741 
  287800    300.40234   -1159.5356    6377.9789    11636.078    1918.2835 
  287900    300.44275   -1158.8346    6474.9979    11734.662    2004.4877 
  288000    299.74969   -1152.9425    6343.5101     11594.26    1847.0761 
  288100    294.54471   -1157.2718    6550.6878    11685.912    1981.6506 
  288200    300.02125    -1164.133    6346.3877    11591.748    1908.0844 
  288300    299.69349   -1159.4968       6477.5    11720.495    1931.4695 
  288400    299.94411   -1161.6121    6438.6532    11684.887     1903.077 
  288500    301.78034   -1163.5934    6362.5729    11646.053    1927.8866 
  288600    298.48332   -1158.3896    6403.0733    11621.322    1871.9503 
  288700    300.05717   -1157.0664    6460.6883    11713.883    1849.6908 
  288800    303.28198     -1158.64    6391.3701    11711.884    1896.2457 
  288900    301.36761    -1155.744    6396.4775     11678.99    1871.9005 
  289000    294.96719    -1159.999     6501.638     11643.16    1821.4589 
  289100    299.19931   -1161.5122    6460.1774    11690.599    1856.4201 
  289200      301.432    -1157.989    6370.3387    11651.982    1884.2044 
  289300    300.65477   -1164.1998    6332.4672    11591.295    1845.9043 
  289400    295.69227   -1161.0263    6505.8342    11661.819    1882.1318 
  289500    300.10349   -1164.6103    6431.7132    11678.353    1917.6171 
  289600    300.33627   -1165.3201    6430.8612    11681.765    1848.0751 
  289700    297.50172   -1161.9971    6434.6868    11628.357    1901.1536 
  289800    304.26829   -1160.3874    6321.5176    11661.355    1935.7339 
  289900    296.66295    -1162.767    6453.2089    11628.191    1894.6409 
  290000    303.19147   -1165.5096    6390.4826    11702.194     1854.581 
  290100    296.46949   -1162.2646     6460.424    11631.775    1961.8406 
  290200    302.00297   -1166.2351    6419.1845     11704.78    1923.6047 
  290300    302.56404   -1162.4205    6380.8462    11682.242    1890.5709 
  290400    298.89295   -1166.0102    6348.3595    11567.739    1896.5176 
  290500    300.59408    -1166.246    6372.2284    11627.714    1839.2131 
  290600    296.97701   -1157.1336    6505.8297    11693.154    1794.4667 
  290700    299.08227   -1165.4041    6484.9455    11708.975    1910.6894 
  290800    298.14244   -1166.1467    6381.9216    11585.131    1914.8845 
  290900     299.1706   -1160.3821    6402.1869    11633.126    1870.3288 
  291000    300.77102   -1161.6837    6490.3841    11754.212    1897.3982 
  291100    302.05222    -1162.429     6421.602    11712.055    1951.1647 
  291200    299.34698   -1157.0479    6455.7231    11693.764    1909.5789 
  291300    299.59633   -1158.2949    6433.0688     11675.19    1843.5343 
  291400    302.45389   -1159.2658    6394.8815    11697.079    1952.5737 
  291500    298.93892    -1157.361    6413.3831    11642.393    1952.9452 
  291600    300.53222   -1159.4386    6507.4466    11768.418    1918.8515 
  291700    300.24075   -1161.6298    6389.3445    11641.897    1847.8883 
  291800    302.59283   -1155.1365    6459.3337    11768.629    1891.0603 
  291900    296.90639   -1154.0519    6401.2805    11590.178    1826.3597 
  292000     300.1495   -1155.0931    6378.3643    11635.505    1842.4712 
  292100    303.17122   -1156.0943    6523.8943    11844.588    1903.5492 
  292200     295.1238   -1155.6959    6497.5862    11646.757    1831.0952 
  292300     303.9579   -1155.4082    6376.9935    11715.179    1890.4586 
  292400    301.56936   -1157.0437    6432.6085    11718.131    1982.0061 
  292500    293.41302   -1156.8344    6335.3889    11446.873    1868.3397 
  292600    299.14038   -1163.3397    6465.8096    11693.145    1880.1614 
  292700     302.3256   -1164.2067    6502.9053    11797.421     1946.488 
  292800    305.69074   -1161.4297    6365.8091    11734.993    1884.9831 
  292900    295.24165   -1169.3709    6507.8798    11645.894    1918.1791 
  293000    298.87312   -1160.9149    6412.8086    11636.859    1886.3107 
  293100    294.69441   -1161.8477    6401.3708    11535.217    1901.1445 
  293200    300.80605   -1167.0084    6372.7268    11631.978    1951.6625 
  293300    300.62008   -1164.3331    6318.8186    11576.772    1966.2387 
  293400    293.79929    -1158.094    6349.5752    11468.052    1975.4846 
  293500    297.86781     -1156.13    6488.3774    11695.736    1996.0674 
  293600    299.76917    -1161.033    6320.8948     11563.97     1864.428 
  293700    299.52641   -1168.3637    6403.9885    11634.547    1879.1126 
  293800     297.0616   -1169.0324    6543.5628    11720.796    1915.4883 
  293900    298.84547   -1162.6451    6444.1289    11665.859    1870.4813 
  294000    293.30467   -1166.2449    6461.4301    11561.189     1990.397 
  294100    301.56154   -1166.5157    6286.1491    11562.033    1926.5265 
  294200    298.90158   -1158.6271    6473.5421    11700.489    1948.1859 
  294300    301.32488   -1158.1876    6552.5405    11831.697    1955.5301 
  294400    298.26302   -1158.2054    6382.7801    11596.506    1922.1558 
  294500    301.16785   -1161.8946    6316.3919    11588.486    1926.6389 
  294600    298.10061    -1156.667    6408.6499    11620.445    1928.8378 
  294700    300.09696   -1164.7834     6470.472      11716.8    1919.8654 
  294800    299.55984   -1159.6919    6495.6422    11735.587    1927.1906 
  294900    304.11735    -1159.744    6378.9198    11716.176    1891.9368 
  295000    298.08672   -1159.1206    6456.9295    11665.974    1948.1663 
  295100    307.15411   -1153.3893    6468.5857    11877.073    1965.1879 
  295200    294.49305   -1159.2869    6361.8113    11493.917    1888.0394 
  295300    303.76774   -1158.5451    6447.5106    11778.497    1984.8226 
  295400    302.46487   -1159.1747     6467.743    11770.266    1926.1334 
  295500     296.4876   -1157.8285    6442.2542    11618.428    1929.1069 
  295600    295.86881   -1161.4474    6499.9771    11659.313    1949.5306 
  295700    300.02199   -1163.3556    6426.7924    11672.946     1921.962 
  295800    300.47236   -1166.2213    6394.5962    11647.506    1914.2793 
  295900     298.4125   -1165.4815    6400.0526    11609.696     1930.308 
  296000    301.02128   -1157.9578    6432.3744    11705.274    1930.4313 
  296100    299.67396   -1157.2613    6339.7963    11584.609    1888.1477 
  296200    296.08752   -1164.7246    6336.6958    11497.427    1917.9176 
  296300    299.30582   -1157.6978    6443.9827    11680.495    1975.7577 
  296400    298.59641    -1165.072    6415.0893    11629.071    1926.8707 
  296500    295.05242   -1165.5375    6361.2755     11499.08    1880.4341 
  296600     301.4151   -1166.6719    6394.7518    11667.351    1926.2675 
  296700    306.82466   -1168.5413    6452.9486    11839.245      1960.41 
  296800    300.24567    -1168.384    6377.8991    11623.803    1898.7458 
  296900    299.45647   -1163.2815    6471.1122    11705.259    1900.7082 
  297000      302.299   -1163.8299    6571.3413    11865.666    1988.7059 
  297100    298.36845   -1164.0028    6329.4812    11539.662    1889.4598 
  297200    300.03611    -1166.625    6330.9927    11574.179    1942.6042 
  297300    295.05091   -1160.9852    6375.8866    11518.212    1821.3324 
  297400    303.98482   -1164.4186    6531.8768    11861.627    1817.4534 
  297500    306.67969    -1162.769    6489.7629    11878.735    1894.2021 
  297600    297.81807   -1158.4648    6370.6249    11574.586    1869.9053 
  297700    301.95987   -1158.8492    6374.3392    11666.399    1869.2474 
  297800    300.94758   -1160.3982    6536.9888    11805.874    1924.5289 
  297900    296.20204   -1152.6245    6420.7723     11596.05    1843.9956 
  298000    296.41137   -1154.2536    6352.8414    11530.962    1920.8638 
  298100     305.3275   -1154.0123    6388.1054    11756.947    1895.6666 
  298200    300.70557   -1159.3301    6489.8487    11754.632     1848.138 
  298300    299.76394   -1155.5576    6464.2691    11712.708     1888.179 
  298400    298.21367   -1150.5609    6424.0024    11644.319    1912.3991 
  298500    301.74398    -1156.973    6369.9965    11659.321    1896.0737 
  298600    293.78101   -1154.0565    6539.2833    11661.407    1983.2208 
  298700    299.17197   -1155.7653    6342.0266    11577.611     1837.111 
  298800    300.15669   -1160.1882    6430.9959    11683.195    1892.4279 
  298900    300.00786   -1159.3919    6548.7934    11798.609    1959.1523 
  299000    299.27465   -1157.4557    6334.9486    11571.037    1925.4686 
  299100    303.32615   -1162.3909     6388.865    11706.572    1952.1432 
  299200    296.25792   -1157.9623    6506.0388    11677.172    1973.6129 
  299300    303.27643   -1162.1554    6374.7582    11691.638    1856.6534 
  299400    300.07412   -1166.5364    6423.0482    11667.135    1903.9972 
  299500    297.67764   -1162.8028    6408.1996    11604.823    1923.7991 
  299600      296.653    -1163.105    6445.7416    11620.173    1833.3131 
  299700    297.17202   -1168.2538    6417.7398     11598.11    1889.2443 
  299800     298.9694   -1166.5016    6432.9635    11653.484    1945.3442 
  299900    299.56577   -1157.8161    6502.8437    11744.791    1898.8838 
  300000     300.1728   -1170.7474     6470.436     11712.42    1891.0316 
Loop time of 283.267 on 8 procs for 300000 steps with 7168 atoms

Pair  time (%) = 137.414 (48.5105)
Bond  time (%) = 80.9806 (28.5881)
Neigh time (%) = 19.6086 (6.92228)
Comm  time (%) = 30.5382 (10.7807)
Outpt time (%) = 0.452196 (0.159636)
Other time (%) = 14.2734 (5.03885)

Nlocal:    896 ave 900 max 893 min
Histogram: 2 1 1 0 1 0 0 1 1 1
Nghost:    2841.75 ave 2850 max 2834 min
Histogram: 1 1 0 1 1 2 0 0 0 2
Neighs:    23634.9 ave 23930 max 23313 min
Histogram: 1 1 0 1 1 0 2 0 0 2

Total # of neighbors = 189079
Ave neighs/atom = 26.3782
Ave special neighs/atom = 157.056
Neighbor list builds = 3051
Dangerous builds = 0
unfix           NVT
# −−−−−−−−−−−−−−− Equilibration in nve −−−−−−−−−−−−−−−−−
fix             NVE all nve
run             300000
Memory usage per processor = 11.5453 Mbytes
Step Temp E_pair E_mol TotEng Press 
  300000     300.1728   -1170.7474     6470.436     11712.42    1891.0316 
  300100    305.47303   -1172.3295    6358.8086    11712.442    1914.3622 
  300200    300.62212   -1172.2905    6462.3401     11712.38    1920.1081 
  300300    303.94389    -1171.774    6390.8769    11712.398    1937.7208 
  300400    297.88795   -1162.7728    6511.2744     11712.42    2009.7301 
  300500    299.79061    -1162.554    6470.4058    11712.418    1886.8352 
  300600    302.70708   -1164.4951    6409.9305    11712.308    1951.0977 
  300700    301.48299   -1163.5995    6435.2869    11712.409     2024.666 
  300800    300.78323   -1167.7301    6454.2771    11712.319    1929.0162 
  300900    297.87112   -1160.3697     6509.076    11712.266    1878.6245 
  301000     301.3293   -1166.6077    6441.4455    11712.276    1901.3163 
  301100    301.71072   -1161.3787    6427.9935    11712.201    1915.7522 
  301200    301.20166    -1157.817    6435.3353     11712.23    1933.1379 
  301300    297.58662   -1154.1523    6508.8323    11712.161    1995.5831 
  301400    297.70243    -1157.993    6510.1218    11712.084    1963.8394 
  301500    300.63935   -1157.8906    6447.2356    11712.044    1935.5521 
  301600    301.77513   -1153.2661    6418.3818    11712.078    1906.7992 
  301700     304.4091   -1156.9788    6365.8044    11712.059    1908.7451 
  301800    298.72424   -1153.3739    6483.7346    11712.146    1959.2749 
  301900    303.49579   -1156.5566    6385.0443     11712.21     1893.033 
  302000    300.37423   -1158.6912    6453.7752    11712.119    1884.7932 
  302100    301.69056   -1156.1084     6423.131    11712.179    1893.0143 
  302200    302.26972   -1157.1934    6411.9254    11712.261    1925.7346 
  302300    299.91025   -1152.1617    6457.2312    11712.192    1900.4337 
  302400    302.41184   -1156.9971     6408.585    11712.153    1857.5155 
  302500     297.7516   -1154.4814    6505.6636    11712.188    1940.8732 
  302600    301.11447   -1156.5243    6435.9205    11712.245      1868.39 
  302700    300.65314   -1165.3924    6454.6699     11712.27    1857.7701 
  302800    299.36009   -1161.2261     6478.118    11712.261    1938.1003 
  302900    300.99579   -1168.3791    6450.3812    11712.315    1891.9431 
  303000    300.61197   -1165.6691    6455.9477    11712.392    1895.0046 
  303100    302.38911   -1168.6532    6421.0582    11712.484    1942.8733 
  303200    302.33228   -1167.0436    6420.6173    11712.439    1946.2502 
  303300     303.8189   -1170.9765    6392.7773    11712.425    1832.5037 
  303400    298.26069   -1162.8024     6503.379    11712.459    1893.9358 
  303500    302.08535    -1159.965    6418.8518    11712.477    1963.7314 
  303600    303.06696    -1160.428    6398.3318    11712.464     1906.082 
  303700    298.14448   -1162.6247    6505.6391    11712.414    1891.2539 
  303800    303.65682   -1170.2459    6395.5862    11712.502    1897.1025 
  303900    296.10099   -1162.9724    6549.6269    11712.398     1901.946 
  304000    300.87832   -1168.1504     6452.764    11712.417    1848.9986 
  304100    300.26673   -1167.0569    6464.7006    11712.382    1881.5266 
  304200    300.53476   -1163.0343    6454.8809    11712.311    1888.3452 
  304300    301.34105   -1162.2842      6436.88    11712.285    1947.9069 
  304400    300.41924   -1159.6685    6453.9554    11712.283    1941.4305 
  304500    298.33385   -1152.9977     6491.802    11712.249     1929.034 
  304600    306.27975   -1156.4319    6325.3377    11712.103    1934.0013 
  304700    303.84303   -1158.5646    6379.5436    11712.119    1930.6841 
  304800    299.28144   -1159.3608     6477.837    11712.165    1889.0568 
  304900     299.1632   -1161.2016    6482.1484    11712.109    1809.8553 
  305000    302.31486   -1158.4617      6412.13    11712.161     1853.543 
  305100    303.16113   -1154.2151    6389.7129     11712.07    1900.2274 
  305200    304.72061   -1155.0568    6357.2045    11712.036    1896.8712 
  305300     297.5557   -1152.4759    6507.7167    11712.062    1886.3719 
  305400    298.69293    -1156.461    6487.4089    11712.064    1969.1292 
  305500    300.06117    -1152.794    6454.5613    11712.114    1918.3074 
  305600    303.10041   -1158.1353    6395.0843    11712.224    1949.5013 
  305700    301.91207   -1157.5814    6419.7879    11712.094    1928.6376 
  305800    297.48984   -1162.8818    6519.6343    11712.167    1933.4572 
  305900    302.16432   -1162.1909    6419.1718    11712.258    1905.1881 
  306000    302.96868    -1163.287    6403.0169    11712.191    1919.2066 
  306100    305.01395   -1158.7087    6354.7314    11712.178    1904.6115 
  306200    299.57787   -1155.9401    6468.2498    11712.331    1920.6421 
  306300    302.80476   -1163.1849     6406.614    11712.388    1941.5829 
  306400    301.57397   -1162.6443    6432.3751    11712.396    1899.7984 
  306500    299.98688   -1166.8991    6470.5161    11712.376    1971.4163 
  306600    303.14532   -1163.8445    6400.0214    11712.412    1933.3865 
  306700    299.57708   -1167.4456    6479.8329    11712.392    1885.2647 
  306800    300.23925   -1163.5112    6461.8128    11712.452    1881.9187 
  306900    303.58581   -1164.9827    6391.7668    11712.429    1922.0927 
  307000    297.00196   -1162.8794    6530.3767    11712.488    1938.9231 
  307100    302.71754   -1164.0936    6409.4134    11712.416    1854.7936 
  307200    300.99424   -1163.5919    6445.7223    11712.411    1886.2292 
  307300    295.63899   -1158.8043    6555.3167    11712.386    1941.1512 
  307400    303.56112   -1162.5995    6389.8042    11712.322    1921.8012 
  307500    299.52792   -1163.8366    6477.2332    11712.351     1923.707 
  307600     302.9401   -1162.2228    6402.6751    11712.303    1946.4208 
  307700     297.9438   -1160.0014    6507.1668    11712.278    1948.0757 
  307800    298.40764   -1160.8297    6498.1133    11712.305    1914.4887 
  307900    302.28051    -1160.229    6414.6843    11712.215    1955.4296 
  308000    301.17973   -1155.9254    6433.8331    11712.151    1902.5635 
  308100    300.02601   -1158.3265    6460.9567    11712.226    1863.1624 
  308200    304.14134   -1158.8458    6373.5147    11712.182    1873.6592 
  308300    298.56352   -1152.7471    6486.5908    11712.195    1854.6784 
  308400    297.17172   -1151.2613    6514.7453    11712.102    1875.7657 
  308500    304.26237   -1158.2651    6370.4082    11712.242    1976.9771 
  308600    299.22064   -1157.6713    6477.5275    11712.246    1881.3319 
  308700    297.54261    -1154.076    6509.7491    11712.214    1884.8651 
  308800    300.75264   -1158.9846    6446.0698    11712.204    1900.4461 
  308900    301.27398   -1162.2066    6438.1257    11712.175    1923.0555 
  309000    301.19051   -1167.3674    6445.1382    11712.244     1946.062 
  309100    300.36248   -1160.7371    6456.2408    11712.287    1955.8575 
  309200    298.72985   -1157.1347    6487.4977    11712.268    1895.2268 
  309300    299.04545   -1162.6799     6486.392    11712.359    1867.2116 
  309400    302.06949   -1166.0341    6425.1195    11712.337    1931.5112 
  309500    302.65451   -1166.6656    6413.2817    11712.365    1897.6057 
  309600    301.86638   -1161.8985    6425.3966     11712.41    1846.7759 
  309700    297.14216   -1167.8858    6532.2792     11712.38    1861.1868 
  309800      306.738   -1167.8872    6327.3908     11712.49    1833.7402 
  309900    299.78658   -1164.5929    6472.6347    11712.522    1902.8731 
  310000    303.28072   -1167.6369    6400.9599     11712.45    1930.3549 
  310100    303.08972    -1163.068    6400.4414     11712.42     1922.315 
  310200    299.74577   -1170.4368    6479.2361    11712.408    1904.8815 
  310300     303.5878   -1167.9028     6394.604    11712.389    1906.5661 
  310400    300.43165   -1164.8807    6459.0646    11712.445    1948.2976 
  310500    303.03877     -1169.33    6407.8429    11712.471    1851.2839 
  310600    299.94247   -1166.2176    6470.7343    11712.327    1814.0446 
  310700    303.61959   -1164.9159    6390.9143    11712.365    1909.2028 
  310800     301.2135   -1162.6565    6439.9405    11712.248    1908.4102 
  310900     299.5525   -1158.8003    6471.5007     11712.18    1933.0234 
  311000    299.62533   -1160.1181    6471.2879    11712.205    1972.8139 
  311100    304.79084   -1163.5386    6364.3706    11712.221    1939.5791 
  311200    297.50738   -1161.3353    6517.6438    11712.097    1921.7645 
  311300    299.45098   -1161.2366     6476.071    11712.145     1875.329 
  311400    302.48683   -1161.5156    6411.4292    11712.081    1905.0252 
  311500    299.43138   -1153.1021    6468.2397     11712.03    1880.2948 
  311600    300.89381     -1154.76    6438.6094    11711.984    1892.2445 
  311700    303.25287   -1156.4169    6389.9017    11712.017    1923.3733 
  311800    301.43386   -1158.7904    6431.2078    11712.089    1881.2635 
  311900     297.2286   -1152.4288    6514.7201    11712.124    1858.0212 
  312000    300.52261   -1153.3422    6445.3523    11712.215    1877.8973 
  312100    300.06903   -1156.3415      6457.92    11712.093    1890.4291 
  312200     297.0219   -1155.7038    6522.4611    11712.175     1887.333 
  312300    299.66703    -1158.444    6468.7288    11712.211    1881.6208 
  312400    300.93209   -1156.7336    6439.9699    11712.189    1939.9203 
  312500    300.33775   -1154.7166      6450.59    11712.129     1957.438 
  312600     298.2967   -1164.7125    6504.3279    11712.267    1926.5539 
  312700    303.45292   -1161.2181    6390.6854    11712.273    1913.4617 
  312800     301.2686    -1158.763    6434.9068    11712.285    1931.1508 
  312900    302.25304   -1167.9944    6423.1605    11712.339    1956.1069 
  313000    304.71909   -1166.0597    6368.4921    11712.288     1899.241 
  313100    299.39132   -1155.0659    6471.3934    11712.364    1891.7927 
  313200    299.86786   -1161.5986    6467.6623     11712.28    1972.9309 
  313300    303.85128   -1158.9651    6379.9578    11712.309    1939.1305 
  313400    296.87261   -1170.1392    6540.2655    11712.354    1955.0657 
  313500    304.08083   -1168.7411    6384.7483    11712.228    1860.9953 
  313600    296.92259   -1171.1881    6540.2426     11712.35    1903.9424 
  313700    298.76543   -1169.0598    6498.8396    11712.445    1916.8026 
  313800    302.81619   -1164.5479    6407.7611    11712.416    1893.6872 
  313900    297.09003   -1164.7442    6530.2529    11712.381     1961.502 
  314000    303.59521   -1161.0255    6387.4109    11712.231    1844.1495 
  314100    301.00292   -1163.7589    6445.6257    11712.332    1930.3253 
  314200    300.75341    -1164.167    6451.3815     11712.35    1945.7989 
  314300    303.76498   -1161.7491    6384.5511    11712.275    1922.8094 
  314400     300.5141   -1166.1069    6458.3229    11712.239    1927.2546 
  314500    301.25158   -1162.1479    6438.5832    11712.213    1905.8045 
  314600     297.2781   -1165.7303    6527.1742    11712.334    1919.0032 
  314700    300.42922   -1161.3277    6455.3804    11712.262    1915.7648 
  314800    300.70152   -1168.5807    6456.8846     11712.33    1950.1806 
  314900    299.52416   -1162.6951    6476.0957    11712.275    1922.7811 
  315000    301.41457   -1160.7628    6433.7475    11712.244    1904.3875 
  315100    302.17101   -1157.8263    6414.5682    11712.162    1941.6451 
  315200    299.50682   -1155.2582    6468.9603    11712.206    1971.6051 
  315300    303.58231   -1154.0374     6380.555    11712.088    1875.3479 
  315400    297.20141   -1155.4882    6518.3385    11712.102    1881.0621 
  315500    303.94349   -1161.8755    6380.8184    11712.229    1931.8808 
  315600    299.18959   -1158.0177    6478.5048    11712.214    1929.4478 
  315700    303.83954   -1162.6945    6383.8473    11712.218    1868.3543 
  315800    299.11059   -1166.0863    6488.2829    11712.235    1826.5508 
  315900    301.72171   -1171.1851    6437.6766    11712.313     1892.297 
  316000    300.03671   -1163.1665    6465.6191    11712.277    1906.6982 
  316100    303.66129    -1161.696    6386.6817    11712.243     1860.548 
  316200    298.94637   -1159.3693    6485.0247    11712.186     1935.732 
  316300    303.52007   -1157.2773     6385.187     11712.15    1992.5818 
  316400    300.80126   -1161.0226    6447.1054     11712.24    1945.8336 
  316500    302.05078   -1160.4977    6419.9095    11712.263    1908.8059 
  316600    298.97294   -1164.1896     6489.461    11712.369     1929.325 
  316700    301.21035   -1170.0456     6447.559     11712.41    1860.2216 
  316800    303.96902    -1170.901    6389.5002    11712.431    1914.6672 
  316900    300.62156    -1172.036    6462.1088    11712.391    1907.3671 
  317000    301.73288   -1166.8306    6433.1069    11712.336    1890.3975 
  317100    300.80218   -1164.5544     6450.753    11712.376     1980.914 
  317200    300.91637   -1167.0976    6450.9295    11712.448    2001.2734 
  317300    303.88396   -1165.1578    6385.5618    11712.419    1939.7744 
  317400    301.54478   -1168.5993    6438.9822    11712.424    1952.5807 
  317500    299.67938   -1161.0143    6471.1471    11712.323    1912.2292 
  317600    302.45531   -1158.9876     6409.926    11712.432    1893.3756 
  317700    304.38865   -1162.3379    6372.0072    11712.466    1894.7268 
  317800    296.32135   -1164.3102    6546.3794     11712.52    1948.6852 
  317900    304.67089   -1165.4738    6369.0211    11712.373    1914.6574 
  318000     299.6223   -1166.5973    6478.0554    11712.429    1971.7267 
  318100    301.98994   -1163.7076    6424.4823    11712.327    1904.4549 
  318200    303.68811   -1166.3245    6390.8073    11712.313    1888.5567 
  318300    301.57982   -1161.8436    6431.3912    11712.338    1991.1534 
  318400    303.15447   -1154.8956    6390.7447    11712.279    1919.6807 
  318500    299.49283   -1158.7709    6472.8293    11712.263    1919.2272 
  318600    301.80846   -1155.4622    6420.0604    11712.273    1937.0704 
  318700    300.48772   -1163.3458     6456.082    11712.195    1937.8569 
  318800    299.46223   -1160.8681    6475.5834    11712.266    1903.3354 
  318900    302.21455   -1166.0902    6421.8758    11712.136    1902.8429 
  319000     299.7966    -1158.289    6465.7593    11712.165    1919.4034 
  319100     301.3135   -1156.9028    6431.9964    11712.194    1937.7145 
  319200    302.40633   -1159.6044    6411.3614    11712.204    1894.7073 
  319300     299.8596   -1155.4128    6461.5233    11712.151    1827.3254 
  319400    302.32931   -1158.5499    6411.9372    11712.189    1868.5344 
  319500    298.66198   -1158.8137    6490.5115    11712.153    1876.6634 
  319600    303.39464   -1157.0347    6387.7429    11712.269      1872.63 
  319700    300.89468   -1156.0019    6440.1531    11712.304    1839.0152 
  319800    300.40562   -1164.3329    6458.9371    11712.309    1767.7802 
  319900    303.63207   -1165.8859     6391.621    11712.368    1798.7595 
  320000     299.6341   -1165.9779    6477.1696    11712.414     1903.979 
  320100    298.22625   -1166.1616    6507.3025    11712.287    1896.5318 
  320200    305.19867   -1165.1748    6357.4504    11712.377    1906.8915 
  320300    298.90879   -1160.0975    6486.7826    11712.413    1933.2645 
  320400    299.79345   -1159.5306    6467.2268    11712.323    1960.3708 
  320500    302.03306   -1153.7532    6413.6738    11712.393    1964.5574 
  320600    302.49596   -1162.1468    6412.1257    11712.341    1939.7572 
  320700    298.38188   -1163.5399    6501.5379    11712.469    1948.9643 
  320800    302.98314   -1171.1154    6410.8361    11712.491    1908.3185 
  320900    301.11769   -1169.5973    6449.1643    11712.485    1906.2527 
  321000     301.6721   -1166.8424    6434.5444    11712.464    1852.0282 
  321100     296.3388   -1164.3855    6545.9616      11712.4    1952.1226 
  321200    304.97904   -1160.9716    6357.9248    11712.362    1915.6049 
  321300    300.72142   -1163.3258    6451.2835    11712.409    1959.3584 
  321400    299.50622   -1162.7205    6476.5201    11712.291    1950.3684 
  321500     300.1115   -1156.9038    6457.8044    11712.322    1948.1708 
  321600    301.55832    -1168.571     6438.534    11712.294    1950.3046 
  321700    298.81546   -1161.1264    6489.7778    11712.385    1991.4256 
  321800    304.13325   -1167.2929    6382.3682    11712.415    1933.4115 
  321900    297.08289   -1167.3197    6533.0003    11712.401    1891.5816 
  322000    304.59725   -1164.9809      6370.06    11712.332    1897.6956 
  322100    298.27303   -1159.1331    6499.2847    11712.297    1905.4613 
  322200    301.78907   -1160.5592    6425.5592     11712.26    1844.1957 
  322300    299.34494   -1154.9711    6472.1687    11712.243    1974.0606 
  322400    304.05859   -1148.6512    6365.0522    11712.146    2002.8847 
  322500    302.44602   -1158.6226    6409.5491    11712.222    1962.9394 
  322600    298.90756   -1151.5371    6477.9887    11712.153     1943.678 
  322700    301.56788   -1160.8138    6430.4974    11712.219    1947.6555 
  322800    302.78873   -1160.2549    6403.8941    11712.256    1930.6569 
  322900    300.88609   -1165.0378    6449.3468    11712.279    1961.0695 
  323000    299.77343   -1167.2192    6475.2835    11712.264    1897.8839 
  323100    301.30561    -1165.388    6440.6332    11712.177    1871.4274 
  323200    300.15592   -1157.2762    6457.0613    11712.156    1863.4294 
  323300    298.41468     -1147.34    6484.3962    11712.228    1913.6145 
  323400    303.16682   -1150.7716    6386.2358    11712.158    1896.9582 
  323500    300.58244   -1157.5869    6448.2799    11712.176    1867.5563 
  323600    298.41738   -1156.8791    6493.8755    11712.226    1908.4959 
  323700    302.67225   -1164.5526    6410.7845     11712.36    1961.8039 
  323800     301.2549   -1167.8989     6444.413    11712.363    1911.4126 
  323900    299.11711   -1167.9286    6490.1146    11712.364     1826.943 
  324000    300.36949   -1166.1518    6461.6075    11712.389    1825.1703 
  324100     304.3121   -1169.5467    6380.7721    11712.387    1873.9717 
  324200    297.72086   -1165.2128     6517.218    11712.355    1872.6393 
  324300    302.95214   -1159.1545    6399.3713    11712.324    1891.6406 
  324400    302.21724   -1155.2107    6411.2857    11712.483    1924.0791 
  324500    299.25772   -1157.3587     6476.647     11712.47    1931.5979 
  324600     302.0845   -1165.7919    6424.6865    11712.466    1938.2617 
  324700    299.60217   -1166.0628    6477.9679    11712.446    1961.4769 
  324800    303.51042   -1173.1377    6401.5188    11712.415    1870.7584 
  324900    295.31682   -1174.2656    6577.7386    11712.464    1858.9627 
  325000    303.06767   -1169.9594    6407.7999    11712.416     1820.221 
  325100    299.36087   -1166.4669    6483.5731    11712.492    1909.7378 
  325200    302.38156   -1170.0832    6422.5669    11712.402    1932.1429 
  325300    303.16481   -1159.5875    6395.2893    11712.353    1993.1183 
  325400    303.84443   -1159.6478    6380.6941    11712.216    1974.5664 
  325500    300.67488    -1161.392     6450.243    11712.308    1889.4528 
  325600    301.91748   -1159.0501    6421.3828    11712.336    1884.5499 
  325700    302.52679   -1162.5183    6411.8171    11712.319    1907.6512 
  325800    301.60008   -1161.8322    6430.9994     11712.39    1910.6544 
  325900     297.9441   -1166.0565    6513.3867    11712.449    1912.8566 
  326000    300.30927    -1163.262    6459.8685    11712.253    1924.4079 
  326100    300.26652   -1165.6524    6463.1305    11712.212    1883.9963 
  326200    300.60488   -1162.8214    6453.1054    11712.246    1925.7232 
  326300     301.1765   -1154.7905    6432.8043    11712.188    1959.5517 
  326400    298.68301   -1152.5852    6483.8514     11712.17    1954.6748 
  326500    298.19987   -1154.0371    6495.6783    11712.224    1937.0881 
  326600    303.35132   -1159.9152    6391.4578    11712.178    1912.8326 
  326700    299.13096   -1155.6649    6477.4381    11712.247    1960.8304 
  326800    301.65782   -1154.1317    6421.8397    11712.164     1899.955 
  326900    298.73336   -1160.7401    6490.9309    11712.171    1907.3875 
  327000    298.61374   -1162.0103    6494.8095    11712.224    1918.7675 
  327100    302.82138   -1165.8794    6408.8003    11712.235    1886.3482 
  327200    301.35213   -1163.3124    6437.6219    11712.235    1927.2637 
  327300    300.31407   -1157.8113    6454.4134    11712.351    1961.0796 
  327400    297.09686   -1162.1718    6527.4536      11712.3     1961.299 
  327500    301.57296   -1159.1048    6428.7797    11712.318     1900.531 
  327600    299.44922    -1157.754    6472.7398    11712.259    1903.0964 
  327700    300.42668   -1161.1427    6455.2058    11712.218    1862.8296 
  327800    301.45537   -1163.0619    6435.2104     11712.28    1883.2158 
  327900    297.81981   -1166.1803    6516.0942    11712.377    1888.4657 
  328000    302.26719   -1168.0099    6422.8581    11712.323      1823.42 
  328100    300.63665   -1171.2971    6461.0162     11712.36     1881.328 
  328200    301.06748   -1172.9737    6453.5375    11712.409    1914.5507 
  328300     300.9595   -1169.2126    6452.1172    11712.443    1932.0273 
  328400    302.57182   -1167.5032    6415.9005     11712.38    1937.9537 
  328500    301.77813   -1158.6893    6424.0414    11712.379    1933.9111 
  328600    298.75567   -1160.5804    6490.4564    11712.333    1981.2746 
  328700    304.18601   -1157.6009    6371.4947    11712.361    1922.1623 
  328800    300.82037   -1165.5966    6451.4113     11712.38    1968.9067 
  328900    300.69897   -1165.9697    6454.3848    11712.387    1945.1512 
  329000    302.92782   -1169.1962    6410.0491    11712.441    1887.7693 
  329100    301.55411   -1170.6625    6440.7664    11712.345    1872.7341 
  329200    302.97092   -1162.2254    6402.0717    11712.355    1899.1449 
  329300     301.6184   -1166.1451    6434.9252    11712.394     1881.399 
  329400      299.988   -1162.3156    6465.9171    11712.385    1892.9234 
  329500    301.24268   -1154.0374    6430.7343    11712.285     1921.354 
  329600     300.0978   -1156.2885    6457.4466    11712.287    1978.6636 
  329700    300.61304   -1157.5898    6447.7395    11712.286    1954.2897 
  329800    300.29352   -1155.7857      6452.66    11712.185    1929.7593 
  329900    302.26426   -1156.5244    6411.3018     11712.19    1922.9811 
  330000    298.66741   -1163.9652    6495.5905    11712.196    1923.5642 
  330100    299.74235   -1161.4933    6470.2423    11712.284     1908.999 
  330200     300.7783   -1166.5823    6453.0916    11712.176    1898.1689 
  330300    300.87666   -1162.1958     6446.653    11712.225     1851.055 
  330400    302.64971   -1159.6986    6406.2613    11712.209    1883.1135 
  330500    300.00681   -1158.6982    6461.7386    11712.225    1858.3798 
  330600    300.08715   -1151.4285    6452.7132    11712.186    1912.4765 
  330700     301.5937   -1157.0913    6426.1557    11712.151    1921.8608 
  330800     299.5771   -1164.4875    6476.7467    11712.264    1916.4039 
  330900    300.94888   -1162.0905    6445.1265    11712.347    1897.7746 
  331000    299.32795   -1165.8925    6483.5034    11712.293     1848.101 
  331100    298.17346    -1168.476    6510.7699    11712.312     1902.172 
  331200     302.8182   -1166.8549    6409.9181     11712.31    1872.2815 
  331300    296.69009   -1168.2547     6542.298    11712.372    1897.6403 
  331400    303.19464   -1172.0599    6407.1301    11712.358    1812.3136 
  331500    300.08214    -1164.259    6465.8592    11712.395    1964.9499 
  331600    300.80416   -1165.3475    6451.5478    11712.419    1975.4995 
  331700    299.05256   -1157.7517    6481.3459    11712.393    1933.2927 
  331800    298.77314   -1168.9305    6498.6058    11712.505    1989.8316 
  331900    303.84966   -1164.6412     6385.817    11712.458     1939.839 
  332000    298.48046   -1162.1685    6498.0623    11712.471    1947.0061 
  332100    301.35999   -1164.9108    6439.1892    11712.372    1934.4962 
  332200    303.18863   -1171.8631    6407.0317    11712.328    1943.3902 
  332300    301.69799   -1168.7425    6435.8239    11712.396    1877.4751 
  332400    302.11184   -1164.0812    6422.2415    11712.316    1839.9188 
  332500    301.42118   -1157.8085    6430.6695    11712.262    1875.7422 
  332600    303.31043   -1158.8074    6391.2616    11712.216    1857.8274 
  332700    296.79873   -1162.6775    6534.2177     11712.19    1871.8569 
  332800    300.99143   -1160.5908     6442.563    11712.192    1894.3094 
  332900    304.24094   -1154.0962    6366.6475    11712.192    1896.4075 
  333000    300.79031   -1161.5602    6447.7178    11712.081    1887.4427 
  333100    298.54776   -1157.9947    6492.2032    11712.223    1872.5719 
  333200    300.15134   -1162.7409    6462.6376    11712.169    1903.0457 
  333300    295.65886   -1156.1142    6551.9498    11712.133    1912.4837 
  333400    304.79715   -1158.8496    6359.4392    11712.113     1876.846 
  333500    299.59215    -1156.207    6468.0007     11712.12    1914.1406 
  333600    298.97274   -1148.7835    6473.7113    11712.022    1912.0177 
  333700    301.15324   -1156.0032    6434.4105    11712.084    1949.4617 
  333800    302.46548   -1152.9451    6403.3078    11712.074     1859.305 
  333900    300.27357   -1162.8244    6460.0738    11712.133    1849.6983 
  334000    299.62465   -1161.8812     6473.062    11712.202    1878.9934 
  334100    301.67926   -1161.3215    6428.6758    11712.269    1945.8748 
  334200    301.19394   -1168.2949    6446.0642    11712.316     2016.658 
  334300    299.85218    -1160.959    6467.3724    11712.295    1871.5873 
  334400    300.98041   -1164.4915    6446.8097    11712.303    1852.3277 
  334500    298.09934   -1163.7912    6507.7444    11712.388    2002.6267 
  334600    299.98604   -1168.4325    6472.0768    11712.386    1901.8112 
  334700    301.23209   -1164.3853    6441.4586    11712.435    1876.1229 
  334800    300.85451   -1167.4348    6452.6748    11712.535    1954.5602 
  334900     299.6733   -1171.4065     6481.844    11712.498    1929.5068 
  335000    301.62032   -1179.8853    6448.7248    11712.495    1896.4155 
  335100    301.01069   -1165.2387    6447.0674     11712.46     1945.139 
  335200    298.05291   -1167.3553    6512.3689    11712.457    1902.7278 
  335300    304.97017   -1164.9697    6362.2671    11712.517    1822.7526 
  335400    301.31602   -1163.8077    6439.1038     11712.45    1894.3434 
  335500     303.4396   -1160.4479    6390.3854    11712.459    1911.7891 
  335600    298.28759    -1157.106    6497.0989    11712.449    1943.6837 
  335700    303.76097   -1163.0944    6386.1716    11712.464    1930.5935 
  335800    299.48682   -1166.7644    6481.1141    11712.426    1953.1971 
  335900     301.0199   -1168.2533    6449.8152     11712.39    1873.0798 
  336000    299.79964   -1167.1889    6474.7406    11712.311    1869.1502 
  336100    299.38996   -1161.0615     6477.314     11712.26    1938.1795 
  336200    302.31364   -1161.5397    6415.3208    11712.248    1887.7075 
  336300    299.48788   -1155.7779     6469.877    11712.198    1866.7637 
  336400    298.54652   -1157.0968     6491.231    11712.123    1857.6285 
  336500    300.42975   -1151.1292    6444.9544    11712.046    1794.8115 
  336600    302.15134   -1158.4105    6415.5281    11712.117    1831.2705 
  336700    302.30397    -1159.063    6412.8867    11712.084    1859.7198 
  336800    293.68733   -1155.4273    6593.3562    11712.108    1958.0135 
  336900    304.69455   -1154.5236    6357.3173    11712.125    1917.6053 
  337000      300.923    -1154.142    6437.5644    11712.181    1903.8845 
  337100    302.87315   -1155.5622    6397.3414    11712.199    1923.3966 
  337200    300.18037   -1156.8336    6456.1067    11712.166    1916.5856 
  337300    299.89237   -1158.9361    6464.3264    11712.131    1959.4234 
  337400    302.23723   -1159.0749    6414.4842    11712.244    1909.4831 
  337500    299.60427   -1162.6394    6474.2972    11712.243    1917.3487 
  337600    300.33901    -1156.314    6452.2825     11712.25    1933.4714 
  337700    301.84731   -1164.1567    6427.9717     11712.32    1952.7215 
  337800    302.86828     -1162.26    6404.2981    11712.354    1918.4142 
  337900     302.6109   -1168.4124    6416.0183    11712.423    1885.7946 
  338000    298.31518   -1169.3372    6508.6602    11712.369    1889.6009 
  338100    302.66755    -1163.377    6409.8304    11712.481    1936.9015 
  338200    301.67885   -1170.2325    6437.8403    11712.514    1930.7514 
  338300    304.51235   -1165.8459    6372.8311    11712.424    1891.3247 
  338400    299.18827   -1170.5769    6491.2869    11712.408     1840.217 
  338500    303.23743   -1171.1983    6405.4791    11712.483    1854.6936 
  338600    304.52872   -1174.6948    6381.4225    11712.517    1919.2087 
  338700    300.20077   -1163.4622    6462.5975    11712.464    1892.9268 
  338800    301.77005   -1168.9306    6434.4934    11712.417    1919.9886 
  338900    300.40936    -1160.268    6454.9633     11712.48    1980.9534 
  339000    303.11678   -1160.6067    6397.3428    11712.361    1879.9833 
  339100    297.91927   -1167.7796    6515.5164    11712.325    1876.5365 
  339200    301.28173   -1166.5555    6442.4799    11712.346    1918.6293 
  339300    301.10048    -1171.979    6451.8358    11712.407    1921.9095 
  339400    302.54409   -1164.5453    6413.4812    11712.326    1907.6277 
  339500    300.00024   -1155.5466    6458.7319     11712.23    1875.1766 
  339600    298.39723   -1155.0799    6492.4302    11712.149    1853.2726 
  339700    298.48315   -1158.7763    6494.2848    11712.143    1927.7896 
  339800    302.93314   -1157.0518    6397.3992    11712.049    1908.0187 
  339900    300.50042   -1150.7882     6443.123    11712.065      1970.74 
  340000    300.58504   -1153.8309    6444.4103    11712.118    1913.3744 
  340100    299.47993   -1155.6708    6469.8066    11712.065    1893.6454 
  340200    300.58815   -1154.1618    6444.6272     11712.07    1851.4569 
  340300    302.61569   -1155.1133    6402.2442    11712.051    1869.2484 
  340400     299.0293   -1158.6159    6482.3769    11712.063    1916.9127 
  340500    304.31723   -1154.9775    6365.7589    11712.052    1818.6762 
  340600    299.78633   -1158.0853    6465.7696    11712.159    1856.9054 
  340700    302.10764   -1159.3081    6417.3965    11712.155    1872.3792 
  340800    296.71025   -1159.2031    6532.5692    11712.125    1877.5622 
  340900    303.46292   -1157.3173    6386.4984    11712.201    1836.0794 
  341000     301.7391   -1165.0366    6431.0524    11712.209    1860.2974 
  341100    302.82684   -1156.9404    6399.7584    11712.249    1899.6799 
  341200    300.51044   -1163.7321    6456.0601    11712.272    1899.9538 
  341300    300.88592   -1159.8257    6444.3006    11712.441    1858.0518 
  341400    303.97993   -1167.9511    6386.2754    11712.389    1804.4303 
  341500    301.48903    -1168.946    6440.6228    11712.527    1880.8141 
  341600    302.34594   -1173.3764     6426.694    11712.475    1934.4035 
  341700    301.54324    -1170.177    6440.6618    11712.493    1942.6822 
  341800    302.46422   -1163.7741    6414.5676    11712.477    1931.9094 
  341900    303.27901   -1160.6456    6394.0652     11712.51    1944.9702 
  342000    302.91564   -1169.5085    6410.7856    11712.605    1900.3755 
  342100    300.83279   -1166.5077    6452.1984    11712.522    1912.6605 
  342200    301.96132   -1165.7596    6427.2775    11712.458    1909.2099 
  342300    299.41397   -1162.8673    6478.9002    11712.553    1883.8486 
  342400    301.11331   -1168.9864    6448.5273    11712.365    1858.7089 
  342500    299.66446   -1166.4236    6477.0292    11712.477    1945.7273 
  342600    301.30803   -1164.6189    6439.9221    11712.287    1902.2966 
  342700    300.02366   -1158.0495    6460.8363    11712.332    1906.0938 
  342800    301.84713   -1160.6569    6424.4471    11712.291    1910.1161 
  342900    300.81681   -1163.9876    6449.7528    11712.255    2000.9041 
  343000     300.4362   -1153.9307    6447.7654    11712.193    1913.0577 
  343100    300.14929   -1150.8959    6450.8633    11712.196    1883.9847 
  343200    299.71737   -1152.6476    6461.7927    11712.147    1904.6991 
  343300    304.24354   -1149.2359    6361.5722    11712.033    1824.2203 
  343400    302.25666   -1153.8897    6408.6976    11712.058    1797.9455 
  343500    298.92937   -1148.6858    6474.6526    11712.134    1843.7193 
  343600    301.62379   -1159.2066    6427.5573     11712.08    1845.8368 
  343700    303.44288   -1154.8287    6384.2582    11712.021     1875.317 
  343800     301.1036   -1155.8141     6435.291    11712.093    1915.3363 
  343900    299.85361   -1152.7489    6459.0162     11712.18    1932.3343 
  344000     301.2653   -1154.7028    6430.7603    11712.128    1863.0784 
  344100     299.7472   -1155.1674    6463.6816    11712.153    1918.1692 
  344200    304.15625   -1149.8347    6364.1503    11712.147    1871.4645 
  344300    297.19939   -1157.3373    6520.2659    11712.138    1884.3413 
  344400    302.21973   -1160.6186    6416.4265    11712.269    1909.1769 
  344500    299.17908   -1158.6683    6479.4272    11712.261    1928.9819 
  344600    297.82008   -1162.1355    6511.9308    11712.264    1849.0418 
  344700    302.18934   -1167.2836    6423.7428    11712.271    1843.7177 
  344800    300.22475   -1163.1863    6461.7942    11712.449     1890.659 
  344900    301.28962   -1168.4915    6444.2779    11712.377    1859.7573 
  345000    301.41925   -1170.2544    6443.3167    11712.422    1862.8489 
  345100     301.3823   -1166.7792    6440.7111    11712.502    1903.5231 
  345200    298.50275   -1171.8839    6507.4141    11712.583    1895.0764 
  345300      303.064   -1168.9559    6406.8699    11712.411     1904.211 
  345400    300.42187   -1163.5513    6457.9488     11712.45    1938.6826 
  345500    300.35401   -1168.9072    6464.8248     11712.52    1931.0298 
  345600     300.7592   -1166.7278    6453.9223    11712.453    1951.4463 
  345700    300.14677   -1159.2568    6459.5378    11712.456    1908.2127 
  345800     300.4707   -1163.7125    6457.0373     11712.42    1881.7473 
  345900      303.025   -1174.2392    6412.8836    11712.309    1921.8566 
  346000    303.81554    -1167.689    6389.5142    11712.378    1931.4611 
  346100    300.16465   -1160.8398    6460.5408    11712.258    1869.0917 
  346200    304.76242   -1160.4995    6362.0216    11712.304     1891.222 
  346300    297.16989   -1162.5916    6526.3201    11712.307    2011.4044 
  346400     304.5357   -1157.6904    6363.8496    11712.097    1880.1671 
  346500    300.08778   -1155.1091    6456.2501    11712.056    1888.2498 
  346600     302.7346   -1157.3952     6402.019    11712.084    1910.6143 
  346700    301.83608   -1159.7592    6423.5141     11712.02    1899.1406 
  346800    299.64168   -1154.1119    6464.7696    11712.043    1887.8373 
  346900    298.03172   -1152.3599    6497.3758    11712.006    1905.2233 
  347000     301.9431   -1153.2724     6414.735    11712.014    1885.1899 
  347100     299.3626   -1157.4695    6474.0885    11712.042    1845.2213 
  347200    300.55711   -1152.7163    6443.7388    11711.964    1868.8909 
  347300    299.51758    -1152.171    6465.4344    11711.997    1896.7065 
  347400    302.20374   -1156.1175    6411.9504    11711.952    1885.8424 
  347500    298.77105   -1155.8983    6485.2147    11712.101    1895.7662 
  347600    300.14449   -1152.6571    6452.5038    11711.973    1907.6958 
  347700    300.69364   -1157.6675    6445.8976    11712.088    1876.8744 
  347800    302.57781   -1159.4008    6407.5184    11712.228    1908.3942 
  347900    301.29245    -1161.995    6437.5308    11712.187    1903.9719 
  348000    300.16824   -1162.0499    6461.5491    11712.133    1837.8886 
  348100    302.42527   -1165.1913    6416.6228    11712.283    1853.1215 
  348200    301.26555   -1169.0806    6445.3404    11712.336    1918.7535 
  348300     299.6909   -1172.2143     6482.136    11712.358     1973.402 
  348400     302.6151   -1167.9607    6415.4153    11712.362    1900.4676 
  348500     299.3982   -1170.6343    6486.9258    11712.475    1940.6285 
  348600    303.26205   -1174.5875    6408.3102    11712.451    1946.7513 
  348700    297.46931   -1169.1381    6526.5632    11712.401    1957.7185 
  348800     301.5131   -1165.5718    6436.5432    11712.336    1882.4134 
  348900    300.82944   -1171.7318    6457.4839    11712.512    1949.5628 
  349000    300.05086   -1165.1981     6467.589    11712.517    1955.0215 
  349100    303.40079   -1169.3473    6400.0827    11712.428     1879.116 
  349200     300.7511   -1168.8486    6456.2364    11712.474     1952.984 
  349300    299.88867   -1175.3136    6481.1384    11712.486    1930.5532 
  349400    302.33441   -1167.6225    6421.1504    11712.439    1861.9855 
  349500     297.8887    -1166.826    6515.1894    11712.298    1933.1456 
  349600    302.18321   -1165.9941    6422.7013    11712.388    1899.1523 
  349700    299.95976   -1166.2953    6470.3963    11712.281    1940.6076 
  349800    301.73557   -1160.7421    6426.8598    11712.235    1952.9929 
  349900    300.00921   -1156.2072    6459.2269    11712.256    1966.5222 
  350000    301.53514   -1155.6029    6426.0408    11712.273    1913.0111 
  350100    299.72037   -1158.6324      6467.75    11712.183    1869.7047 
  350200    301.44847   -1162.9921    6435.1971    11712.189    1874.5749 
  350300    297.53626     -1157.41    6513.1526    11712.148    1893.8834 
  350400     303.3188   -1159.1433    6391.3022      11712.1     1828.732 
  350500    300.69831   -1155.4851    6443.5925    11712.065    1858.6983 
  350600    303.06647   -1156.6363     6394.127    11712.041    1859.4412 
  350700    300.49425   -1153.0335    6445.4503    11712.015    1905.9985 
  350800    299.19504   -1151.6342    6471.7242    11711.933    1861.0165 
  350900    302.63913   -1154.2844    6400.9374    11712.074    1941.6643 
  351000    301.48134   -1152.1206     6423.454     11712.02    1869.5343 
  351100    301.87953   -1153.1731    6416.0187    11712.039     1900.177 
  351200    303.20857   -1164.4039    6398.9305    11712.112    1909.3444 
  351300    300.91387   -1164.4423    6448.1752    11712.296    1923.4908 
  351400    302.84448   -1158.7027    6401.1066    11712.212    1894.1253 
  351500    301.12625   -1158.3238    6437.4065    11712.183    1888.9009 
  351600     301.8372   -1153.6212    6417.5613    11712.229    1904.3702 
  351700    301.19175   -1164.9722    6442.7028     11712.23    1906.9872 
  351800    303.50149   -1160.2139    6388.6346    11712.264    1896.1365 
  351900    300.79474   -1154.5463    6440.8448    11712.317    1908.7914 
  352000     299.0036   -1164.1786    6488.7712    11712.346    1867.6664 
  352100    302.99443   -1167.8139    6407.0721    11712.269    1906.1583 
  352200     303.0768   -1167.2562    6404.8585    11712.373    1987.1286 
  352300    299.42499   -1164.7806    6480.4169    11712.392    1912.6938 
  352400    301.42581   -1167.6269    6440.4467     11712.32    1874.8007 
  352500    306.82555   -1169.1965     6326.683    11712.344    1857.5124 
  352600    298.08709    -1155.983    6500.1345    11712.325    1929.4116 
  352700    302.76078   -1160.8465    6405.2439    11712.417    1878.4213 
  352800     303.5439   -1159.6153    6387.1874    11712.322    1896.8161 
  352900    300.62564    -1156.266    6446.1318    11712.271    1884.6514 
  353000    301.37068   -1166.9585    6440.9334    11712.297    1856.5556 
  353100    297.54656   -1160.0545    6515.7802    11712.351    1928.3179 
  353200     301.0054   -1163.1542    6444.8807    11712.245    1905.0579 
  353300    300.52576   -1164.4003    6456.4218    11712.293    1928.5101 
  353400    301.77917   -1160.9638    6426.1459    11712.231    1921.4108 
  353500    301.03449   -1163.2206    6444.3548    11712.274    1898.0828 
  353600    297.69506   -1154.6332    6507.0657    11712.231    1912.5907 
  353700     298.2846   -1152.3292    6492.2067     11712.27    1928.7639 
  353800    303.38417   -1155.9573    6386.7591    11712.139    1929.0837 
  353900    301.30763   -1161.9247    6437.1413    11712.192    1902.7734 
  354000    300.75169   -1159.9929    6447.0798    11712.185    1862.3743 
  354100    298.72854   -1158.8624    6489.1068    11712.121     1937.383 
  354200    302.30426   -1153.7696    6407.6627     11712.16     1884.094 
  354300    297.47499   -1158.0822    6515.1953     11712.21    1896.4097 
  354400    303.03083   -1157.7274    6396.0939    11712.155    1910.4917 
  354500    300.63228   -1151.4658    6441.0598    11712.141     1914.707 
  354600    300.59498   -1152.2953     6442.719    11712.174    1926.9541 
  354700    296.66412   -1166.0671    6540.5505    11712.257    1981.1751 
  354800    303.05302   -1161.0435    6399.0081    11712.227    1889.7125 
  354900    298.17254   -1157.7483     6500.019    11712.269    1920.2958 
  355000    302.52943   -1164.3314    6413.4712    11712.217    1902.2969 
  355100    300.14658   -1165.2777    6465.4332    11712.327    1913.9474 
  355200    300.63953   -1164.8117    6454.4234    11712.314    1943.6086 
  355300    299.39563   -1165.3802    6481.5805    11712.329    1971.3837 
  355400    304.41456   -1166.3661    6375.3454    11712.329    1900.1192 
  355500    298.95686   -1161.1181    6486.7468    11712.383    1952.0844 
  355600    304.77705   -1163.9013    6365.1675     11712.36     1906.394 
  355700    302.46263   -1161.5812    6412.2322    11712.301    1850.9971 
  355800    298.35295   -1168.4454    6506.9864    11712.394     1891.199 
  355900    303.14756   -1172.3094     6408.392    11712.365    1919.2817 
  356000    302.54463   -1164.5779    6413.4608    11712.285    1886.3683 
  356100     301.1758    -1168.358    6446.5437    11712.345    1880.8379 
  356200    300.75755   -1163.2746    6450.4138    11712.363    1910.4971 
  356300    300.41841   -1165.0685    6459.4223    11712.332    1907.9394 
  356400      301.089   -1159.7223    6439.7801    11712.362    1934.5054 
  356500    300.69959    -1158.389    6446.7052    11712.302    1920.3769 
  356600    295.52196   -1152.0587    6550.9046    11712.219     1984.568 
  356700    302.91376   -1158.9933    6399.9294    11712.224    1945.5395 
  356800    301.08043   -1157.0057    6437.2259    11712.342    1941.1387 
  356900    296.72337   -1160.7168      6533.93    11712.253    1962.8981 
  357000     304.0521   -1162.2492    6378.8992    11712.257    1912.6038 
  357100     298.3945   -1156.7452     6494.199    11712.195    1919.3294 
  357200    301.83109   -1154.6689    6418.6422    11712.131    1895.7495 
  357300    302.85483   -1158.9533    6401.1403    11712.216    1940.8868 
  357400    299.39635   -1159.6337    6475.6795    11712.189    1942.7022 
  357500     299.9524   -1157.4742    6461.5471    11712.096    1941.0254 
  357600    300.49792   -1159.1227    6451.5154     11712.07    1964.4336 
  357700    301.27801   -1158.1768    6433.9136    11712.079    1921.3216 
  357800    302.64771   -1158.1064    6404.5234    11712.021    1947.7625 
  357900     303.3595   -1163.4786    6394.6838    11712.015    1889.5099 
  358000    295.30626   -1157.1077    6560.5094    11712.167    1911.3483 
  358100    304.11685   -1158.5036    6373.6652    11712.151    1901.8519 
  358200    305.44367   -1163.9439    6350.8211    11712.212    1884.8174 
  358300    296.64414   -1164.4778    6539.3997    11712.269    1911.9841 
  358400    303.66255   -1164.7493     6389.759    11712.294    1873.1959 
  358500    296.99216   -1161.7113    6529.1015    11712.172    1936.0044 
  358600    301.98367   -1163.4404    6424.2509    11712.228     1966.853 
  358700    305.45981   -1163.0276    6349.6129    11712.265     1960.693 
  358800    297.51378   -1164.9437     6521.323    11712.305    2021.0124 
  358900    303.49187   -1164.4104    6392.9893    11712.217      1923.88 
  359000    299.54176   -1166.1614    6479.2367    11712.325    1938.9259 
  359100    300.95092   -1168.0676    6451.0434     11712.33    1930.5526 
  359200    300.19572   -1165.0394     6464.136    11712.318    1900.9967 
  359300    297.60036   -1162.6399      6517.22    11712.355     1884.661 
  359400     303.0932   -1164.7111    6401.9992    11712.409    1870.3497 
  359500    303.17255   -1166.2121    6401.7762     11712.38    1906.1966 
  359600    300.93491   -1159.7156    6443.0123    11712.309    1940.4388 
  359700    298.50036   -1161.0247    6496.3433    11712.321    1969.3397 
  359800    301.02396   -1159.6605    6440.9962    11712.251    1954.8539 
  359900    297.73212   -1163.3248    6514.9487    11712.214    1953.5683 
  360000    302.35441   -1159.0248    6411.9209    11712.234    1897.1883 
  360100    304.86099   -1161.2502    6360.4819    11712.119    1921.2122 
  360200    299.69579   -1161.1687    6470.8127    11712.185    1944.6997 
  360300    303.45436   -1163.3334    6392.5844    11712.088    1854.1842 
  360400    299.32159   -1160.0518    6477.6341    11712.129    1938.3924 
  360500    303.85633   -1155.4637    6376.2247    11712.185    1845.9048 
  360600    301.06751   -1157.6872    6437.9762    11712.134     1923.931 
  360700    299.37653   -1160.4211    6476.7683    11712.067    1899.8947 
  360800    300.98191   -1160.2095    6442.3342    11712.142    1852.6584 
  360900    303.38374   -1157.3242    6388.1624    11712.166    1901.7223 
  361000    300.25496   -1160.8443    6458.5758    11712.218    1971.7178 
  361100    299.87529   -1157.6831    6463.4222    11712.115    1976.4502 
  361200     303.9297   -1160.9573    6380.1978    11712.232    1963.6521 
  361300    298.47554   -1159.6045     6495.388    11712.255    1939.8591 
  361400    299.91395   -1161.5615    6466.5713    11712.211     1920.204 
  361500    301.91132   -1154.5774    6416.9344    11712.229    1920.0434 
  361600    302.46465   -1156.3057    6406.9438    11712.331    1906.5082 
  361700    299.69143   -1162.4339    6472.2859      11712.3    1885.0919 
  361800    302.14179   -1162.0687    6419.4635    11712.191    1848.8038 
  361900    301.68175   -1162.3856    6429.5919    11712.174    1877.6497 
  362000    300.99648   -1165.7245    6447.6576    11712.261    1889.0567 
  362100    302.20118   -1160.3122    6416.4724    11712.225    1916.8072 
  362200    298.31821   -1158.1125    6497.1224    11712.121    1892.0762 
  362300    300.99743   -1163.8594    6445.7168    11712.206    1899.3735 
  362400    302.91238   -1165.1153    6406.0762    11712.219    1972.7343 
  362500    303.52067   -1164.1383    6392.1174    11712.233    1917.6303 
  362600    297.78548   -1158.4909    6508.9511     11712.19    1870.8478 
  362700    299.68711   -1161.6464    6471.5148    11712.224    1893.7849 
  362800    303.03372   -1163.7402    6402.0633    11712.173    1838.0978 
  362900    301.58946   -1163.8598    6433.0109    11712.147    1790.5453 
  363000    298.59104   -1158.6304    6491.8768    11712.186    1891.9114 
  363100    304.71574   -1159.5087    6361.8961    11712.172    1902.0717 
  363200    300.42227   -1159.3505    6453.5261    11712.237     1868.152 
  363300    303.12103   -1165.1812    6401.7014    11712.236    1881.5105 
  363400    296.52444   -1161.3412     6538.772    11712.221    1913.8874 
  363500     301.5469   -1158.8818         6429    11712.205    1857.2082 
  363600    300.06761   -1161.3029    6463.1057    11712.287    1886.9369 
  363700    301.63121   -1161.9247    6430.3025    11712.266    1929.9018 
  363800    302.94065   -1160.1075    6400.5255     11712.28    1853.5911 
  363900     296.1976   -1154.7282    6539.1666    11712.246     1913.982 
  364000    303.54989   -1152.4084    6379.7678    11712.237    1936.9663 
  364100    299.70541   -1159.5941    6469.1532    11712.305    1915.8973 
  364200    300.77073   -1160.6694    6447.4849    11712.321    1927.3861 
  364300    299.82038   -1165.2261    6472.3974    11712.374    1903.9626 
  364400    303.74943   -1167.2749    6390.4751    11712.341    1821.2724 
  364500    300.36233    -1164.868    6460.4193    11712.332    1826.5789 
  364600    300.53886    -1164.354    6456.1446    11712.342    1840.9702 
  364700    300.30207   -1165.9063    6462.8079    11712.395    1866.4196 
  364800    300.59845   -1161.8716    6452.4018    11712.355    1933.5826 
  364900    305.42646    -1161.407    6348.7915    11712.352    1862.9308 
  365000    299.07369   -1160.7558    6483.9378    11712.432    1892.4901 
  365100    303.70717   -1168.5776    6392.6432    11712.303    1869.7037 
  365200    297.42598   -1157.6079    6515.8411    11712.283     1925.203 
  365300    299.67544   -1160.2636    6470.4677     11712.31     1905.874 
  365400    303.85835   -1168.3872    6389.1546    11712.235    1897.1322 
  365500    303.28845   -1166.1183    6399.0896    11712.264    1896.4051 
  365600     297.6058   -1164.9923    6519.4612     11712.36    1908.2611 
  365700    299.63649   -1165.7051    6476.7581    11712.327    1906.8639 
  365800    299.43703   -1159.0768    6474.3482    11712.284    1946.5824 
  365900    299.79371   -1162.0892    6469.6478    11712.191    2026.7683 
  366000    301.31327    -1154.406    6429.5175    11712.207     1983.518 
  366100    300.82795   -1156.2389    6441.6612     11712.15    1999.1837 
  366200    300.80393   -1163.4381    6449.3975    11712.174    1949.2435 
  366300    300.62349   -1156.7716    6446.5831    11712.171    1902.1564 
  366400    301.64419   -1162.1631    6430.1828    11712.185    1917.3186 
  366500    300.03289   -1164.1782     6466.625    11712.189    1954.6834 
  366600    300.31154   -1154.8599    6451.3635    11712.199     1938.632 
  366700    299.97539   -1162.2636    6465.9652    11712.216    1961.1091 
  366800    298.70616   -1165.5174    6496.3856    11712.267    1989.2926 
  366900    300.54888   -1163.4515    6454.9434    11712.258    1935.0066 
  367000    300.08239   -1159.5027    6460.9911    11712.288    1927.9654 
  367100    304.58458    -1158.063    6363.3767    11712.296    1885.3385 
  367200    300.76501    -1160.857    6447.8139     11712.34     1905.213 
  367300    300.20748   -1162.2133    6461.1242    11712.383     1915.017 
  367400    303.55508   -1168.2812    6395.7338    11712.441    1932.9335 
  367500       300.85   -1162.7753     6448.072    11712.495    1916.8491 
  367600    298.36608    -1163.423    6501.6654    11712.376    1928.0187 
  367700    301.13421   -1162.5831    6441.7768    11712.464    1956.6725 
  367800    298.50121   -1166.3824    6501.7869    11712.425    1949.6935 
  367900     302.9008   -1163.1961    6404.5343    11712.349    1877.3025 
  368000    301.21458   -1166.6602    6444.1119    11712.439     1962.553 
  368100    298.71673   -1167.0836    6497.8695    11712.411    1905.2688 
  368200    302.42576   -1169.0021    6420.5162    11712.376    1889.6208 
  368300    301.63776   -1171.9762    6440.1937    11712.246    1944.1551 
  368400    301.09557   -1164.6805    6444.5461     11712.31    1959.0637 
  368500    304.09712   -1162.4665    6378.1502    11712.252    1895.0807 
  368600    301.41125   -1164.0399    6437.0739    11712.223    1867.9715 
  368700    301.51281   -1170.8615    6441.7888    11712.286    1912.2762 
  368800    303.11864   -1166.4221    6403.0151    11712.258    1882.1867 
  368900    298.48458    -1162.442    6498.0626    11712.286    1886.1474 
  369000    305.53416   -1164.1996    6349.2154    11712.284    1907.4344 
  369100      299.544   -1163.2501    6476.2272    11712.275    1949.4957 
  369200    300.00395   -1157.9913     6461.091    11712.224     1887.586 
  369300    301.81925   -1164.9889     6429.379    11712.295    1948.6586 
  369400     299.3846    -1159.426    6475.7108    11712.177    1930.4899 
  369500    300.41162   -1156.8787    6451.2126    11712.167    1869.9761 
  369600    303.03375   -1156.9393    6395.2307    11712.143    1898.3179 
  369700    302.11719   -1160.5063    6418.3808    11712.145    1945.8473 
  369800    297.87966   -1160.0061    6508.3955    11712.131    1942.4308 
  369900    299.27588   -1161.1195    6479.7411    11712.192    1951.7781 
  370000    300.92998   -1161.5232    6444.8005    11712.185    1943.2639 
  370100    303.35632   -1164.0785     6395.511    11712.175    1888.1286 
  370200    297.45992   -1156.8409    6514.2801    11712.214    1883.7615 
  370300    304.11424   -1158.5203    6373.8362     11712.25    1852.2303 
  370400    299.79878   -1158.2349    6465.7458    11712.252    1891.5629 
  370500     302.7767   -1163.4729    6407.3254    11712.212    1843.7972 
  370600    301.16521   -1162.2258    6440.5142    11712.221    1933.9663 
  370700    300.42554    -1160.427    6454.5544    11712.258    1963.3366 
  370800    302.79958    -1162.034    6405.4576    11712.272    1875.7906 
  370900    301.69259   -1164.9759    6432.1125    11712.336    1983.6987 
  371000    300.29359   -1169.7825    6466.7862    11712.315     1945.706 
  371100    298.21648     -1166.21    6507.6733    11712.401    1940.2146 
  371200    305.16361    -1170.294    6363.3892    11712.447    1907.2228 
  371300    298.63464   -1163.0242    6495.6516    11712.498    1985.9771 
  371400    298.65467   -1166.9808     6499.053    11712.371     1952.654 
  371500    300.90016   -1165.7418    6449.8641    11712.393    1942.1856 
  371600     303.7131   -1165.5043    6389.5118    11712.372    1904.6397 
  371700    300.28471   -1163.0068    6460.2956    11712.411    1947.7635 
  371800    302.15092    -1164.723    6421.9925     11712.26    1889.4495 
  371900    299.38581   -1165.7967    6482.1166    11712.238    1945.0372 
  372000    301.50915   -1157.9621    6429.0219     11712.34    1953.4781 
  372100    303.03212    -1167.507     6405.874    11712.183    1868.8269 
  372200    303.64919   -1162.3967    6387.6021    11712.204    1856.6066 
  372300    297.84163   -1162.4119    6511.6663    11712.184    1946.7083 
  372400    305.49475   -1162.6323    6348.3558     11712.15     1922.111 
  372500    300.48524   -1162.4102     6455.099    11712.095    1909.0847 
  372600    303.58723   -1157.3252    6383.6457    11711.996    1860.9327 
  372700    300.18184   -1159.0623    6458.1037    11711.966    1891.9154 
  372800    302.67903   -1156.2032    6401.9176    11711.987    1938.9086 
  372900    301.08991   -1151.8596    6431.5327    11711.997    1887.2536 
  373000    300.35821   -1159.3831    6454.6841    11711.993    1915.2836 
  373100    300.06681   -1161.6533    6463.1877    11712.001    1903.1128 
  373200    301.08181   -1156.7669    6436.6257     11712.01    1881.5131 
  373300    300.78385   -1157.3066     6443.521        11712    1892.3687 
  373400    304.18451   -1157.5807    6371.1882    11712.043    1851.8895 
  373500    296.14505   -1153.8668    6539.2716    11712.089    1927.4236 
  373600    303.51176   -1159.8564    6387.9188    11712.125    1887.3912 
  373700     301.4935   -1156.5043     6427.686    11712.128    1883.5749 
  373800    298.34347   -1157.1506    6495.7084    11712.208    1904.8914 
  373900    298.88009   -1158.3184    6485.4028    11712.199    1896.3471 
  374000    302.46232   -1163.0192    6413.6953     11712.32    1927.2995 
  374100    299.65096    -1163.282    6474.0714    11712.372    1924.2132 
  374200    301.20343   -1164.4079    6441.9987     11712.34    1891.1236 
  374300    297.70859   -1167.5626    6519.8921    11712.417    1962.0223 
  374400    306.91373   -1169.0794    6324.8018    11712.463     1887.578 
  374500    300.19039   -1168.1458    6467.4599    11712.421     1934.741 
  374600    299.94402   -1170.1967     6474.687    11712.334    1874.7186 
  374700    299.11425   -1167.4376    6489.7655    11712.445    1851.2326 
  374800    299.77852   -1162.6188    6470.7359    11712.425    1915.5505 
  374900    305.93758   -1173.4339    6349.9591    11712.412    1964.8727 
  375000    299.42035   -1172.1192    6487.8921    11712.429    1926.0484 
  375100    297.30571   -1168.6667    6529.6692    11712.483    1931.4363 
  375200    303.95594   -1174.9829    6393.8786    11712.448    1979.4968 
  375300    299.50929   -1168.2739    6482.1016    11712.384    1948.3787 
  375400      302.317   -1163.5006    6417.3661    11712.404    1919.2314 
  375500     300.6391   -1165.9563    6455.7626    11712.499     1948.135 
  375600    299.84352   -1161.5803    6468.2747    11712.391    1991.0053 
  375700    303.77164   -1163.2628    6385.9681     11712.32    1992.1877 
  375800    302.20911    -1160.711    6416.7165    11712.239     1953.921 
  375900     297.8396    -1158.978    6508.4819     11712.39    1956.1472 
  376000    300.10166   -1164.9893    6466.0753    11712.297      1917.22 
  376100    304.15393   -1161.9772    6376.3813    11712.186    1924.0801 
  376200    299.58894   -1160.7182    6472.5741    11712.114    1951.3647 
  376300    298.01385   -1158.5072    6504.0518    11712.153    1979.2365 
  376400     300.8811   -1159.1114    6443.3899    11712.142    1954.1982 
  376500    301.02742   -1158.1242    6439.1997    11712.065    1922.9108 
  376600    304.61187   -1158.0245    6362.5487    11712.089    1943.0664 
  376700    296.98696   -1159.3635    6526.7534    11712.061    1968.8051 
  376800    303.83281    -1156.669    6377.8653    11712.118    1912.9441 
  376900     297.1568   -1156.7614    6520.5778    11712.115    1946.6087 
  377000     303.2357   -1155.0223    6388.8488    11711.992    1831.5164 
  377100    298.39853    -1149.641    6486.8565    11712.042    1929.1086 
  377200    302.02171   -1159.8767    6419.6874    11712.041    1899.4678 
  377300    301.15974   -1157.1679    6435.4486    11712.097    1889.5554 
  377400    297.15817   -1160.7111    6524.5684    11712.186    1883.3164 
  377500    300.10623   -1163.3037    6464.1636    11712.169    1916.8426 
  377600    300.00137   -1161.8811    6465.0599    11712.248     1916.308 
  377700    301.32703   -1162.2433    6437.1234     11712.27    1945.4085 
  377800    299.82685   -1166.6388    6473.6142    11712.316    1968.2721 
  377900    303.73234   -1164.8807    6388.4918    11712.386    1942.5075 
  378000    297.19391   -1160.9706    6524.2133    11712.335    1928.5525 
  378100    299.34638   -1162.5262    6479.8499      11712.4    1867.3885 
  378200     303.8326   -1169.3522    6390.8127    11712.378    1870.0695 
  378300    302.19122   -1170.6634    6427.2492    11712.437    1917.4723 
  378400    301.43774   -1163.9571    6436.6032    11712.401    1883.1008 
  378500    299.97311   -1167.8283    6471.7997    11712.437    1897.1959 
  378600    304.48527   -1170.6792    6378.2109    11712.392     1906.077 
  378700    303.05949   -1170.8903    6408.8393     11712.35    1910.2794 
  378800    299.30454   -1163.6358    6481.8651    11712.412    1934.4546 
  378900     300.4395   -1161.8943    6455.8428    11712.377    1923.1524 
  379000    298.79563   -1164.2687    6493.3036    11712.345    1888.6334 
  379100    304.25306   -1161.2102    6373.6687    11712.358    1855.2905 
  379200    300.95439   -1160.7829    6443.6538      11712.3    1952.1614 
  379300    300.03889   -1165.6009    6468.0776    11712.347     1954.449 
  379400    300.37544   -1165.3368    6460.6099    11712.333    1923.3386 
  379500     302.0452   -1165.8659    6425.3799    11712.246    1863.4989 
  379600    299.32499   -1160.9224    6478.5366    11712.233    1832.4822 
  379700     300.5489   -1160.2069    6451.6217    11712.181    1911.7688 
  379800    299.21655   -1163.9833     6483.845    11712.164    1907.1054 
  379900    302.64141   -1157.2597    6403.9339    11712.143    1916.4408 
  380000    300.90997   -1154.1577    6437.8138    11712.136    1883.0781 
  380100    297.29434   -1153.5494    6514.4285    11712.117    1962.4751 
  380200    302.94425   -1155.2882    6395.3486    11711.999    1915.1696 
  380300    296.55643   -1154.5649    6531.1622     11712.07    1981.7423 
  380400    301.81392   -1159.1264    6423.4151     11712.08    1955.7601 
  380500    301.10807   -1160.8255    6440.1844    11712.071    1963.1224 
  380600     296.8587    -1156.052    6526.2076    11712.086    1872.1771 
  380700     297.8078    -1159.027    6509.0569    11712.236    1920.1621 
  380800    301.00753   -1157.7175    6439.2897    11712.136    1899.4912 
  380900    302.75427    -1162.005    6406.3637    11712.239    1879.2658 
  381000    302.00179   -1167.1883    6427.6568    11712.273    1899.4308 
  381100    299.65774   -1164.7851     6475.404    11712.347    1891.0481 
  381200    299.00074   -1159.2696    6483.9769    11712.399    1896.8522 
  381300    302.91132    -1167.805    6408.9852    11712.416    1936.1271 
  381400    299.36685   -1166.8921    6483.8422    11712.464    1978.4169 
  381500    303.09494   -1163.9797    6401.3089    11712.488    1942.7946 
  381600    307.00886   -1167.2338    6320.8956    11712.435    1902.5052 
  381700    298.98292   -1169.9075    6495.1879    11712.592    1933.9049 
  381800    300.52011   -1174.2692    6466.6504    11712.532     1874.202 
  381900    300.55293   -1167.4431    6459.1476    11712.557    1966.7765 
  382000    301.85613    -1174.747    6438.5576    11712.504    1949.8387 
  382100    304.81999   -1167.1403    6367.6822    11712.553    1885.8633 
  382200    298.91607   -1163.2101    6489.8626    11712.536    1854.2432 
  382300    301.76525   -1170.3043    6436.0951    11712.542    1898.6291 
  382400    299.67397   -1171.5128    6481.9675    11712.529    1911.9477 
  382500    301.79307   -1170.8767    6435.9519    11712.421    1905.3991 
  382600    303.84684   -1165.9427    6387.1927    11712.472    1941.0716 
  382700    302.06324   -1169.7168    6429.0648    11712.466    1953.6757 
  382800    299.50298   -1158.0396    6471.9193    11712.301    1916.7776 
  382900    301.49703   -1161.7986    6433.0218    11712.245    1982.7247 
  383000    300.01316   -1166.0953    6469.0355    11712.261    1918.5398 
  383100     299.8559   -1162.7036     6469.023    11712.281    1917.5627 
  383200    301.67393   -1157.5337    6424.9805    11712.247    1949.7346 
  383300    303.03419   -1164.1646    6402.4126    11712.109     1967.105 
  383400    298.57521   -1159.8776    6493.4861     11712.21    1966.9931 
  383500    301.10406   -1161.7772    6441.3393    11712.188    1932.5945 
  383600    303.48489   -1155.5082     6384.203    11712.184    1934.3524 
  383700    294.96175    -1156.336    6567.1491    11712.218    1981.4818 
  383800    303.73411   -1157.1202    6380.4802    11712.173    1873.2662 
  383900     298.8157   -1154.7963    6483.2792    11712.222    1963.3976 
  384000    301.04177   -1158.1689    6439.1142    11712.241    1984.6853 
  384100    300.24464    -1158.607    6456.5868    11712.246    1914.7073 
  384200    298.40898   -1163.8309    6501.0042    11712.223    1895.1958 
  384300    303.21902   -1162.9862    6397.4867     11712.31    1956.6533 
  384400    303.25891   -1163.5641    6397.2108    11712.308     1929.324 
  384500    300.48211   -1164.7781    6457.7301    11712.291    1981.0742 
  384600    299.36985   -1161.5833    6478.3948    11712.389    2056.7083 
  384700    302.76881   -1163.1044    6407.2808    11712.368    1956.3961 
  384800    301.31183   -1164.0205    6439.3171    11712.362    1932.9557 
  384900    301.61893   -1166.5427    6435.3856    11712.469    2013.6152 
  385000    303.63446   -1170.1756    6395.9331    11712.442    1956.2913 
  385100    301.48331   -1168.0838    6439.7716    11712.416     1881.968 
  385200    301.54237   -1173.5705    6443.9975    11712.417    1938.5624 
  385300    306.21998   -1169.6187    6340.1813    11712.483    1949.7884 
  385400     299.7776   -1165.0806    6473.3272    11712.535    1895.1806 
  385500    300.71977   -1170.2584    6458.4225     11712.58    2010.0679 
  385600    302.71588   -1165.9991    6411.4564    11712.518    1944.3396 
  385700    301.44611   -1169.4596    6441.9992    11712.473    1944.5993 
  385800    298.07801   -1175.9129    6520.3964    11712.463    1995.5742 
  385900     303.0305   -1169.4894    6408.2436    11712.536    1948.2547 
  386000    301.61612   -1164.2472    6433.0799    11712.398    1921.9203 
  386100    298.10255   -1162.4692    6506.3851    11712.419    1942.9885 
  386200    300.05786   -1163.0478    6465.2033    11712.431    2005.6549 
  386300    305.10167   -1161.5214    6355.8114    11712.319    1940.4216 
  386400    297.70315   -1155.8005    6508.0846    11712.255    1966.1514 
  386500    302.61961   -1160.6813    6407.9181     11712.24       1926.6 
  386600    301.55735   -1161.0236    6430.9182    11712.205     1945.525 
  386700    300.93437    -1158.362     6441.583    11712.222    1897.7008 
  386800     298.1994    -1152.237    6493.8947     11712.23    1917.9636 
  386900    300.66193   -1157.9134    6446.8562    11712.124    1931.4707 
  387000    300.61349   -1155.8953    6445.8536    11712.104    1911.6056 
  387100    305.09287   -1157.1042    6351.3408    11712.078    1902.6031 
  387200    297.00659    -1155.652    6522.6419     11712.08    1947.4221 
  387300    296.97667   -1158.2916    6525.8724    11712.032    1873.8571 
  387400    300.23738   -1152.7289    6450.6838    11712.066     1939.843 
  387500    301.32536   -1160.7264    6435.4633    11712.091    1941.4782 
  387600     303.6467   -1158.2249    6383.4351    11712.156     1930.704 
  387700    296.09733    -1154.567    6541.1286    11712.227    1991.5384 
  387800    302.89476   -1164.0464    6405.4438    11712.279     1948.989 
  387900    302.46883   -1162.4998    6412.9696    11712.252    1959.3527 
  388000    301.35692   -1166.6997    6441.0645    11712.393    1955.1911 
  388100    301.35486   -1171.3393     6445.763    11712.408    1908.1879 
  388200    301.18917   -1166.4253    6444.4666    11712.486    1945.9414 
  388300    301.45693   -1166.9096    6439.1689    11712.424    1934.3197 
  388400    302.92211   -1171.0893     6412.017    11712.394    1994.3572 
  388500    301.34656   -1164.9561    6439.6629    11712.514    2018.2269 
  388600    302.48426   -1174.3215    6424.7409    11712.532    2002.4366 
  388700    300.04432   -1167.7992    6470.2847    11712.472    1959.6809 
  388800    300.04895   -1167.8969    6470.3517     11712.54    1921.9069 
  388900    301.59134   -1172.0034    6441.5146    11712.547     1983.652 
  389000    300.25303   -1172.1167     6470.196    11712.525    1976.7857 
  389100    299.57441   -1176.5535    6489.1783    11712.572     1963.033 
  389200    303.98127    -1172.987    6391.4032     11712.51    1988.6525 
  389300    304.54845   -1171.9126    6378.1902    11712.488    1950.6038 
  389400    299.07849   -1167.7948    6490.9721     11712.53     2008.787 
  389500    304.10424   -1159.1479    6374.9088    11712.481    1933.0714 
  389600    298.75758    -1160.285    6490.2115    11712.424    1952.2627 
  389700    302.80737    -1160.732    6404.0646    11712.347    1958.4776 
  389800    301.28739   -1156.9798    6432.7806    11712.344    2002.2444 
  389900    300.57462   -1163.1423    6454.0874    11712.261    1988.7981 
  390000    302.10989   -1161.1664    6419.2396    11712.188    1917.4992 
  390100    300.63717   -1158.0663    6447.6052    11712.191    1941.0015 
  390200    300.21263   -1160.0919    6458.6941    11712.184    1978.1033 
  390300    300.50526   -1160.1994    6452.4805    11712.115    1948.8346 
  390400    302.37458   -1155.8762    6408.2337    11712.127    1896.0991 
  390500    298.00473   -1154.3734    6500.0506    11712.091    1941.3244 
  390600    301.79212   -1150.8367    6415.5716     11712.06    1989.0332 
  390700    302.18404   -1149.7463    6406.1222    11712.074    1924.8917 
  390800    298.78531   -1152.2274    6481.2539    11712.116    1883.6491 
  390900    298.42485   -1154.9658    6491.7405    11712.164    1912.0321 
  391000    301.48621   -1158.5467     6429.885    11712.129    1882.9768 
  391100    296.09641    -1160.327    6546.9018     11712.22     1920.574 
  391200    300.82477   -1165.9618    6451.5429    11712.241    1944.7763 
  391300    302.10344    -1161.336    6419.6658    11712.306    1977.9458 
  391400    303.45299   -1162.7119    6392.2911    11712.387    1923.3883 
  391500    301.85293   -1163.8493    6427.5649     11712.34    1871.2755 
  391600    300.92658   -1164.7697    6448.3591    11712.424    1907.4259 
  391700    298.66645   -1163.2379    6495.2156    11712.528    1923.3482 
  391800     300.4906     -1164.16     6457.089     11712.45    1964.1897 
  391900    301.03608    -1163.902    6445.2946    11712.566    1973.1893 
  392000    298.69724   -1168.6597    6500.0221    11712.571    1975.3584 
  392100     302.9085   -1168.1796    6409.5479    11712.544    1968.5871 
  392200    302.04695   -1168.5864    6428.4171      11712.6    2006.9057 
  392300    301.20697   -1169.5406    6447.1989    11712.483    1909.4379 
  392400    299.02838   -1165.6042    6489.8551    11712.533    1947.8698 
  392500    302.89139   -1166.7777    6408.5175     11712.55    2032.1201 
  392600    301.59383   -1171.4479    6440.8225    11712.464    1996.7156 
  392700    300.32484   -1163.2881    6459.7157    11712.407    1999.1867 
  392800    301.04774   -1168.8912    6449.8756    11712.407    2022.0634 
  392900    300.80951   -1164.5092    6450.4839    11712.308    1967.3145 
  393000    301.79336   -1167.3841    6432.3383    11712.306    1979.2284 
  393100    301.13924   -1160.8549    6439.8151    11712.338    1985.6744 
  393200    302.32039   -1165.7817    6419.4995    11712.329    1978.4158 
  393300    300.70253    -1166.657    6454.9798    11712.371    1997.3199 
  393400    300.70995   -1158.6523    6446.6059     11712.16    1910.8722 
  393500    297.97786   -1159.3154    6505.5842    11712.109    1962.1714 
  393600    300.71942   -1157.3979    6445.1707    11712.182     1955.864 
  393700    300.73505   -1154.9989    6442.4817    11712.226    1971.3975 
  393800    304.73854   -1153.7619    6355.5733    11712.083    1895.0648 
  393900    297.84934   -1155.0041    6503.9907    11712.081    1935.8812 
  394000    300.10722   -1155.8506    6456.6413    11712.121    1875.9085 
  394100    298.02848   -1151.0228    6496.2594    11712.158    1956.0378 
  394200    303.63779   -1160.0294    6385.4435     11712.17    1947.0191 
  394300    298.75646   -1158.4673    6488.1567    11712.163    1930.3759 
  394400     300.4909   -1159.7598    6452.4999    11712.267    1890.8309 
  394500    299.36008   -1164.8904    6481.6933    11712.172    1838.2929 
  394600    299.72755   -1155.9013    6464.9063    11712.224    1853.6777 
  394700    302.16925   -1158.6689    6415.5414    11712.255     1914.368 
  394800    302.65716   -1160.6203    6407.1125    11712.298    2011.5319 
  394900    300.09704    -1163.482     6464.609     11712.24    1957.6868 
  395000    302.52566   -1167.1661    6416.4758    11712.306    1895.9308 
  395100    300.54014    -1164.865     6456.694    11712.408    1939.2151 
  395200    302.16493   -1170.2971    6427.4275    11712.421    1982.0553 
  395300    303.85487   -1167.7804    6388.9317    11712.544    1897.9117 
  395400    300.31634   -1170.6089    6467.3726    11712.562    1893.8747 
  395500    302.89626   -1173.7079    6415.3146    11712.521    1850.6114 
  395600    300.80928   -1171.1419    6457.3273    11712.514    1898.7942 
  395700    304.41494   -1167.3065    6376.4061    11712.458    1966.2174 
  395800    300.34368   -1166.4066     6462.561    11712.536    2019.0537 
  395900    299.93318   -1164.1454    6469.0034     11712.47    1949.8354 
  396000    301.70917     -1159.22     6426.133    11712.466    1962.5489 
  396100     301.9921   -1164.2726    6425.1111    11712.436    1957.7637 
  396200    300.99594   -1167.3984    6449.4944    11712.413    1976.2751 
  396300    301.77588   -1169.4305    6434.8529    11712.401    1958.1416 
  396400    301.65693   -1167.5512    6435.4827    11712.369    1999.1727 
  396500    300.20796   -1164.0966    6462.8876    11712.273    1996.8669 
  396600     303.4254   -1163.6806    6393.7819     11712.32     1947.629 
  396700    299.64941    -1160.658    6471.3788    11712.271     1949.118 
  396800    301.44421   -1161.2157    6433.5315    11712.209    1958.8113 
  396900    300.69202   -1151.5465    6439.8968    11712.174    1973.6261 
  397000    299.71016   -1154.0883    6463.3723    11712.132    1976.7454 
  397100    302.96967   -1157.9546    6397.5611    11712.089    1963.9368 
  397200    301.61671   -1158.1508    6426.6097    11712.037    1945.6361 
  397300     297.7752   -1156.1382    6506.7606    11712.133    1886.7372 
  397400    300.94991   -1159.5319    6442.2521    11712.053    1856.2552 
  397500     300.5817   -1160.0546    6450.6984    11712.111    1927.8183 
  397600    300.10822   -1157.6901    6458.3941    11712.056    1961.7171 
  397700    302.32908   -1161.8467    6415.1669    11712.117     1970.151 
  397800    298.62066   -1161.7048     6494.366    11712.233    1904.1044 
  397900    301.95137    -1154.816    6416.3095    11712.221    1903.9186 
  398000    301.82119   -1160.1718    6424.4022    11712.177    1822.1249 
  398100    300.91682   -1166.7163    6450.3656    11712.275    1879.9658 
  398200    302.45308   -1166.5598     6417.469    11712.355    1876.3855 
  398300     301.5544   -1168.9832    6439.1298    11712.394    1911.1153 
  398400    301.34282   -1159.5199    6434.1417    11712.349      1935.44 
  398500    299.68666   -1165.4812     6475.537    11712.401     1990.913 
  398600     301.1251   -1165.6928    6445.0841    11712.467    1953.6374 
  398700    303.48569   -1172.7417    6401.6681    11712.432    1912.1581 
  398800    302.88094    -1167.842    6409.7148    11712.459     1961.856 
  398900    297.58061   -1172.5053    6527.6405    11712.488    1941.4131 
  399000    301.76109   -1171.8494    6437.6995    11712.513    1907.8565 
  399100    302.07924   -1172.5647    6431.6191    11712.514    1957.0832 
  399200    304.23745   -1164.1428     6377.129    11712.553     1954.383 
  399300    301.70447   -1171.2473    6438.2309    11712.437    1943.8337 
  399400    299.64267   -1164.4193    6475.4832     11712.47    1985.1413 
  399500    301.37796   -1167.7001    6441.6797    11712.457    1961.8403 
  399600    299.66073    -1166.016    6476.5542     11712.33    1928.6881 
  399700    304.61525   -1165.2486    6369.9715     11712.36    1935.8837 
  399800    298.71008    -1160.976    6491.7916    11712.298    1953.9339 
  399900     298.9842   -1161.9925    6486.8772    11712.223    1918.7253 
  400000    302.44269   -1163.1353    6414.1024    11712.191    1957.3899 
  400100    301.57256   -1161.4268      6431.04    11712.248    1945.8445 
  400200     298.9743    -1162.963    6487.9871    11712.151    1959.4476 
  400300    300.59627   -1162.4625    6452.7781    11712.094    1889.9538 
  400400    297.21084   -1152.8458    6515.5297    11712.138    1927.6234 
  400500    301.92271   -1154.1642    6416.1082     11712.06    1926.6132 
  400600    296.98872   -1151.3471    6518.8156    11712.177    1907.2053 
  400700    301.92085   -1157.0679    6419.0111    11712.019    1920.4388 
  400800    299.88469   -1147.8786    6453.3569    11712.055    1946.5556 
  400900    302.12568     -1157.71     6415.272    11712.014    1911.6431 
  401000    299.07079    -1157.301    6480.2031    11712.091    1917.5829 
  401100    300.57087   -1153.5805    6444.3979    11712.053    1869.9483 
  401200    302.32456    -1159.805    6413.2204    11712.116    1876.7862 
  401300    303.63209   -1163.7524    6389.1214    11712.003    1859.5153 
  401400    298.31676   -1160.5002    6499.5432    11712.123    1928.4881 
  401500    300.77252   -1155.8236     6442.397    11712.117     1904.219 
  401600    300.14075   -1160.1295     6460.263     11712.18    1937.6002 
  401700    300.92641   -1158.6225    6442.0135    11712.222    1926.6674 
  401800    300.03429   -1154.4336    6456.9373    11712.276    1939.0678 
  401900     301.1865   -1166.7919    6444.7661    11712.362    1930.5579 
  402000    301.07643   -1172.4514    6452.8044    11712.389    1946.0142 
  402100    301.49568   -1169.5977    6441.0408    11712.436    1919.8741 
  402200    301.56093   -1171.4344     6441.535    11712.487    1848.6456 
  402300    299.16598   -1172.3067    6493.5712    11712.487    1905.0202 
  402400    305.06157   -1168.6459    6363.9745    11712.501    2009.8088 
  402500     297.6438   -1158.3697    6512.1139    11712.447    2020.2424 
  402600    301.85317   -1163.3042     6427.148    11712.474    1928.4668 
  402700    301.80914   -1166.7931    6431.4929    11712.389    1930.6584 
  402800    304.18331   -1174.3326    6388.3655    11712.443    1875.4449 
  402900    301.75945   -1165.8909    6431.7241    11712.461    1833.6342 
  403000    300.78819   -1172.7616    6459.4151    11712.532    1865.0733 
  403100    300.79066   -1170.4989    6457.0736    11712.506    1899.6089 
  403200    301.33609   -1169.0823    6443.9133    11712.414    1878.1506 
  403300    300.72238   -1160.9982    6448.9425    11712.417    1894.7746 
  403400    305.28827   -1158.0562    6348.4003     11712.36    1881.6332 
  403500    301.15116   -1159.1538     6437.833    11712.311    1913.6778 
  403600    298.25079    -1159.154    6499.7046    11712.221    1912.0324 
  403700    303.40358   -1158.0186    6388.3861    11712.119    1946.9125 
  403800     301.5712   -1159.6351    6429.1563    11712.127    1946.2653 
  403900    302.73502   -1157.3655    6402.0304    11712.134    1915.4298 
  404000     299.2087   -1153.0524    6473.0967    11712.179     1880.991 
  404100    300.53509   -1153.6346    6445.3364    11712.173    1863.8649 
  404200    301.66291   -1154.8479     6422.407    11712.124    1920.0345 
  404300     302.1578   -1148.5649    6405.5182    11712.091    1869.6131 
  404400     300.7955   -1153.0528    6439.1798    11712.161    1886.7057 
  404500    297.82629   -1155.3702    6504.9215    11712.153    1847.9012 
  404600    300.75025   -1154.6315    6441.6186    11712.055    1830.1242 
  404700    299.56942   -1155.2669    6467.5779    11712.152    1925.1667 
  404800    304.24495   -1157.6475    6369.9943    11712.073     1860.221 
  404900    296.41196   -1160.0957    6539.8636    11712.155    1906.4254 
  405000    302.29874   -1163.9803    6418.0016     11712.17    1846.6668 
  405100    299.18597   -1162.0271    6482.5928    11712.215    1893.7888 
  405200    302.85762   -1153.7435    6395.9425    11712.287    1917.5561 
  405300    299.92266   -1157.4829    6462.3605    11712.265    1995.6237 
  405400    300.34214   -1159.3221    6455.3414    11712.368     1957.654 
  405500    302.48911   -1163.5009    6413.5823    11712.297    1890.4192 
  405600    299.71076   -1166.9247     6476.448    11712.384    1937.1765 
  405700    301.42983   -1170.3267    6443.2255    11712.485    1902.8176 
  405800    300.58815   -1167.6615      6458.61    11712.553    1880.8714 
  405900    297.29146   -1173.0669    6534.3931    11712.502    1871.5823 
  406000    301.99179   -1169.7281    6430.6539    11712.517    1957.3495 
  406100     305.5813   -1169.1092    6353.3835     11712.55     1964.122 
  406200    297.24108   -1161.9565    6524.4244    11712.568    1922.5789 
  406300     300.6535   -1165.5955    6455.0184    11712.424    1885.4426 
  406400    306.74093   -1165.5041    6324.8752     11712.42    1884.0519 
  406500    297.16435   -1166.3653     6530.422    11712.517    1956.4533 
  406600    303.72061   -1165.5617    6389.4725    11712.436    1870.4426 
  406700     300.0128    -1169.115    6472.2601    11712.458    1862.8436 
  406800    299.65285   -1168.8799    6479.6779    11712.421     1826.995 
  406900    300.49761   -1168.7211    6461.4099    11712.359     1937.619 
  407000    303.19447   -1164.0953    6399.1015    11712.291    1967.6133 
  407100    301.95189   -1163.4037    6424.9012    11712.236    1905.9148 
  407200    301.01941    -1159.013    6440.4215    11712.226    1893.2664 
  407300    300.62823   -1156.2094    6445.9351    11712.187      1945.89 
  407400    302.14714   -1155.5824    6412.7807    11712.108    1912.3729 
  407500    299.70439    -1159.663    6469.1729    11712.234    1973.4503 
  407600    299.39395   -1161.2262    6477.3843    11712.251    1954.2532 
  407700     297.1815   -1158.9329    6522.3458     11712.24    1959.5919 
  407800    301.95306    -1158.529    6420.0085    11712.243    1948.2758 
  407900     303.4629   -1161.6105    6390.6891    11712.098    1894.3135 
  408000    300.94135   -1163.5689     6446.493    11712.074    1911.5141 
  408100      301.523   -1160.8074    6431.3408     11712.11    1852.2971 
  408200    298.90854   -1159.6967    6486.0702    11712.096    1894.2905 
  408300    303.15382   -1160.1053    6395.8107    11712.122    1910.1841 
  408400    299.79544    -1153.878    6461.4141    11712.206    2008.2112 
  408500    302.75598   -1156.2082    6400.5135    11712.222    1994.3144 
  408600    299.90333   -1155.8527    6461.1086     11712.23    2027.2669 
  408700     300.7799   -1159.3682    6445.9777     11712.31    1985.6188 
  408800    298.69905   -1162.3029    6493.3064     11712.25    1975.1069 
  408900    301.32678   -1162.8478    6437.6963    11712.233    1882.5293 
  409000    302.10325   -1164.2858    6422.5465    11712.233    1898.2213 
  409100    301.97754   -1160.5434    6421.5674    11712.311    1916.6242 
  409200    300.15889   -1159.8471    6459.6821    11712.269    1931.8364 
  409300    299.67167   -1161.7359    6471.8716    11712.161    1906.6854 
  409400    300.25333   -1155.7256    6453.4848    11712.211    1906.0544 
  409500    305.44604   -1159.2881     6346.089    11712.187    1968.3462 
  409600    297.60263   -1158.8535    6513.1958    11712.166    1937.3235 
  409700    301.03631   -1158.3337    6439.3048     11712.15    1872.6039 
  409800    304.35132   -1160.9689    6371.2148    11712.245    1915.7702 
  409900    303.08652   -1160.6966    6397.8961    11712.178    1942.0669 
  410000    297.14796   -1158.5189    6522.6629    11712.254    1936.2887 
  410100    300.87667   -1160.1377    6444.5604    11712.191    1943.3084 
  410200     299.7628   -1158.5491    6466.7737    11712.197    1969.3438 
  410300    302.62698    -1161.336    6408.3472    11712.172    1882.6208 
  410400    302.60095   -1160.7497    6408.3591    11712.214    1905.4786 
  410500    301.05492   -1155.6363    6436.1929    11712.133    1924.7612 
  410600    300.29376   -1153.6269    6450.4604    11712.149    1870.9297 
  410700    302.08275   -1157.0961    6415.8409    11712.279    1886.9971 
  410800    302.48023   -1156.3108    6406.5866    11712.302    1881.1457 
  410900    301.06856   -1161.2646    6441.6917    11712.295    1819.9155 
  411000    301.27365   -1161.5313    6437.6305    11712.348    1870.6401 
  411100    302.66109   -1156.2663    6402.7552    11712.379    1885.0574 
  411200    296.79294   -1163.3045     6535.222    11712.443    1957.5842 
  411300    300.37024   -1158.2869    6453.6398    11712.302    1959.8861 
  411400    301.76975   -1163.9309     6429.384    11712.301    2015.2778 
  411500    300.35746   -1159.1926    6454.9566     11712.44    1997.6649 
  411600    304.32496   -1162.8277    6373.6863    11712.294    1858.0403 
  411700    299.96039   -1162.0981    6466.2335    11712.329    1926.7587 
  411800    299.68971   -1157.7323    6467.6564    11712.335      1907.11 
  411900    300.98929   -1159.5821    6441.8172    11712.409    1907.1386 
  412000    301.94921   -1161.6019    6423.2945    11712.374    1934.3658 
  412100    299.51287   -1162.6226    6476.4136    11712.424    1966.4859 
  412200    302.24696   -1167.1473    6422.4728    11712.368    1936.1365 
  412300    303.40961   -1169.1839    6399.7038    11712.401    1952.1157 
  412400    299.81866   -1158.2001    6465.2987    11712.264    1960.4778 
  412500    298.01276   -1161.5603    6507.2108    11712.236    1922.3319 
  412600    302.30163   -1163.5105    6417.6414    11712.341    1865.0154 
  412700    302.19904   -1161.7961    6418.1546    11712.377     1898.552 
  412800    299.33729   -1161.4252    6478.8201    11712.277    1915.1443 
  412900    299.28517   -1163.0005    6481.6303    11712.398    1971.2148 
  413000    297.42595   -1168.4811    6526.7381    11712.306    1973.0438 
  413100    301.79015   -1169.5614    6434.5738    11712.296    1875.8822 
  413200    300.64038   -1161.2193    6450.7425    11712.244    1903.8497 
  413300    298.86494   -1164.3322    6491.7986    11712.257    1907.5656 
  413400    301.54334   -1163.6684    6433.9428    11712.285    1905.4189 
  413500    300.04658   -1161.3259    6463.5108     11712.22    1952.2218 
  413600    303.63611   -1159.5194    6384.9838    11712.184    1910.7809 
  413700    302.88277   -1161.3091    6402.9447    11712.261    1927.7043 
  413800    298.56735   -1158.4242    6492.1641    11712.173    1943.5403 
  413900    302.64925   -1161.3118    6407.9366    11712.262    1941.9324 
  414000    299.14682   -1162.9214    6484.3959    11712.287    1967.4859 
  414100     300.3186   -1167.0725    6463.5626    11712.336    1967.5097 
  414200    300.93604   -1166.8577    6450.1688    11712.348    1895.4997 
  414300    298.62389   -1166.0852    6498.8781    11712.434    1877.5715 
  414400    300.22828   -1163.0079    6461.4576    11712.366    1973.8213 
  414500    302.49769   -1163.5194    6413.3677    11712.247    1944.2764 
  414600    298.24334   -1161.6244    6502.4618    11712.349    1938.3199 
  414700    301.60936    -1160.699    6429.6533    11712.376    2006.7742 
  414800    302.92777   -1162.4168    6403.2303    11712.401    1923.5906 
  414900    298.33324   -1166.8133    6505.8221    11712.441    1888.1093 
  415000    301.60655   -1168.8972    6437.9951    11712.459    1893.0193 
  415100    300.45202   -1169.2301    6463.0123    11712.479    1953.9875 
  415200    300.31408   -1164.6819    6461.3284    11712.396    1908.6956 
  415300    303.52413   -1164.1295    6392.1797    11712.378    1878.7682 
  415400    302.75693   -1162.5194    6406.9535    11712.371    1916.7454 
  415500    300.34314   -1161.1867    6457.1687    11712.352    1915.9701 
  415600    300.01681   -1162.0547    6464.9343    11712.278    1925.8263 
  415700    303.94309    -1163.316    6382.3174    11712.279    1974.3746 
  415800    301.15631   -1164.4464    6443.0603    11712.356    1936.1065 
  415900    301.39725   -1163.5691    6436.9469    11712.267     1888.887 
  416000    302.53164   -1165.5262    6414.6517     11712.25    1879.3986 
  416100    302.46247   -1166.0131    6416.6763     11712.31    1913.6086 
  416200    300.77808   -1158.0933    6444.6815     11712.25     1962.727 
  416300    300.53992   -1166.5469    6458.2754    11712.303    1969.7962 
  416400    298.44414   -1158.3141    6494.7635    11712.251    1968.2974 
  416500    303.60827   -1159.2293    6385.2958    11712.191    1876.3788 
  416600    300.88027   -1157.6175    6442.0011    11712.229    1940.8057 
  416700    298.82889   -1148.8546    6477.0342      11712.2    1935.6279 
  416800    298.98342   -1159.5481    6484.4558     11712.23    1948.7699 
  416900    300.46885   -1159.6571     6452.838    11712.237    1957.5098 
  417000    300.05195    -1158.594    6460.7099    11712.265    1988.4118 
  417100    304.93916   -1161.1307    6358.8749    11712.301    1968.3676 
  417200    296.16843   -1164.7926     6549.931    11712.323    1969.2119 
  417300    301.13923   -1167.0503    6445.9622    11712.289    1962.2324 
  417400    300.66461   -1166.4564    6455.4805    11712.262    1938.0104 
  417500    298.84146   -1164.9225    6492.9705    11712.337    1940.0886 
  417600    305.46791   -1163.7032    6350.2038    11712.354     1932.512 
  417700    297.95159   -1153.0533    6500.0641    11712.289    1953.3902 
  417800    299.17752   -1155.6702    6476.5092    11712.308    1955.1163 
  417900    305.50189   -1157.7784    6343.4295     11712.23    1938.3767 
  418000    300.84575   -1162.0888    6447.3884    11712.407    1977.6935 
  418100     300.6559   -1171.1604    6460.4453    11712.337    1900.3117 
  418200    302.68514   -1169.8241    6415.8497    11712.429      1917.48 
  418300    297.97704   -1170.0258    6516.5899    11712.386    1924.4503 
  418400     301.2015   -1167.8448    6445.5589    11712.422     1955.718 
  418500    304.43548   -1166.0329    6374.5099    11712.274    1980.4125 
  418600    297.38725    -1160.539    6519.6057    11712.289    2014.7989 
  418700     305.3588   -1155.9923    6344.6796    11712.209     1953.951 
  418800     302.8087   -1160.6212    6403.9191    11712.341    2017.4919 
  418900    295.63181   -1164.0331     6560.647    11712.334    1964.6844 
  419000    306.42638   -1170.8282    6336.8576    11712.359    1873.9485 
  419100     300.4955   -1166.6229    6459.3542    11712.357    1924.9329 
  419200    301.12434   -1169.9223    6449.2155    11712.353    1922.0477 
  419300    301.17943   -1166.9039    6444.9251    11712.258    1916.0236 
  419400    301.39626   -1163.3123    6436.7119    11712.268    1948.7477 
  419500    298.95529   -1160.4915    6486.0886    11712.318    1995.1304 
  419600     301.6727   -1159.7609    6427.2831    11712.297    1880.5743 
  419700    299.94458   -1154.6818    6459.1111    11712.285    1948.6825 
  419800    303.86835   -1167.4574    6387.9969    11712.221    1961.7414 
  419900    301.74578   -1159.3986     6425.264    11712.201    1865.4487 
  420000    300.37072   -1163.5322    6458.8741    11712.302    1934.7612 
  420100    298.92957   -1164.7211    6490.8292     11712.28    1995.9267 
  420200    302.64856   -1168.3418    6415.0569    11712.337    1945.7784 
  420300    303.25261   -1163.0191     6396.756    11712.264    1915.6234 
  420400    296.15158   -1161.8956    6547.4014     11712.33    1997.6751 
  420500    302.08919   -1160.2806    6418.8633    11712.255    1928.3224 
  420600    298.38928    -1158.232    6495.8115    11712.209    1942.8499 
  420700    300.88754   -1157.4987    6441.8077     11712.31    1955.5423 
  420800    303.45241   -1162.0004    6391.5097    11712.304    2000.0056 
  420900    299.17141   -1163.7491    6484.7137    11712.303    1939.0563 
  421000    301.88365     -1160.51    6423.5766    11712.348    1895.4898 
  421100    301.64711   -1167.6826    6435.8017    11712.347    1931.0771 
  421200    300.74244   -1163.7843     6451.199    11712.315    1883.3809 
  421300    303.06293   -1166.3157    6404.2148    11712.374    1921.9696 
  421400    298.76323   -1159.2925    6489.0589    11712.384    1988.8455 
  421500    299.67084   -1155.1406    6465.4829     11712.35    1901.6908 
  421600    298.84547   -1154.4408    6482.2864    11712.221    1927.5165 
  421700    299.40638   -1158.3372     6474.336    11712.357    2008.9767 
  421800    303.92376   -1164.9086    6384.3554    11712.312    1930.4236 
  421900    294.77906   -1161.9036    6576.6863    11712.285    1936.6431 
  422000    301.94285   -1171.6881    6433.3938    11712.251    1918.4832 
  422100    297.72316   -1167.5479    6519.4877    11712.338    1918.3352 
  422200    300.38938   -1170.4962    6465.3785    11712.241    1848.4074 
  422300    303.30767   -1158.0521    6390.5898    11712.241    1907.0576 
  422400    300.49056   -1160.9057     6453.564    11712.178    1938.2216 
  422500    300.08367   -1158.3511    6459.7396    11712.216    1910.1443 
  422600     303.0897   -1155.7224    6392.7975    11712.121    1896.1796 
  422700    299.38634   -1159.0027    6475.2761    11712.203     1876.219 
  422800    298.96721   -1166.0145    6491.3152    11712.276    1873.1701 
  422900    303.15459   -1167.3584    6403.2383    11712.313       1933.6 
  423000    300.93112   -1167.1586    6450.5087    11712.282     1935.655 
  423100      299.991   -1169.2169    6472.7056    11712.336    1905.0647 
  423200    301.77027   -1166.5277    6432.0872    11712.418    1909.3304 
  423300    300.77959     -1165.45    6452.0959     11712.34    1921.5422 
  423400    300.70298    -1161.354    6449.5636    11712.267    1932.3302 
  423500    302.15979   -1159.0099    6416.2148    11712.385    1939.3332 
  423600    304.16835   -1167.0677    6381.3879     11712.41     1945.771 
  423700    299.53905    -1158.804    6471.9948    11712.383    1894.5062 
  423800    303.45209   -1162.4521    6392.0377    11712.374    1891.1406 
  423900    302.18637    -1166.562     6423.201    11712.387    1887.1967 
  424000    299.97167   -1173.2805    6477.2677    11712.422    1890.1054 
  424100    299.96312   -1164.4733    6468.6037    11712.382    1868.9734 
  424200     302.6392   -1164.7704     6411.666    11712.318    1890.1576 
  424300    303.04412   -1160.2359    6398.5278    11712.364    1887.0455 
  424400    300.08502   -1164.2293    6465.6989    11712.326     1949.506 
  424500    302.72774   -1163.1395    6408.1164    11712.291    1921.4843 
  424600    301.51439   -1162.9231    6433.8376    11712.307    1914.5374 
  424700    300.77982     -1162.51    6449.1807     11712.37    1987.9394 
  424800     301.9722   -1166.4453     6427.582     11712.31    1953.2815 
  424900     300.8576   -1162.5684    6447.4332    11712.226    1889.1455 
  425000    299.80399   -1160.6274    6467.9756      11712.2    1923.3343 
  425100    303.08173   -1161.1972    6398.5718    11712.251    1910.5176 
  425200    299.25106   -1158.3627    6477.5315    11712.209    1940.3176 
  425300    301.56166   -1159.4783    6429.2986    11712.222    1957.5582 
  425400    299.90147   -1156.3575    6461.6713    11712.248    1950.9569 
  425500    300.97287   -1161.2697    6443.6641    11712.218     1921.433 
  425600    301.99813   -1163.0763    6423.6315    11712.282    1922.5551 
  425700    299.97893   -1157.8118    6461.4146    11712.192    1884.9197 
  425800    300.92413   -1160.7907    6444.1891    11712.181    1939.2801 
  425900    301.22446   -1165.3202    6442.4184    11712.297    1912.9792 
  426000    299.50588   -1164.1938    6477.9609    11712.251    1891.6684 
  426100    302.00197   -1158.3529    6418.6788    11712.135    1877.9213 
  426200    299.59943   -1167.7795    6479.5288    11712.231    1933.4906 
  426300    301.95174   -1162.9165     6424.446    11712.265    1904.0691 
  426400    304.94882   -1170.1509     6367.588    11712.201    1935.8376 
  426500    298.12293   -1160.9866    6504.3302    11712.283    1922.7936 
  426600    301.52683   -1161.4877    6432.0905    11712.261    1876.0087 
  426700    299.18636   -1165.9386    6486.6199    11712.339    1866.9652 
  426800    298.57342   -1159.1988    6492.9105    11712.275    1938.5843 
  426900    301.61231   -1161.8553    6430.6778    11712.307    1918.8585 
  427000    301.82383   -1171.1133     6435.536    11712.426    1896.7967 
  427100    301.81325   -1170.4872    6435.0936    11712.383    1852.8909 
  427200    300.83684   -1165.6894    6451.0867    11712.315    1940.4033 
  427300    303.30411   -1160.3689    6393.0379    11712.296    1924.8865 
  427400     303.3103   -1162.3995    6394.9522    11712.312    1930.1487 
  427500    298.48525   -1159.3965    6495.0921    11712.375    1956.0437 
  427600    302.77018   -1159.9406    6404.0101     11712.29    1901.3289 
  427700    299.67786   -1164.4685    6474.6092    11712.298    1957.7867 
  427800    302.67839   -1165.6949    6411.7129    11712.277    1918.6203 
  427900    299.08727   -1162.8517    6485.5455    11712.234     1861.815 
  428000     301.6424   -1165.0905    6433.1164    11712.153    1873.3866 
  428100    301.00995   -1165.1435    6446.8294    11712.302    1952.5395 
  428200    300.75592   -1166.1207    6453.1685    11712.237    1906.3649 
  428300    299.45469   -1160.3968    6475.2379    11712.231    1948.1915 
  428400    303.77266   -1159.3185    6381.8184    11712.137    1955.7672 
  428500    300.47884   -1156.6105    6449.4814     11712.14    1932.9656 
  428600    302.56615   -1157.0995    6405.4309    11712.193    1892.7099 
  428700    298.84544   -1156.4321    6484.2599    11712.202    1939.4713 
  428800    300.28029   -1157.5018    6454.6277    11712.154     1949.699 
  428900    300.75847    -1162.075     6449.126    11712.294    1992.5096 
  429000    299.93739   -1161.0881    6465.6207    11712.235    1900.1559 
  429100    300.76514   -1157.9592    6444.7955    11712.222    1932.9508 
  429200    302.42148   -1159.0943    6410.6235      11712.3    1971.1713 
  429300    298.53375   -1159.8292    6494.4817    11712.368    1977.4875 
  429400    301.49401   -1157.1563    6428.4702    11712.271    1897.6252 
  429500    298.26264   -1160.1402    6500.5373    11712.321    1921.1617 
  429600    299.54492   -1161.1022    6474.0341    11712.249     1981.166 
  429700    301.40454   -1158.9687     6432.326    11712.403    1975.2348 
  429800    303.69741   -1164.0433    6388.3543     11712.34    1956.7572 
  429900    302.14301   -1167.1381    6424.6112    11712.295    1965.0306 
  430000    300.87523   -1163.2979    6447.8145    11712.254    1890.9602 
  430100    299.65654   -1164.6137    6475.1717     11712.26    1857.3068 
  430200    302.45427   -1161.1652    6412.0011    11712.307    1972.9484 
  430300    301.32838   -1162.0713    6436.9261    11712.273    1972.6818 
  430400    296.99821    -1162.022    6529.4648    11712.354    1955.6195 
  430500    302.24515   -1161.8494     6417.141    11712.295    1895.3445 
  430600    299.00413   -1164.6126    6489.1785     11712.33    1888.4344 
  430700    301.20897    -1166.979    6444.3719     11712.26    1860.2273 
  430800     303.4133   -1169.5726    6399.9941    11712.381    1928.5547 
  430900    299.78613   -1171.6268    6479.5517    11712.396    1965.6086 
  431000    303.28429   -1167.2511    6400.3672     11712.32    1872.3958 
  431100    300.12539   -1166.2384    6466.8479    11712.328    1926.5073 
  431200    298.92997   -1162.6277    6488.7744    11712.327    1968.7676 
  431300    301.38433   -1164.1894    6437.8965    11712.321    1868.4497 
  431400     301.9513   -1155.6765    6417.2835    11712.333    1916.1623 
  431500    301.16649   -1158.3218    6436.5915     11712.23    1997.4365 
  431600    305.78845   -1170.8645    6350.5182    11712.355     1945.449 
  431700     296.3415   -1164.1912    6545.6295     11712.32    1929.3738 
  431800    300.22601   -1159.3052     6457.757     11712.32    1955.2154 
  431900    299.23426   -1161.8194    6481.4436    11712.305    1890.4777 
  432000    301.56746   -1163.1225    6432.9617    11712.365    1851.4232 
  432100    303.35818   -1156.9656    6388.4546    11712.271    1918.9123 
  432200     299.6435   -1163.8593    6474.6778    11712.242    1967.9276 
  432300    301.22465   -1160.2666    6437.2444     11712.18    1897.7001 
  432400    301.28309   -1157.6264    6433.3834    11712.208    1867.5247 
  432500    299.66021   -1160.6805    6471.0704    11712.171    1922.2701 
  432600    301.03153    -1168.088    6449.2303    11712.219    1926.5501 
  432700    299.63087   -1162.8246    6473.9913     11712.32    1875.9074 
  432800    304.20865   -1166.2246    6379.5093    11712.236     1947.826 
  432900    300.67757   -1161.7475    6450.5167    11712.284    1959.3985 
  433000    301.54939    -1157.274    6427.3689    11712.235    1893.6408 
  433100    297.72497   -1164.3004    6516.2083    11712.345    1979.5474 
  433200    301.22955   -1159.0976    6436.0396    11712.249    1940.3856 
  433300    301.39812   -1160.4447    6433.8246    11712.288    1924.4092 
  433400    300.66088   -1162.0346    6451.2296    11712.353     1934.121 
  433500    300.93778   -1166.1224    6449.3444    11712.296     1969.503 
  433600    298.36335   -1163.8116    6502.1215    11712.385    1930.9071 
  433700    302.07703   -1168.6721    6427.6654    11712.406    1886.8585 
  433800    299.94124   -1163.0565    6467.7213    11712.449    1869.3564 
  433900    301.34971   -1168.3215    6442.7927    11712.345    1932.3748 
  434000    301.95826   -1162.9322    6424.5305    11712.473    1964.0362 
  434100    301.97745    -1167.039    6428.1174    11712.363    1939.1947 
  434200    298.60582    -1162.808    6495.9168    11712.364    1907.2672 
  434300    302.91354    -1159.687    6400.6982    11712.294    1899.1872 
  434400    298.01439   -1166.6715    6512.3637    11712.312    1925.1273 
  434500     300.7118   -1165.7881    6453.9075    11712.366    1925.5138 
  434600    299.93537   -1165.4138    6470.1009    11712.346    1950.0017 
  434700    301.54252   -1164.3349    6434.6047    11712.263     1849.758 
  434800    299.40474   -1164.2754    6480.2369    11712.284    1896.7284 
  434900    306.07337    -1166.271    6339.7433     11712.26    1943.4863 
  435000    303.54136   -1159.1633    6386.7101    11712.242    1898.4861 
  435100    297.72391   -1153.0239    6504.8357    11712.226    1979.9842 
  435200    301.52985   -1160.1833    6430.7681    11712.308    1955.6731 
  435300    301.61508   -1158.2309    6426.9548    11712.267    1924.0392 
  435400    300.37524   -1162.2566    6457.5001      11712.3    1948.9552 
  435500    302.32394   -1157.1253    6410.6838    11712.246    1892.8176 
  435600    302.15268   -1155.3658    6412.5915    11712.254    1881.4779 
  435700    301.44873   -1158.1623    6430.3637    11712.191    1900.6948 
  435800    299.65526   -1155.8428    6466.3743    11712.206    1886.9529 
  435900    304.90433   -1163.3487    6361.7746    11712.239    1841.4252 
  436000    298.74621   -1161.1658    6491.0985    11712.187    1818.4953 
  436100    299.48667   -1158.6529     6472.743    11712.163    1893.1897 
  436200     299.4271   -1159.7553    6475.1256    11712.171    1880.9451 
  436300    303.10949   -1164.7462    6401.5373     11712.26    1928.1116 
  436400    303.06453   -1160.1385    6397.8124    11712.183    1958.4631 
  436500    299.02139   -1156.3545    6480.3958    11712.175    1926.7254 
  436600    299.80243   -1163.2383     6470.572    11712.153    1886.1168 
  436700    299.77424   -1160.3025    6468.3397    11712.254    1915.4579 
  436800    297.97347   -1163.7507    6510.1985    11712.194    1944.3721 
  436900    300.47872   -1157.5702    6450.5021    11712.199    1930.6605 
  437000    301.50108   -1162.6088    6433.9317    11712.431    1926.8279 
  437100    300.24942   -1167.6265    6465.6412    11712.383    1959.9074 
  437200    298.10039   -1161.1086    6504.8989    11712.248    1888.3172 
  437300    301.71446   -1160.8585    6427.5145    11712.322    1923.4367 
  437400    304.21425   -1161.2229      6374.55    11712.398    1964.6108 
  437500    297.49038    -1164.599    6521.4559    11712.282    1933.2684 
  437600     298.9216   -1158.4634    6484.7303    11712.268    1910.1614 
  437700    302.44548   -1163.0129    6414.0975    11712.368    1908.4589 
  437800    301.41605   -1166.0089    6439.0358    11712.318    2005.8659 
  437900    303.77372   -1160.8634    6383.4605    11712.257    1952.2771 
  438000    302.71439   -1160.9966    6406.2445    11712.276    1915.9924 
  438100    301.99603   -1161.6328     6422.247    11712.296       1913.5 
  438200     298.6916   -1165.2587    6496.4842    11712.313    1889.9755 
  438300    302.09195   -1159.0961    6417.6037    11712.238    1932.3833 
  438400     300.6471   -1156.5435    6445.8542    11712.175    1927.2895 
  438500     301.2627   -1160.1059    6436.3843    11712.294    1847.1308 
  438600    298.46889   -1163.3738    6499.3775    11712.333     1860.205 
  438700    298.78887   -1164.9941     6494.088     11712.26    1935.9482 
  438800    302.89309   -1169.9903    6411.3626    11712.218    1960.4051 
  438900    301.32436   -1159.9142    6434.8482    11712.267    1970.0961 
  439000    298.14667   -1157.8481    6500.6616     11712.26    1944.7996 
  439100    301.05572   -1162.6817    6443.2878      11712.2    1966.1834 
  439200    301.64979    -1159.276    6427.2261    11712.235    1983.1885 
  439300    298.71445   -1157.4838    6488.1654    11712.258    1942.3082 
  439400    302.03036   -1164.3143    6424.1528    11712.254    1877.3061 
  439500     301.5605   -1161.6383    6431.5526    11712.292    1933.3771 
  439600    303.08126   -1163.1382    6400.6039    11712.332    1945.0657 
  439700    298.12285   -1162.4721    6505.8777    11712.343    1908.8279 
  439800     300.6717   -1160.6229    6449.5014    11712.268     1950.643 
  439900    303.46085   -1169.0117    6398.3725    11712.336    1969.0414 
  440000    300.78986   -1164.3704    6450.8237    11712.367    1977.7938 
  440100    302.14618   -1160.2009    6417.6582    11712.347    1945.7052 
  440200    301.26827   -1165.9145    6442.0092    11712.229    1961.6604 
  440300    300.01548   -1168.6214    6471.5278    11712.277    1904.1739 
  440400    302.61064   -1166.2232    6413.7148    11712.304    1855.1581 
  440500    303.83471   -1165.6589    6386.9589    11712.262    1867.1768 
  440600    299.48803    -1164.532    6478.6573    11712.228     1877.851 
  440700    302.25905   -1168.4565    6423.4797    11712.324     1861.385 
  440800    298.08777   -1163.7463     6507.874    11712.316    1937.0605 
  440900    300.62379   -1165.6824    6455.6361     11712.32    1936.9878 
  441000    300.35281    -1163.331    6459.0531    11712.299    1917.6403 
  441100    301.97493   -1166.1525     6427.206    11712.285    1937.7283 
  441200    301.03047   -1160.1503    6441.3356    11712.239    1895.7242 
  441300    303.24033    -1167.218    6401.2656    11712.312    1991.4786 
  441400    300.66799    -1169.106    6458.0642    11712.269    1969.4725 
  441500    300.68916   -1161.4209    6449.8777    11712.219    1871.9747 
  441600    299.43111   -1157.5251    6472.9028    11712.264    1866.8392 
  441700    302.61584   -1156.8411    6404.1382     11712.22    1875.7447 
  441800    300.79789   -1163.2061    6449.3423    11712.222    1880.5433 
  441900    301.90457   -1164.1844    6426.6701    11712.214     1910.047 
  442000    298.59718   -1161.7779    6494.9617    11712.254    1952.3115 
  442100    296.64129   -1161.9322    6536.8813    11712.235    1912.6776 
  442200    304.01956   -1162.3538    6379.6197    11712.177    1913.7308 
  442300    298.48262   -1159.2057    6494.7887    11712.206    1914.8335 
  442400    301.26463   -1160.7964    6436.9086    11712.169    1908.1288 
  442500     301.8125   -1163.8697    6428.3697    11712.261    1904.5246 
  442600    298.41168   -1162.1696    6499.2594    11712.197    1910.6796 
  442700    302.37826   -1162.2269    6414.5495     11712.17    1853.7275 
  442800      302.658   -1160.1681      6406.54    11712.196    1811.7615 
  442900    299.82434   -1168.7609    6475.7822    11712.308    1871.8141 
  443000    303.55456   -1162.3625    6389.6689    11712.284    1881.5028 
  443100    299.27913    -1163.395    6481.9755     11712.22    1905.4775 
  443200     301.3442   -1163.3903    6437.9284    11712.295    1898.1674 
  443300    300.88043   -1161.8808    6446.3244    11712.292    1939.1887 
  443400    305.29423   -1158.0278    6348.0711    11712.186    1863.8672 
  443500    298.27668   -1163.6417     6503.723    11712.305    1917.2657 
  443600     300.8871   -1167.0695    6451.5551    11712.477    1994.5376 
  443700    302.85701   -1163.3066    6405.5582    11712.327    1923.5693 
  443800    300.09613   -1169.1369    6470.3137     11712.27     1917.442 
  443900    301.05361    -1161.212    6441.9535     11712.29    1906.7625 
  444000    303.06296   -1160.3897    6398.2627    11712.348    1834.8283 
  444100    300.75704   -1158.2355    6445.2983    11712.275    1838.7828 
  444200    299.42913   -1161.5271    6476.9076    11712.224    1925.9671 
  444300    303.90114   -1160.1577      6380.05    11712.274    1910.7141 
  444400    300.97651   -1162.3746    6444.7105    11712.237    1902.5335 
  444500    301.24685   -1163.2456    6439.7382    11712.169    1914.2426 
  444600    300.17591   -1161.6859    6461.0511    11712.163    1945.8015 
  444700    298.98506   -1163.0111    6487.8467    11712.193    1995.4445 
  444800    303.02559   -1160.2415    6398.7526    11712.188     1925.904 
  444900    299.75031   -1155.7346    6464.0956    11712.066    1814.0192 
  445000    301.19164   -1156.6549    6434.2119    11712.054    1809.4195 
  445100    298.36857   -1156.7507    6494.6825    11712.118    1893.3147 
  445200    302.52841   -1158.1025    6407.0708    11712.024    1913.2923 
  445300    302.92306   -1158.9056    6399.4897    11712.071    1955.4541 
  445400    298.05753   -1161.0877    6505.7121    11712.166    1965.6629 
  445500    302.00801   -1159.7446     6419.968    11712.161    1944.6887 
  445600    302.38313   -1161.7446     6413.867    11712.074    1917.5962 
  445700     301.4936    -1156.232    6427.4366    11712.153    1900.9951 
  445800    301.67544   -1161.2903    6428.6769    11712.219    1920.3398 
  445900    298.54874   -1159.1166    6493.3308     11712.25    1949.8124 
  446000    302.82336   -1166.5964    6409.5863    11712.346    1890.2269 
  446100    301.74846   -1170.8375    6436.9041    11712.459    1939.2318 
  446200    301.20106   -1165.2486    6442.9644    11712.414    1956.3825 
  446300    300.54878   -1168.4122     6460.036    11712.387    1891.6194 
  446400    299.68925   -1165.6266    6475.6749    11712.449    1887.0451 
  446500     301.9461   -1166.6985    6428.5748    11712.491    1940.7724 
  446600    302.31114   -1165.3598    6419.3966     11712.45    1947.7493 
  446700    301.90148   -1169.0603     6431.861    11712.463    1890.8169 
  446800    298.59759   -1168.7946    6502.2611    11712.546     1905.124 
  446900    302.94937    -1168.846    6409.1792    11712.382    1932.3373 
  447000     296.5327   -1168.8875    6546.3445    11712.423    1949.1646 
  447100    303.17727   -1175.7617    6411.3383    11712.494     1941.058 
  447200    301.35085   -1171.3725    6445.8199    11712.346    1965.0703 
  447300    301.18283   -1163.8775    6441.8726    11712.304    1981.3887 
  447400    302.18322   -1163.3824    6420.0399    11712.338    1965.6692 
  447500    299.54438   -1162.6855    6475.7324    11712.353    2008.1488 
  447600    303.82524   -1168.6552    6390.2073    11712.312    1978.3992 
  447700    300.35259    -1162.155    6457.8552    11712.272    1938.8977 
  447800     295.9685   -1161.8801    6551.3023    11712.335     1950.722 
  447900    302.08117    -1156.591    6415.3854    11712.295    1929.5469 
  448000    300.68559   -1156.5821    6445.0673    11712.171    1979.0367 
  448100     300.4938   -1159.9374     6452.601    11712.253    1989.4428 
  448200     303.9919    -1164.207    6382.0722    11712.186    1949.2043 
  448300    303.10589   -1161.1328    6397.8469    11712.106    1893.4451 
  448400    296.95706   -1160.1576    6528.3111    11712.185     1985.048 
  448500     303.8183   -1159.5924    6381.1364    11712.156     1963.765 
  448600    302.32209   -1154.8914    6408.3575    11712.114    1902.3026 
  448700    301.91344   -1159.9876    6422.1515    11712.081    1890.6698 
  448800    298.75493   -1159.0099    6488.7089     11712.14    1953.1939 
  448900    300.22479   -1160.4787    6458.7929    11712.156    1874.7417 
  449000    297.12897   -1162.6195    6527.0968    11712.182    1878.8567 
  449100    301.23791    -1163.934    6440.7077    11712.259     1922.414 
  449200    302.53351   -1166.1154    6415.1442    11712.193    1858.0483 
  449300    301.57155    -1165.739    6435.4554     11712.33    1890.3606 
  449400    297.61549   -1163.8823    6518.1325    11712.348     1960.442 
  449500    301.08534   -1159.6272    6439.8215    11712.421    1980.4626 
  449600    301.41669   -1163.2584    6436.3886    11712.435    1925.3803 
  449700    299.80538   -1162.0114    6469.5087    11712.379    1946.9951 
  449800    304.60583   -1169.1656     6374.207    11712.478    1961.3902 
  449900    302.14805   -1170.7365    6428.2524    11712.445    1892.8085 
  450000    303.53629   -1168.2509     6396.206    11712.542    1802.8797 
  450100    297.50289   -1171.6107    6528.4541    11712.536    1961.4688 
  450200    305.29842   -1170.1965    6360.4727    11712.508    1956.5037 
  450300    301.66553    -1166.858    6434.7409    11712.504    1997.7106 
  450400    301.26903   -1168.2101    6444.5728    11712.513    1959.3682 
  450500    299.75469   -1166.2185    6474.8707    11712.451    1980.1503 
  450600    306.18564   -1163.1241    6334.3465    11712.409    1896.3657 
  450700    299.55651   -1161.4964    6474.3624    11712.431    2028.8737 
  450800     304.3335   -1165.9535    6376.6694    11712.334    2002.4171 
  450900    296.68999    -1163.132    6537.1284    11712.323    1941.5311 
  451000    303.35917    -1163.187    6394.6895    11712.306    1902.9323 
  451100    298.85227    -1167.165    6494.8935    11712.249    1946.3332 
  451200    302.04554   -1163.4255    6422.8091    11712.123    1898.7528 
  451300    301.18011   -1155.8675    6433.6425    11712.026    1959.8693 
  451400    299.52168   -1160.8178     6474.071    11712.074    1940.2256 
  451500    304.15091   -1159.3985    6373.7888    11712.108    1899.5086 
  451600    298.28944   -1157.6963    6497.3178    11712.118    1953.4065 
  451700    299.92256   -1155.4179    6460.1537    11712.121    1891.1629 
  451800    296.83178   -1155.8673    6526.6598    11712.148    1914.0806 
  451900    306.19034    -1163.497    6334.4453    11712.235    1921.7872 
  452000    299.30337   -1157.2093    6475.2016    11712.149     1985.854 
  452100     302.1383   -1156.1889    6413.5937    11712.126    1923.6392 
  452200    297.10029   -1155.4148    6520.5481    11712.225    1922.3536 
  452300    301.99705   -1153.8387    6414.3586    11712.224     1914.872 
  452400     300.7055   -1156.6422    6444.7481    11712.218    1881.1775 
  452500    305.24177   -1160.8727    6352.0996    11712.249     1887.162 
  452600    300.73809   -1155.3304    6442.8216    11712.299    1956.7831 
  452700    302.17382   -1163.6139    6420.5005    11712.367    1960.8099 
  452800    301.32306   -1163.2402    6438.2046    11712.269    1895.7268 
  452900     303.7811   -1167.0541    6389.5657    11712.329    1877.5811 
  453000    298.88678   -1167.6089    6494.7451    11712.394    1959.2246 
  453100    303.50404   -1170.5182    6399.0807    11712.461     1907.317 
  453200    298.68019   -1159.7775    6491.3257    11712.392    1915.9759 
  453300    300.67993   -1163.3508     6452.189    11712.404    1930.4589 
  453400    303.06866     -1164.79    6402.6133     11712.42    1838.6044 
  453500    299.44329    -1163.957    6479.2691    11712.459    1910.6783 
  453600    299.12745   -1163.1695    6485.2057    11712.435    1977.1281 
  453700    299.72488   -1169.0163    6478.2835    11712.429    1958.4463 
  453800    303.48671   -1173.7273    6402.6653    11712.466    1891.3419 
  453900    302.24523   -1169.2726     6424.625    11712.358    1919.5046 
  454000     301.0382   -1160.6568    6441.7882    11712.351    1961.5524 
  454100    302.05051   -1164.0243    6423.5119    11712.333     1924.302 
  454200    300.54996   -1159.1191    6450.6606     11712.33    1958.4201 
  454300    303.56724   -1162.2333    6389.3205    11712.335    1882.9359 
  454400    298.76944   -1155.8502    6485.3876    11712.288    1932.2037 
  454500    298.77923   -1158.9269    6488.2739    11712.307    1934.2848 
  454600    302.13675   -1162.4761    6420.0351    11712.247    1950.3174 
  454700    299.28753   -1158.6912    6477.1053    11712.233    1967.5805 
  454800    301.23186   -1156.3184     6433.175    11712.213    1966.6428 
  454900    302.14786   -1159.7156    6417.0359    11712.246    1897.9261 
  455000    296.94117   -1164.2518    6532.7711    11712.212    1902.3798 
  455100     301.0657    -1158.021     6438.321    11712.107    1907.3901 
  455200    301.39901   -1158.0458    6431.2354    11712.117    1888.9556 
  455300    298.33998   -1156.4522     6494.995    11712.119     1894.371 
  455400    301.73229   -1159.5225    6425.6018    11712.127    1917.1335 
  455500    302.51374   -1150.7464    6400.1101    11712.106    1908.1858 
  455600    301.74311   -1152.3441    6418.1755     11712.11    1909.8523 
  455700    301.65979   -1160.6228    6428.2641     11712.14    1974.1845 
  455800    298.90128   -1158.4488    6485.1464    11712.265    1938.7482 
  455900    299.82516   -1163.6795    6470.6983    11712.323    1946.3204 
  456000    305.44376   -1164.5632    6351.5718    11712.346    1930.3887 
  456100    298.47049   -1167.8957    6503.8761    11712.344    1910.1049 
  456200    301.81559   -1162.7529     6427.355    11712.429    1888.6038 
  456300      300.685   -1165.2762    6454.0069    11712.404    1982.3809 
  456400    302.06175   -1165.2841    6424.5581     11712.36    1941.7141 
  456500    301.02997   -1161.6245    6443.0038    11712.423    1944.2951 
  456600    303.08202   -1163.6902     6401.229    11712.421     1926.555 
  456700    301.72603   -1164.5566    6430.9721    11712.329    1899.7814 
  456800    301.64776   -1159.9415    6428.0173    11712.317    1865.7267 
  456900          301   -1167.1677    6449.2222    11712.458    1927.0729 
  457000    299.56016   -1168.3083    6481.0682    11712.403    1967.2916 
  457100    300.40802   -1164.3831    6458.9684    11712.342    1885.1064 
  457200    301.52589   -1167.0779    6437.7636    11712.324    1888.0425 
  457300    301.20101   -1163.0328    6440.6603    11712.325    1938.8377 
  457400    303.36467   -1163.9886    6395.2433    11712.175    1917.1577 
  457500    303.53903   -1158.4362    6385.9987    11712.208    1918.4052 
  457600    301.83921   -1161.4797    6425.4292    11712.281    1927.0659 
  457700    300.77732   -1164.1318    6450.7143    11712.228    1877.1399 
  457800    297.26605   -1157.4364    6518.9851    11712.182    1935.5129 
  457900    302.14918   -1159.6059     6416.795    11712.143    1943.9447 
  458000    301.53019     -1159.01    6429.4155    11712.135    1878.1932 
  458100    300.29576   -1162.2713      6458.93    11712.017    1802.9324 
  458200    296.34308   -1163.0259    6544.2527    11712.142    1938.6934 
  458300    300.99738   -1159.4715    6441.2975    11712.173    2029.5397 
  458400    301.65891   -1159.0938    6426.7318    11712.118    1977.4436 
  458500    299.33745   -1158.4675    6475.7565    11712.174    1984.9795 
  458600    298.72146   -1147.0612     6477.467    11712.131    1992.9738 
  458700    303.57036   -1159.6354     6386.454    11712.134    1913.3263 
  458800    301.26138   -1157.8316    6434.0533    11712.209     1841.666 
  458900     303.7366    -1156.859     6380.217    11712.224    1854.7991 
  459000    301.01129   -1167.6975      6449.31    11712.257    1870.9619 
  459100    298.00651    -1164.013    6509.8213     11712.26    1863.5884 
  459200    299.13564   -1166.4527    6488.2182     11712.34    1942.7642 
  459300    301.72897   -1164.3318    6430.6276    11712.272    1932.3573 
  459400     301.2856   -1159.2762    6435.0626    11712.291    1878.9455 
  459500    301.99655   -1158.9105    6419.5362    11712.319    1976.5195 
  459600    299.52713    -1157.238    6470.6758    11712.375    2019.3542 
  459700    303.40162   -1160.5706    6391.2695    11712.409    1844.7338 
  459800    299.19255    -1164.572    6485.1855    11712.403    1883.2472 
  459900     302.3943   -1175.8524     6428.126    11712.464    1903.2585 
  460000    301.80331   -1174.4094     6439.214    11712.369    1839.6073 
  460100    302.34299   -1169.4371    6422.7815    11712.439    1889.3326 
  460200    301.33331   -1166.0155    6440.8054    11712.314    1913.7161 
  460300    300.61163   -1164.7781    6455.0434    11712.372    1958.5328 
  460400    299.70519   -1162.1663    6471.8156    11712.391    1962.7315 
  460500    300.89618   -1163.5478    6447.6947    11712.332    1945.8136 
  460600    300.21192   -1156.3247    6455.0441    11712.286    1885.6793 
  460700    300.73781   -1157.7009    6445.1933    11712.294    1928.1305 
  460800    299.20759    -1167.083    6487.2876    11712.316    1992.3055 
  460900    303.90374   -1164.8125     6384.756    11712.381    1948.2368 
  461000    297.27862   -1170.2852    6531.7369    11712.353    1915.1025 
  461100    301.41973   -1166.4919    6439.4127    11712.291    1872.4932 
  461200    301.86724   -1157.0531    6420.3782    11712.256    1851.0538 
  461300    298.82406   -1161.9999     6490.312     11712.23    1920.9262 
  461400    302.36159   -1156.0423    6408.7619    11712.211    1936.6459 
  461500    302.66077   -1160.4904    6406.7434    11712.136    1911.4602 
  461600    300.90688   -1154.7103    6438.4878    11712.191    1871.2807 
  461700    302.92357   -1156.2873    6396.9721    11712.182    1913.2103 
  461800    301.72756   -1159.3204    6425.6123    11712.238    1926.9752 
  461900    300.51291   -1159.9984      6452.34    11712.339    1902.2706 
  462000    302.47788   -1166.0118    6416.3591    11712.323    1920.5635 
  462100    296.97831   -1163.5636    6531.3709    11712.293    1866.7214 
  462200     302.4972   -1161.4475    6411.3766    11712.318    1849.6928 
  462300    298.91564   -1163.3175    6489.7119    11712.268    1900.0427 
  462400    299.57793    -1155.674    6467.8724    11712.221    1866.9606 
  462500    303.62971   -1154.2152    6379.8726     11712.24    1862.1217 
  462600    304.69176   -1154.1707    6357.1639    11712.265    1896.8841 
  462700    298.33036   -1152.4189    6491.3589     11712.31    1847.0035 
  462800     301.5926   -1158.2146    6427.4315     11712.28    1854.0029 
  462900      304.473    -1164.845    6372.5294    11712.283    1916.6486 
  463000    300.62867   -1171.1524    6460.9877    11712.306     1925.154 
  463100    301.62327   -1172.9216    6441.5789    11712.376    1903.6614 
  463200    300.13278   -1161.7511    6462.2239    11712.349     1895.613 
  463300    299.65393   -1163.3092     6473.962    11712.299     1950.922 
  463400    302.84829   -1160.5103    6402.9473    11712.326    1910.6911 
  463500    297.36727   -1154.6631    6514.0946    11712.227    1926.6203 
  463600    306.81192   -1157.2434    6314.9581    11712.281    1924.2904 
  463700    299.99057   -1154.4027    6457.8901    11712.326    1958.5994 
  463800    297.74355   -1163.1446    6514.6753    11712.365    1915.7375 
  463900    304.07061   -1170.0961    6386.4209    11712.327     1896.148 
  464000    300.25389   -1169.4268    6467.4378    11712.475    1951.4968 
  464100     302.6244   -1166.7095    6414.0563    11712.453    1880.8286 
  464200    298.38843   -1162.9205    6500.6219    11712.312     1925.487 
  464300     300.6042    -1169.492      6459.95    11712.406    1918.6491 
  464400    302.38157   -1159.5866    6412.0526    11712.384    1907.8551 
  464500    301.09315    -1160.226     6440.064    11712.231     1942.287 
  464600    299.45668   -1156.2086    6470.9711    11712.195    1970.8328 
  464700    304.11037   -1159.0436    6374.3869    11712.195    1909.9434 
  464800    298.63755   -1162.8474    6495.1485    11712.234    1931.0025 
  464900    299.03047   -1160.4243      6484.37    11712.273    1907.6844 
  465000    302.51646   -1165.3615    6414.8471    11712.286    1854.7461 
  465100    300.18916   -1166.2498    6465.5077    11712.339    1817.3924 
  465200    301.68637   -1168.2656    6435.4911    11712.292    1845.1461 
  465300    302.53108   -1167.2273    6416.3908    11712.276    1927.3964 
  465400    299.11189   -1162.7972    6484.9541    11712.223    1983.3812 
  465500    305.12932   -1162.9992    6356.5406    11712.161    1930.0091 
  465600    298.81051   -1152.4379    6480.9521    11712.142    1903.8625 
  465700    298.99923   -1153.0505    6477.6528    11712.262    1861.5485 
  465800    298.77131   -1160.6571    6490.1005    11712.234    1912.1467 
  465900    301.89832   -1162.6118    6425.3444    11712.327     1949.831 
  466000    303.62651   -1167.2345    6393.0939    11712.374    1943.6584 
  466100    298.15516   -1167.7069    6510.4654    11712.386    1883.0353 
  466200    301.27783   -1168.1054    6444.0927    11712.326    1818.0354 
  466300    304.92969   -1163.7247    6361.7249    11712.355    1935.2879 
  466400    298.97858   -1164.8945    6489.9573    11712.281    1963.7216 
  466500    300.52593    -1149.806    6441.8741    11712.343    1920.0355 
  466600    302.43529   -1154.8323    6405.9823    11712.216    1850.7919 
  466700    302.20618   -1158.3575     6414.454    11712.268    1881.2514 
  466800    300.69382   -1159.6083    6448.0292    11712.283    1947.5465 
  466900    298.94401   -1164.7183    6490.5195    11712.281    1897.2941 
  467000    298.52905   -1162.6912    6497.4154    11712.339     1867.712 
  467100    302.00764   -1165.9649    6426.3733    11712.338    1904.5625 
  467200    301.27492   -1166.7716    6442.7527    11712.258    1978.4875 
  467300    302.38127   -1161.6951    6413.9202    11712.137    1949.2847 
  467400    298.96329   -1160.4927    6485.8391    11712.238    1943.2148 
  467500    297.23013   -1159.5058    6521.9083    11712.268    1964.8568 
  467600    305.08517   -1153.5326    6348.0875    11712.231    1942.3329 
  467700    300.32766   -1161.1408     6457.347    11712.246    1950.5174 
  467800    301.02149   -1162.5997     6443.983    11712.246    1886.7808 
  467900    299.22961   -1164.8005    6484.5847    11712.366    1840.0744 
  468000     301.3652   -1165.8891    6439.9624    11712.278    1841.5777 
  468100     299.0438   -1166.4103    6490.1239    11712.326    1966.2987 
  468200    303.28443   -1162.8419    6396.0114    11712.376    1949.2688 
  468300    300.97867   -1161.2221    6443.5157    11712.241    1898.3731 
  468400    300.18227   -1158.0828    6457.4411    11712.292    1984.2396 
  468500    302.44649   -1160.7766    6411.7985    11712.327    1953.9955 
  468600     299.8384   -1165.2628    6471.9714    11712.296    1923.4627 
  468700    302.75022   -1160.9746     6405.498    11712.317    1858.2171 
  468800    298.50617   -1159.7151    6495.0313    11712.442    1929.1357 
  468900    303.05984    -1163.203    6401.1993    11712.405    1945.2996 
  469000    297.60937   -1160.5867    6514.9569    11712.338    2046.3066 
  469100    299.19764   -1165.2931    6485.7053    11712.311    1948.2447 
  469200    299.84269   -1161.5138    6468.2302    11712.395    1952.6529 
  469300    299.82914   -1161.8244    6468.8291    11712.394     1990.505 
  469400    301.39948   -1165.0982    6438.5154    11712.355      1939.69 
  469500    298.67036   -1159.8187    6491.3826    11712.198    1962.2345 
  469600    300.08664   -1159.2442    6460.6938     11712.34    2030.0113 
  469700    306.34082   -1162.9918    6330.8282    11712.338    1915.0459 
  469800    298.13567   -1161.3577    6504.3942    11712.248    1903.4098 
  469900    301.45288   -1153.9878    6426.1732    11712.264    1869.8567 
  470000    298.54438   -1158.5264    6492.9859    11712.402    1925.5175 
  470100    304.78728   -1168.1986    6369.2418    11712.356    1893.8651 
  470200    301.05454   -1157.8401    6438.5173    11712.246    1925.4281 
  470300    299.18785   -1157.5556    6478.1506    11712.284    1950.6848 
  470400    302.37484      -1163.9    6416.3964    11712.271    1932.9104 
  470500    300.29537   -1155.7826    6452.7087    11712.276    2010.9774 
  470600    295.91061   -1153.3135    6543.8639    11712.226    1984.7834 
  470700    303.07197   -1156.1507    6393.7067    11712.224    1844.9353 
  470800    299.60521   -1161.6374    6473.2615     11712.23    1937.4338 
  470900    296.96321   -1164.6246    6532.6865    11712.225    1874.9783 
  471000    301.15811   -1162.4045    6440.8263    11712.203    1837.8286 
  471100    299.19487    -1157.134    6477.6136    11712.319    1838.3859 
  471200    301.84912   -1163.3542    6427.0802    11712.269     1861.557 
  471300    302.27665   -1161.9114    6416.3641    11712.129    1907.3991 
  471400    298.37486   -1157.6617    6495.5562    11712.216    1956.1642 
  471500    302.20185   -1162.2908    6418.4411    11712.229    1897.4597 
  471600    301.33132   -1157.6327    6432.3924    11712.241    1924.3474 
  471700    301.25814   -1161.5249    6437.8632    11712.256     1903.872 
  471800    299.92356   -1162.6618    6467.5341    11712.279      1956.21 
  471900    302.45207    -1164.653    6415.5774    11712.349    1958.2717 
  472000    302.18108   -1167.5027     6424.233    11712.365    1884.2996 
  472100    298.40829   -1165.3332    6502.7532    11712.455    1961.8228 
  472200    299.59494    -1162.431    6474.4535    11712.409    1927.6945 
  472300    301.12216   -1161.4956    6440.7102    11712.227     1905.964 
  472400    302.40497   -1157.4201    6409.2207    11712.219    1925.9547 
  472500    302.85001   -1152.5881    6394.9233    11712.261    1951.8895 
  472600    299.94311   -1158.5235     6462.995    11712.296    1982.3223 
  472700    302.19301   -1162.0983    6418.5488    11712.341    1942.7924 
  472800     300.0003   -1166.6256    6469.9094     11712.33    1989.1677 
  472900    303.52489   -1169.0055    6397.0025    11712.341    1862.2998 
  473000    301.24193   -1171.7505    6448.6188     11712.44    1847.5444 
  473100    300.39304   -1161.1767    6456.0326    11712.292    1860.9509 
  473200    300.76842   -1164.6745    6451.5743    11712.356     1970.194 
  473300    299.43901   -1161.3359    6476.4835    11712.202    1888.6564 
  473400     299.0066   -1157.0928    6481.5653     11712.29    1948.0354 
  473500    303.92237   -1160.2275    6379.5431    11712.151     1930.978 
  473600     296.9583   -1159.3463    6527.4843    11712.196    1936.1884 
  473700    306.76249   -1159.3195    6317.9829    11712.173    1874.3485 
  473800    298.26952    -1164.404    6504.6429     11712.31    1926.7795 
  473900    300.79843   -1165.0875    6451.4105     11712.42    1929.8906 
  474000     299.6057   -1162.6156    6474.2917    11712.292    1928.5905 
  474100     304.4587   -1165.9042    6373.8193    11712.208    1924.3955 
  474200    299.86514   -1167.1546    6473.2501    11712.254    1969.8779 
  474300    299.78021   -1164.1037    6472.0183    11712.259    1942.4326 
  474400    304.15634   -1154.1107    6368.4899    11712.213    1899.2991 
  474500    302.44399   -1162.9068     6413.833    11712.178    2024.9788 
  474600    298.33484   -1161.6054    6500.3855    11712.246    1975.5115 
  474700    299.99772   -1155.1353    6458.4023    11712.258    1909.0759 
  474800    303.04965   -1165.5361    6403.6341    11712.289    1940.6774 
  474900    298.18179    -1165.797    6507.9496    11712.349    1893.8019 
  475000    301.96523   -1169.9662    6431.2778    11712.335    1878.0087 
  475100    303.57276   -1168.9461    6395.9149    11712.335    1940.6615 
  475200    298.46425   -1169.4379    6505.5642    11712.357    1952.8464 
  475300    305.67546   -1163.5263    6345.5262    11712.287    1869.1171 
  475400    298.68416   -1161.2384    6492.6805    11712.371    1932.3674 
  475500    298.25112   -1160.1761    6500.8054    11712.307    1971.4949 
  475600    301.07308   -1157.4943    6437.8332    11712.303    1895.6041 
  475700    303.08862   -1170.5322    6407.7637    11712.255    1907.9695 
  475800     299.7906   -1167.2255    6475.0467    11712.387    1972.1156 
  475900    297.31597   -1164.2329     6524.848    11712.315    1912.6686 
  476000    304.25138   -1164.7137    6377.0721    11712.222    1863.6975 
  476100    301.23827   -1163.4347    6440.2366    11712.295    1928.8278 
  476200    302.98844   -1160.6522     6399.977    11712.208    1869.1894 
  476300    300.38438   -1164.9528    6459.8928    11712.191    1873.1245 
  476400    302.94337   -1161.0007    6401.2983    11712.218    1941.1967 
  476500    300.63332   -1164.5964    6454.1784    11712.152       1912.5 
  476600    301.25514   -1159.5842    6435.7658    11712.035    1893.2308 
  476700    297.03758   -1159.3747    6525.7908    11712.168    1934.0413 
  476800      303.635   -1164.1167    6389.6542    11712.233    1914.4191 
  476900    301.81976   -1162.2232     6426.526    11712.219    1942.9901 
  477000    301.32605   -1162.9542    6437.8202    11712.235    1905.5552 
  477100    298.82931   -1159.1841    6487.3881    11712.234    1928.6467 
  477200    305.46715   -1164.0978    6350.5531    11712.292    1861.7061 
  477300    301.36465   -1161.6553    6435.7532    11712.291    1934.4686 
  477400    299.07332   -1158.0973    6481.1052    11712.251    1948.2166 
  477500    296.06834   -1161.5252    6548.7781    11712.299    1956.3362 
  477600    303.69769   -1166.4885      6390.79    11712.337    1928.5656 
  477700    300.11235   -1159.9394    6460.8427    11712.343    1965.8613 
  477800    301.30547   -1163.1252    6438.4853    11712.289    1968.4318 
  477900    302.23241   -1163.2293    6418.8205    11712.323     1948.903 
  478000    301.42786   -1168.4425    6441.2364    11712.338    1910.6402 
  478100    295.96845   -1165.8656    6555.3482    11712.394     1945.899 
  478200    301.79437   -1165.8584    6430.7972    11712.313    1939.9083 
  478300    302.73794   -1170.6737    6415.5129    11712.371    1953.9085 
  478400    299.55476   -1170.2856     6483.188     11712.43    1951.3066 
  478500    302.07048   -1165.3706    6424.4669    11712.369    1924.6046 
  478600    298.75348   -1163.5027    6493.4559    11712.363    1940.3441 
  478700    302.59702    -1162.774    6410.5714    11712.318    1952.5707 
  478800    300.78706   -1161.1705     6447.682    11712.365    1982.5719 
  478900    300.99152   -1164.9978    6447.1238    11712.348    1954.4475 
  479000    299.01879   -1164.8191    6489.1072    11712.366    1959.4856 
  479100     300.4428   -1164.1039    6457.9829    11712.378    1945.8612 
  479200     303.1057   -1169.8798    6406.8595    11712.368     1879.414 
  479300    301.71801   -1166.9919    6433.6458    11712.396    1889.8655 
  479400    296.23712   -1166.8179    6550.4946    11712.328    1969.7982 
  479500     301.9703    -1163.993    6425.0937    11712.233    1941.0093 
  479600    299.26328   -1157.2964     6476.226     11712.23    1884.6007 
  479700    299.31623   -1158.2271    6475.9443    11712.149    1862.7703 
  479800    301.59372   -1158.1213    6427.1632    11712.129    1847.0833 
  479900    301.41216   -1155.5556    6428.5528    11712.206    1842.3668 
  480000    299.34164   -1158.6577    6475.8867    11712.204     1846.026 
  480100    300.69358   -1158.2233     6446.588    11712.222    1859.4332 
  480200    300.98712   -1160.9792     6443.019    11712.168    1874.0727 
  480300    302.93072   -1159.5215    6400.0297    11712.158    1821.5246 
  480400    297.21719    -1159.538    6522.1333    11712.185    1938.4018 
  480500    302.80064   -1159.4221    6402.7223    11712.171    1881.7098 
  480600    301.84677   -1160.4029    6424.0429    11712.133    1888.4162 
  480700    299.20478   -1160.6898    6480.8114    11712.173    1865.3207 
  480800    300.59345    -1157.218    6447.6829    11712.183     1839.952 
  480900    301.02661   -1152.3728    6433.6498    11712.249    1874.4881 
  481000    301.95133   -1165.4892    6427.0771    11712.315    1888.8205 
  481100    301.43191   -1159.1851    6431.8615    11712.307    1884.7318 
  481200    299.10899   -1162.6298    6484.9378    11712.313    1835.3354 
  481300    304.81706   -1167.3725    6367.7409    11712.317     1867.004 
  481400    299.03635   -1154.2671    6478.1712    11712.357    1870.2602 
  481500    300.92785   -1155.7178    6439.2309    11712.375    1890.9446 
  481600    303.45048   -1164.5535    6394.0518    11712.252    1897.0292 
  481700    300.59947   -1162.1579    6452.6511     11712.34    1859.7754 
  481800     300.4675   -1164.4348    6457.7979     11712.39    1819.7598 
  481900    303.10982   -1164.4348    6401.2855    11712.327    1783.8151 
  482000    297.87373   -1165.4199    6514.1682    11712.363    1842.7644 
  482100     301.0583    -1165.586    6446.3357    11712.398    1849.0208 
  482200    302.57827   -1166.0933    6414.2666    11712.294    1816.3088 
  482300    300.99116   -1162.2563    6444.2751    11712.233    1828.3539 
  482400    301.76415   -1161.0727    6426.5535    11712.209    1854.4463 
  482500     302.2737    -1157.992    6412.6045    11712.226    1891.0235 
  482600    302.99195   -1159.7129    6398.8974    11712.143    1854.5921 
  482700    298.27441   -1162.1275    6502.1077    11712.155    1861.5042 
  482800    300.59877   -1159.7962     6450.178    11712.213     1907.526 
  482900    301.46927   -1164.2062    6435.9256    11712.148    1903.2702 
  483000    301.07488   -1162.8069    6442.8615    11712.057    1875.3626 
  483100    301.96311   -1157.4379    6418.5653    11712.106    1870.1868 
  483200    302.10063   -1155.1461    6413.3116    11712.082    1917.0381 
  483300    299.67387    -1153.574    6463.5861    11712.084    1948.3572 
  483400    300.00536   -1157.0898    6459.9881    11712.053    1917.3542 
  483500    298.78565   -1153.1613    6482.0849    11712.021    1897.5815 
  483600    299.39466   -1161.9441    6477.9616    11712.125    1864.1087 
  483700    302.27865   -1165.4244    6419.8237    11712.119    1851.6793 
  483800    300.16268   -1165.3871    6465.0585    11712.187    1916.0171 
  483900    301.38865   -1160.3677    6433.8041    11712.143    1861.8115 
  484000    299.84054   -1167.6597    6474.2428    11712.216    1827.2975 
  484100    298.97282   -1167.4399    6492.5939     11712.25    1880.4417 
  484200    303.58142   -1159.7016     6386.337    11712.187    1861.8482 
  484300    301.75583   -1160.7119    6426.4083    11712.247     1940.728 
  484400     302.1907   -1166.8724    6423.4144    11712.383    1921.4068 
  484500    298.93068   -1163.8524    6490.0155    11712.358    1925.4069 
  484600    303.53119   -1163.5787    6391.4443    11712.344    1904.5313 
  484700    300.21163   -1166.6428      6465.46    11712.378     1967.077 
  484800    304.09044   -1174.8407    6390.8989    11712.484    1898.6161 
  484900    302.36267   -1172.4751    6425.4066    11712.446    1869.9531 
  485000    303.20978   -1171.4381    6406.1768     11712.35    1891.8465 
  485100    305.88775   -1166.3885    6344.0719    11712.506    1887.7803 
  485200    298.60796   -1165.1719     6498.369    11712.498    1906.1873 
  485300    304.82916   -1167.1496    6367.3365    11712.394     1911.452 
  485400    299.84414   -1157.9872    6464.6221    11712.345    1947.6831 
  485500    301.28303   -1161.9704    6437.8376    11712.317      1950.12 
  485600    300.49596   -1164.3545    6457.1111    11712.392    1948.1995 
  485700    299.75965   -1169.3862    6477.8277    11712.346    1902.8738 
  485800    301.12301   -1164.6722    6443.9708     11712.33    1894.9835 
  485900     299.9875   -1160.5666    6464.0385    11712.244    1877.5456 
  486000    303.18953    -1167.939    6402.9925    11712.233    1859.8348 
  486100    299.83361   -1162.5814    6469.2599    11712.163    1866.7298 
  486200    300.80996   -1160.5855    6446.4063    11712.164    1898.4749 
  486300    302.10158   -1158.6055    6416.8695    11712.201    1898.8685 
  486400    301.37045   -1156.5214    6430.2909    11712.087    1898.3193 
  486500    297.56879    -1151.642    6506.5722    11712.031    1947.1053 
  486600    306.14639   -1155.7412    6327.4546    11712.061    1903.0433 
  486700    295.36092   -1159.5269    6561.6901    11712.096     1871.004 
  486800    300.52207   -1159.8019    6451.6605    11712.052    1873.0407 
  486900    302.50586   -1157.9097    6407.3814    11712.045    1867.0218 
  487000    302.45913   -1156.8171     6407.332     11712.09    1884.1189 
  487100    301.09735   -1160.8152     6440.514    11712.182    1860.6289 
  487200    297.74287   -1161.6849    6512.9761    11712.111    1945.2693 
  487300    302.91514   -1154.5724     6395.364    11712.109    1955.3727 
  487400    299.41579   -1153.5633    6469.2152    11712.211    1956.8214 
  487500    302.76044   -1160.4226    6404.6537    11712.243    1877.5578 
  487600    300.88583   -1154.8709    6439.1455    11712.239    1897.9635 
  487700    300.04016   -1159.6376    6461.9877    11712.248    1837.3369 
  487800    297.10752   -1164.6941    6529.7951    11712.347     1928.537 
  487900    302.56144   -1167.3142    6415.9212    11712.368    1920.3427 
  488000    298.26969   -1167.2297    6507.5598    11712.404    1937.6013 
  488100     302.8263   -1165.4021    6408.2638    11712.281     1870.775 
  488200    301.86267    -1163.814    6427.3065    11712.325    1920.2294 
  488300    299.80996   -1166.2786    6473.6644    11712.366    1872.0055 
  488400    298.91433   -1160.4944    6486.9427    11712.294    1913.2618 
  488500    306.04162   -1164.7607    6338.9274    11712.276    1914.9226 
  488600    299.53422   -1161.2208    6474.4912    11712.359    1940.6423 
  488700    298.09221   -1162.9449    6507.0103    11712.348    1967.6525 
  488800    304.88969    -1165.197    6363.9909    11712.294    1912.7331 
  488900    299.96575   -1171.9122    6476.0063    11712.402    1959.6013 
  489000    299.13168   -1166.9116    6488.8321     11712.41    1944.6713 
  489100      304.318   -1170.7256    6381.7903    11712.352    1883.3245 
  489200    299.14601   -1164.9247    6486.4727    11712.343    1961.4819 
  489300    307.61528   -1163.2738    6303.8317    11712.286    1957.1961 
  489400    297.76544   -1162.8202    6513.7528    11712.234    1960.9079 
  489500    299.71489   -1156.4547    6465.7675    11712.262    1970.7698 
  489600    304.56645   -1161.8277     6367.458    11712.225    1943.8205 
  489700    298.72118   -1162.5262    6493.0307    11712.224    1956.3497 
  489800     299.1285   -1162.3114    6484.1483    11712.258    1947.4731 
  489900     304.7239   -1169.1022    6371.3767    11712.233    1904.8188 
  490000    296.84313    -1165.587    6536.2014    11712.212    1934.4547 
  490100    300.36882   -1164.9826    6460.2121    11712.149    1937.3774 
  490200    303.64071   -1160.7923    6386.0577    11712.083    1916.1074 
  490300    299.69983   -1153.8225    6463.3707    11712.175    1938.7677 
  490400    302.91067    -1158.176    6399.0028    11712.049    1925.7052 
  490500    300.31483   -1161.8771    6458.2154    11712.104    1871.7903 
  490600    301.23817   -1165.0255    6441.6921    11712.158    1971.1619 
  490700    302.74618   -1158.3442    6402.7615    11712.125    1920.4016 
  490800    300.27459   -1159.2664    6456.5332    11712.173     1921.794 
  490900    302.64328   -1158.0882     6404.732    11712.153    1933.7639 
  491000    301.01857   -1164.2559    6445.6192    11712.163    1910.7861 
  491100    298.83023   -1161.2148    6489.3248    11712.159    1909.7074 
  491200    300.52613    -1163.532    6455.4608    11712.208    1925.7963 
  491300    297.75381   -1161.4796    6512.6801    11712.254    1962.8578 
  491400     301.0113   -1160.8661    6442.4544    11712.233    1954.2577 
  491500    297.93726   -1160.3767    6507.6725    11712.268    1980.9824 
  491600    299.62658   -1157.1803    6468.3808    11712.263    2001.6531 
  491700    300.84065   -1163.1027    6448.4242     11712.32    2002.7889 
  491800    300.20134   -1165.4929    6464.4756    11712.324    1943.8514 
  491900    299.86192   -1166.4082    6472.6413    11712.323    1938.1043 
  492000    303.67635   -1163.4912    6388.2695    11712.358    1954.1567 
  492100    300.06374   -1160.5754    6462.4731    11712.299    1916.1448 
  492200    300.32016   -1164.9616    6461.4705    11712.388    1890.6071 
  492300    302.06224   -1164.5468    6423.8128    11712.362    1898.2955 
  492400    300.29943   -1163.5323    6460.4766    11712.381    1948.1963 
  492500    301.55151   -1164.5476    6434.7939    11712.432    1901.9422 
  492600    304.10226   -1169.7635    6385.5274    11712.442    1965.6391 
  492700    299.77255   -1163.8931    6472.0658    11712.353    1942.1613 
  492800    300.05387   -1161.2086    6463.2804    11712.262    1904.6713 
  492900    300.99001   -1171.3588    6453.5608    11712.392    1952.6698 
  493000     303.9106    -1173.121      6392.97    11712.433    1971.0205 
  493100    300.46616   -1162.0767    6455.4563    11712.378    1909.3354 
  493200    303.55221   -1168.5582    6395.8773    11712.246    1864.8358 
  493300    300.75336   -1163.9667    6451.2359    11712.403    1908.8242 
  493400    301.05459   -1167.6286     6448.361    11712.302    1894.5387 
  493500    301.00959   -1163.5684    6445.3028    11712.342    1960.7382 
  493600    299.52607   -1162.9732     6476.445    11712.387    1987.8967 
  493700    298.55429   -1163.9805    6498.1845    11712.358    1935.6851 
  493800    300.89574    -1158.845     6442.928    11712.259    1933.3026 
  493900    302.60064   -1159.8975    6407.5277    11712.229    1919.4633 
  494000    301.36731    -1160.093    6434.0547    11712.212    1859.8504 
  494100    297.81329   -1166.9463    6516.9124     11712.29     1862.735 
  494200    300.44923   -1159.7139    6453.2528    11712.176    1934.9499 
  494300    300.79076   -1159.8291    6446.0389    11712.143    1992.6668 
  494400     302.0621   -1157.7889    6416.8866    11712.191    2001.1726 
  494500     302.5984    -1160.084    6407.7512    11712.218    1943.1626 
  494600    297.51135   -1156.0312      6512.44    11712.282    1937.8417 
  494700    298.22882   -1157.1805    6498.1504    11712.171    1933.5913 
  494800    306.47863   -1159.4985    6324.1518    11712.099    1882.9561 
  494900      299.797    -1161.858    6469.3311    11712.176    1927.7544 
  495000     301.0864   -1161.1088    6441.0568    11712.197    1950.6842 
  495100     299.5774   -1161.0581    6473.2917    11712.245    1910.7884 
  495200    299.53382   -1153.8173    6466.9642    11712.227    1895.3338 
  495300    307.61942   -1154.6164    6294.9492     11712.15    1953.8967 
  495400    299.04902   -1159.9214    6483.3764    11712.178    1973.4182 
  495500     298.7044   -1159.4115     6490.289    11712.239    1879.6517 
  495600    300.75404   -1168.2413    6455.3763    11712.284    1888.6526 
  495700    302.72206   -1171.7926    6416.9542    11712.354    1927.6446 
  495800    302.34222   -1167.4025     6420.612    11712.287    1972.7042 
  495900    303.18165   -1158.9362    6394.1949     11712.27    1923.4011 
  496000    299.23507   -1164.7513    6484.3709    11712.318    1958.8687 
  496100    300.60433   -1157.9225    6448.3422     11712.37     1911.394 
  496200    304.52733   -1164.2507    6370.8407    11712.349    1805.0548 
  496300    299.56705   -1160.9772    6473.5646    11712.378    1945.3745 
  496400    300.83279   -1168.2617    6453.8834    11712.453     1987.934 
  496500    301.61778   -1166.7574    6435.5827    11712.426    1884.8577 
  496600    300.31661   -1170.1722    6466.8014    11712.433     1887.927 
  496700     299.1167   -1168.8368    6491.0484    11712.381    1939.9118 
  496800    302.18189    -1172.649     6429.406    11712.409    1979.9881 
  496900    298.84123   -1163.7467    6491.8696    11712.407    1956.7141 
  497000    302.63628   -1172.9126    6419.8031     11712.25    1939.2533 
  497100    297.35719   -1161.5331    6521.3441    11712.391    1984.4924 
  497200    303.68047   -1164.4221    6389.0435    11712.289    1912.1027 
  497300    299.36275   -1159.4417     6476.269    11712.253    1993.2077 
  497400    300.80382   -1161.6948    6447.7184    11712.236    2030.0293 
  497500    299.43703   -1159.8446     6475.076    11712.244    1873.4688 
  497600    301.66609   -1164.8305    6432.4446    11712.247    1880.7752 
  497700    300.30345   -1163.6619    6460.3932    11712.254    1964.8729 
  497800    302.92005   -1162.4549    6403.1367    11712.104    1905.8233 
  497900    301.46755   -1160.1796    6431.8581     11712.07    1917.5056 
  498000    304.90331   -1157.0703    6355.3427    11712.064    1962.2031 
  498100    297.50219   -1159.0407    6515.6091    11712.246    2000.9427 
  498200    299.25786   -1160.1192     6479.033    11712.099    1967.3885 
  498300    300.39671   -1158.1107     6452.628    11712.032    1993.5168 
  498400    302.97273   -1159.5354    6399.1225    11712.134    1940.4639 
  498500    299.37484     -1157.87    6474.3734    11712.187    1943.8006 
  498600    302.60275   -1161.5559    6409.0803    11712.168    1956.3328 
  498700     297.7787   -1154.7628    6505.4222    11712.244    2036.3634 
  498800    302.43866    -1156.275    6407.3606    11712.224    1946.0357 
  498900    300.01712   -1157.6603    6460.5343     11712.28    1940.8681 
  499000    300.70868   -1165.0672    6453.2566    11712.369    1964.0755 
  499100    302.90332   -1167.3087    6408.6251    11712.381    1905.8833 
  499200    300.57419   -1164.6255    6455.7186    11712.399    1911.6954 
  499300    301.06379   -1163.2235    6443.7837    11712.326    1995.3167 
  499400    302.68255   -1158.1447    6404.1318    11712.335    2034.8953 
  499500    303.97328   -1163.9444    6382.4556    11712.434    1999.1324 
  499600    298.75461   -1161.3011    6491.2023    11712.335    1958.7284 
  499700    300.61927   -1165.7393    6455.8101     11712.34    1929.3569 
  499800    302.65242   -1162.8981    6409.5877    11712.394    1896.5988 
  499900    302.36497   -1171.4569    6424.3341    11712.441    1916.9893 
  500000    303.93174   -1168.9348    6388.2709    11712.371    1967.3196 
  500100    297.67359   -1164.3477     6517.406    11712.398    1954.6673 
  500200    303.41306   -1163.7868    6394.2371    11712.405     1911.047 
  500300     299.8388   -1162.2559    6469.1134    11712.453     2018.564 
  500400    305.36657   -1166.9873    6355.6445    11712.345    2001.3992 
  500500    300.34851   -1162.9504    6458.7906    11712.325    1925.7366 
  500600     302.4596    -1163.268    6414.0144    11712.332    1917.3545 
  500700    300.32832   -1165.6295    6461.9107    11712.335    1880.9291 
  500800    298.99873   -1167.5757    6492.1717    11712.245    1853.7142 
  500900    301.49338   -1159.0493     6430.353    11712.247    1915.9904 
  501000    301.74663   -1161.4625    6427.3739    11712.265    1921.1838 
  501100    299.82754   -1160.5703    6467.3763    11712.161    1905.4792 
  501200    301.83805    -1157.984    6421.7935    11712.116    1887.5986 
  501300    297.26036   -1155.0913    6516.8007    11712.221    1912.4998 
  501400    304.01988    -1165.333    6382.5947     11712.18    1892.5127 
  501500    299.16216   -1157.3705    6478.4267    11712.197    1936.6884 
  501600    302.38769   -1163.5822    6415.6211    11712.088    1952.0381 
  501700    300.40658   -1161.9824    6456.3432    11712.086    1939.4492 
  501800    297.18286   -1162.8696    6526.2048    11712.191    1948.3145 
  501900    304.31776    -1165.571    6376.5514    11712.262    1873.4159 
  502000    297.99509   -1161.9087    6507.9844    11712.284    1926.0106 
  502100    305.42348   -1158.9394    6346.2871    11712.252    1876.2821 
  502200    300.08157   -1154.7476    6456.2296    11712.264    1927.6124 
  502300    296.21623   -1160.8852    6544.9886    11712.309    1932.3255 
  502400    306.33812   -1164.4495    6332.3402    11712.335    1884.8433 
  502500    299.53966   -1162.7183    6475.8895    11712.376     1947.599 
  502600    301.66264   -1162.6423     6430.423     11712.34    1878.0737 
  502700    301.80096   -1166.1158    6430.9891    11712.388    1883.0019 
  502800    304.32492   -1169.0039    6380.0061    11712.437    1847.2462 
  502900    300.50171   -1165.2067    6457.8652    11712.417    1910.1965 
  503000     299.1713   -1167.9149    6489.0022    11712.423    1942.8828 
  503100    303.40194   -1157.7596    6388.3782    11712.336     1945.467 
  503200     300.2738   -1166.3198    6463.8659    11712.435    1951.9103 
  503300    302.74027   -1164.3707    6409.1921    11712.403    1888.9725 
  503400    300.19148   -1165.3099    6464.5736    11712.394    1833.4946 
  503500    299.89312   -1164.4197    6470.0461    11712.383     1823.468 
  503600     300.8154   -1166.4898    6452.3097    11712.279    1808.7791 
  503700    303.08278   -1168.5551    6406.0025    11712.346    1861.1094 
  503800    299.66394   -1169.4472    6479.8562    11712.269    1935.2216 
  503900    301.33103   -1156.8285    6431.5519    11712.199    1947.6066 
  504000    301.32551   -1161.4523    6436.3035    11712.208    1942.1908 
  504100    297.60066   -1154.7452    6509.1496    11712.186    1931.9043 
  504200    302.32954   -1160.9851    6414.4011    11712.223    1932.8103 
  504300    301.39449    -1156.009    6429.3558    11712.178    1936.6899 
  504400    306.41939   -1162.8047    6328.8608    11712.236     1929.663 
  504500    299.43008    -1162.406    6477.8398    11712.298    1962.0237 
  504600    304.31937   -1156.7437    6367.6181    11712.191    1864.5767 
  504700     298.0662   -1154.7458    6499.2661    11712.247    1958.7056 
  504800    300.12644    -1153.998    6454.4906    11712.233    1972.7262 
  504900    298.43649   -1151.7623    6488.2997    11712.175    1929.6764 
  505000    301.24871   -1156.2304    6432.6369    11712.123    1902.8413 
  505100    300.33576   -1150.2104    6446.1222    11712.124    1908.2518 
  505200    304.10291   -1163.1656    6378.6622    11712.189     1938.071 
  505300    300.23056    -1155.657    6453.9856    11712.294    1946.3203 
  505400    298.82075   -1157.3515    6485.7192    11712.215    1933.3994 
  505500    301.67522   -1161.3243    6428.7513    11712.255    1919.7179 
  505600    298.91394    -1158.912     6485.286    11712.212    1929.9603 
  505700    303.59997     -1162.05    6388.2822     11712.18    1930.8479 
  505800    299.60201   -1161.0067    6472.7253    11712.256    1991.7567 
  505900    303.41639   -1163.2687    6393.5495    11712.306    1941.9039 
  506000    297.77519   -1158.3801    6509.1441    11712.274    2020.2112 
  506100    302.67875   -1161.5411    6407.4218    11712.148    1984.6042 
  506200    299.30584   -1157.7268    6475.8565     11712.34    1963.9377 
  506300    302.54368   -1164.8257    6413.7255    11712.281    1925.8308 
  506400    302.67186   -1163.9151    6410.0969    11712.302    1976.6408 
  506500    300.43835   -1165.2084    6459.1944     11712.39    1989.8979 
  506600    302.64492   -1162.8047    6409.6609      11712.4    1933.4186 
  506700    298.49278   -1161.3409    6496.7643    11712.264    1993.6731 
  506800    303.49974   -1165.7402    6394.2815    11712.348    1910.9708 
  506900    300.58376   -1168.4322    6459.3051    11712.384    1928.1978 
  507000    303.29666   -1162.3046    6395.0926    11712.256    1919.3178 
  507100    302.43419   -1164.7794     6416.041    11712.304    1980.3941 
  507200    300.87526    -1162.311    6446.8278    11712.255     1925.001 
  507300    301.11395   -1161.4223    6440.8216    11712.237    1910.8654 
  507400    304.77205    -1159.818    6361.0551    11712.224    1968.2487 
  507500    301.01862   -1159.3428    6440.7809    11712.239    1963.5344 
  507600    299.95382   -1160.5387    6464.8519    11712.366    1860.1626 
  507700    300.96118   -1163.6427    6446.2581    11712.189    1918.8295 
  507800    300.41147   -1162.2277    6456.5361    11712.138    1904.1252 
  507900    298.22481    -1155.025     6496.197    11712.288    1924.6951 
  508000    301.48294   -1164.6602    6436.2135    11712.274      1962.49 
  508100    300.60928   -1160.6404    6450.8087    11712.224    2009.6659 
  508200    299.17402   -1156.9821    6477.7042    11712.116    1920.5357 
  508300    302.99794   -1158.4732     6397.486    11712.099    1892.7176 
  508400    297.66973   -1160.9344    6513.8351    11712.158    1956.0578 
  508500    301.12788   -1159.1143    6438.1545    11712.175    1966.1359 
  508600    303.17249   -1154.4931     6389.909    11712.231    2011.4673 
  508700    299.02253    -1155.818    6479.9327    11712.272    1961.1438 
  508800     302.2248    -1161.684    6417.3745     11712.26    1875.0641 
  508900    299.53875   -1159.5828    6472.6038    11712.207    1888.5331 
  509000    298.49906   -1160.6782    6495.9611    11712.257    1917.3594 
  509100      302.028   -1160.5197    6420.3903    11712.235    1927.9524 
  509200    299.19049   -1154.5063    6475.0274    11712.267    1947.8355 
  509300    301.01325   -1160.8577    6442.4611     11712.29    1912.6878 
  509400    302.76771   -1159.8802    6403.9429     11712.23    1887.1094 
  509500    299.83958   -1167.9141    6474.4752    11712.174    1966.8931 
  509600    299.66205   -1164.6981    6475.1132    11712.235    1972.7822 
  509700    302.96619   -1164.6059    6404.4735    11712.275    1908.8139 
  509800    300.80093    -1161.166    6447.2966    11712.281    1910.5717 
  509900    299.55597   -1165.5842    6478.4071    11712.377    1937.9725 
  510000    301.13242   -1162.2021    6441.2724    11712.302    1959.5605 
  510100     299.1098   -1160.5437    6482.7967    11712.275    1938.1261 
  510200    303.95609   -1153.5862    6372.3022    11712.271    1908.3629 
  510300    300.24665   -1160.6907    6458.6886    11712.307     1893.547 
  510400    299.26288   -1158.2806    6477.2324    11712.244    1900.3661 
  510500    304.02571   -1161.4498     6378.678    11712.271    1980.0945 
  510600    301.34769   -1159.5232    6433.9425     11712.25    1995.3093 
  510700    301.92455   -1162.7927    6424.9177     11712.28    1891.3822 
  510800    298.22835   -1162.4864    6503.5807    11712.285    1903.6981 
  510900    302.17153   -1158.7759    6415.5151     11712.17    1927.1099 
  511000    300.72728   -1165.9449     6453.493    11712.125    1927.2123 
  511100    301.59468   -1158.2773    6427.3579    11712.188    1912.5678 
  511200    301.51129   -1156.9364    6427.8033    11712.193    1929.7968 
  511300    301.29348   -1153.0579    6428.5586    11712.174    1896.7992 
  511400    299.51801   -1156.7863    6470.2163    11712.173    1987.8581 
  511500    300.13505   -1151.5139    6451.7804    11712.191    2003.3155 
  511600    305.97052   -1157.9679    6333.4808    11712.104    1937.4844 
  511700    301.78334   -1157.5653    6422.5362    11712.109    1949.9303 
  511800    298.19976   -1162.9486    6504.5805    11712.212    1940.1716 
  511900    298.97907   -1167.0759    6492.0909    11712.244     1864.779 
  512000    301.25949    -1162.196    6438.4809    11712.232    1907.6992 
  512100     300.8945   -1155.1891    6439.2319    11712.192    1910.1148 
  512200    299.94427   -1155.2636    6459.7153    11712.301    1941.9336 
  512300    299.79438   -1155.7112    6463.3099    11712.246    1930.4742 
  512400    300.08745   -1160.3118    6461.6446    11712.241    1965.6004 
  512500    301.43151   -1159.0088    6431.5896    11712.202    1901.6024 
  512600      301.408   -1161.7692    6434.8954    11712.246    1899.8882 
  512700    303.85597   -1160.2405     6381.152    11712.328    1909.3028 
  512800    301.39452   -1161.3369    6434.8369    11712.332     1896.192 
  512900    301.85606   -1164.0969    6427.6942    11712.289    1897.9912 
  513000    300.76725   -1169.2521    6456.1716     11712.35    1919.9339 
  513100    302.36628   -1169.3595    6422.0818    11712.314    1951.9209 
  513200    301.64767   -1160.3781    6428.4551    11712.317    1953.9628 
  513300    298.82623   -1167.0004    6495.4044    11712.368    2002.6168 
  513400    304.62271   -1164.4647    6369.0168    11712.349    1867.0603 
  513500    300.95263   -1166.8538    6449.8412    11712.378    1900.2588 
  513600    300.95518   -1162.7692    6445.6761    11712.353    1932.8859 
  513700    300.34135   -1163.4439    6459.4968    11712.385    1868.8201 
  513800    301.98306   -1166.9256    6427.8405     11712.32    1875.5826 
  513900    297.48043    -1166.755    6523.8449    11712.303    1947.2076 
  514000     303.1071   -1160.5056    6397.3143    11712.227     1833.634 
  514100    300.34173   -1165.9509    6461.8786    11712.268    1868.5778 
  514200    301.89286   -1161.2495     6424.093    11712.321    1954.8141 
  514300     303.7891   -1160.4926    6382.7416    11712.237    1975.9754 
  514400     300.8706   -1157.6298    6442.1457    11712.155    1926.4703 
  514500    300.41746   -1159.6997    6454.0466    11712.305    1954.0299 
  514600    300.57702   -1162.3784     6453.292     11712.28    1953.7532 
  514700     299.0955   -1158.7078    6481.1741    11712.183    1865.8439 
  514800    301.22328   -1159.2172    6436.2872    11712.243    1856.9782 
  514900     298.6495    -1160.359    6492.5007     11712.33    1940.3267 
  515000    300.21092   -1158.9863    6457.6925    11712.252    1960.5997 
  515100    301.75053   -1158.6897    6424.3896    11712.137    1933.5558 
  515200    299.20549   -1153.8359    6474.0202    11712.251    1965.9127 
  515300      299.817   -1154.7023    6461.8466    11712.275    1961.7169 
  515400    300.31359   -1156.3573    6452.7896    11712.171    1935.4437 
  515500    302.10871   -1161.7387    6419.8577    11712.208    1922.3569 
  515600    301.45105    -1161.206    6433.4014    11712.234    1888.2646 
  515700     299.2858   -1156.1654     6474.675    11712.292    1848.8592 
  515800    299.87326   -1161.8166    6467.7087    11712.224     1894.835 
  515900    304.99828   -1164.5069    6360.9637    11712.277    1935.4839 
  516000    303.96297   -1166.9465    6385.5781    11712.334    1882.5395 
  516100    298.97791    -1170.637    6495.8443    11712.411    1885.7994 
  516200    304.40825   -1165.6055    6374.6736    11712.283    1889.4514 
  516300    298.93838   -1160.7714    6486.7858    11712.374    1917.5021 
  516400    300.15859   -1158.8879     6458.851    11712.391    1925.1143 
  516500    303.82218   -1169.7783    6391.4915    11712.408    1931.4575 
  516600    302.48523   -1164.9323    6415.2694     11712.47    1979.0107 
  516700    299.56583   -1169.9487    6482.6233    11712.439    1934.2509 
  516800    298.76064   -1167.0654    6496.9792    11712.476    1938.4542 
  516900    304.97583   -1168.7604    6365.8308    11712.411    1841.0049 
  517000    299.21923   -1167.1016    6487.1571    11712.415    1895.4062 
  517100    299.85324   -1162.3189    6468.8516    11712.437    1957.2171 
  517200    307.77044    -1167.399    6304.7599    11712.404    1931.1316 
  517300     297.2642   -1167.1964    6529.0563    11712.453    1962.4739 
  517400    304.83212   -1169.0996    6369.2283    11712.399     1933.435 
  517500    303.84875   -1160.2354    6381.3081    11712.335    1953.8933 
  517600    298.00041   -1158.8682    6504.7903    11712.244    1882.9776 
  517700    298.51311   -1162.7139    6497.7568    11712.318    1890.5307 
  517800    306.82385   -1162.4383    6319.9012    11712.284     1927.012 
  517900    296.16362   -1157.3521    6542.5526    11712.282    1958.6616 
  518000    301.91587   -1156.2191    6418.4716    11712.222     1897.931 
  518100    300.74309   -1161.9063    6449.1396    11712.148    1923.7383 
  518200    298.84502   -1159.9385     6487.854    11712.281    1944.1644 
  518300    297.85403    -1161.007    6509.9631    11712.151    1870.6592 
  518400    297.07635   -1159.4459    6525.0386    11712.173    1988.8205 
  518500    304.26656   -1158.9762    6370.9608    11712.173    1912.3095 
  518600    300.96986   -1158.9083    6441.2077    11712.059    1861.5596 
  518700    300.42615    -1161.016    6455.0173    11712.145    1908.3094 
  518800    302.77887   -1159.9066    6403.7361    11712.235    1882.2754 
  518900    301.12437   -1158.9576    6438.0372     11712.14    1909.4258 
  519000    302.81553    -1163.402    6406.4271    11712.214    1870.1966 
  519100    299.61938   -1159.4408    6470.8354    11712.303    1868.1849 
  519200    300.26624    -1165.108    6462.7349    11712.354    1901.4034 
  519300    300.50431   -1163.1927    6455.7875    11712.408    1882.5882 
  519400     303.6118   -1153.9113     6380.047    11712.336    1869.2759 
  519500    299.48936   -1162.9216    6477.2131    11712.422    1933.7722 
  519600    300.41006   -1159.2651    6453.8647      11712.4    1924.0759 
  519700    303.46838   -1160.2205    6389.4851    11712.401    1878.1152 
  519800    300.15726   -1165.5044    6465.4159    11712.311    1898.1663 
  519900    299.24218   -1163.4071    6482.8441    11712.287    1822.9146 
  520000    302.11789   -1164.2345    6422.3399    11712.391     1877.179 
  520100    301.80323   -1169.9612    6434.7719    11712.374    1942.7904 
  520200    299.19922   -1165.4515    6485.9103    11712.391     1917.771 
  520300    303.57941    -1165.021    6391.8224     11712.31    1903.6154 
  520400    302.45836   -1160.2581    6410.9619    11712.263    1902.5206 
  520500    296.57144   -1162.0815    6538.5198    11712.232    1948.4989 
  520600    302.04044   -1161.2708    6420.8032    11712.163    1909.2192 
  520700    303.91941    -1164.608    6384.0911    11712.255    1970.4613 
  520800     301.8142   -1163.5794    6428.0302    11712.248    1900.7587 
  520900    299.28071   -1162.7103    6481.2212    11712.184    1844.1536 
  521000    301.65819   -1164.3195    6432.1221    11712.267    1872.2119 
  521100    300.17184   -1162.8962    6462.4021    11712.217    1901.9989 
  521200    297.92955   -1156.7487    6504.1551    11712.214    1855.8636 
  521300    300.96532   -1157.7871    6440.2521    11712.127     1830.324 
  521400    299.65998   -1165.2512    6475.7151     11712.24    1943.8519 
  521500    301.69869   -1160.7235    6427.4802    11712.086    1914.7237 
  521600    300.20743    -1155.113    6453.6791    11712.037    1915.7112 
  521700    301.52574   -1157.8606    6428.3128    11712.087    1951.6769 
  521800    302.13801   -1159.4692    6416.9196    11712.165    1917.1198 
  521900    300.79923   -1159.1456    6445.1729    11712.141    1874.5248 
  522000    301.08153   -1162.8617    6442.9246    11712.208    1912.4387 
  522100    298.45906   -1162.7843    6498.8768    11712.212    1919.6389 
  522200    302.86426   -1162.3469    6404.2766     11712.16    1864.8953 
  522300    299.67341   -1164.6828    6474.8373    11712.217    1997.0319 
  522400    300.24558   -1158.7817    6456.7462    11712.251    1989.9306 
  522500    302.17571   -1155.6229    6412.3297    11712.227    1930.2747 
  522600    298.60566   -1159.2817    6492.2515    11712.221    1965.7218 
  522700    300.96782   -1159.9679    6442.5268    11712.275    1961.4914 
  522800    300.55815   -1156.7109    6448.0241    11712.277    1911.4212 
  522900     302.7889   -1166.7746    6410.4296    11712.275    1881.7429 
  523000    301.26864   -1165.9431    6442.0024    11712.202    1962.1015 
  523100    300.65246   -1165.4642     6454.806     11712.32    1957.5748 
  523200    299.71095    -1168.795    6478.2505     11712.32    1902.0555 
  523300    302.63034   -1170.2768    6417.2863    11712.242     1955.984 
  523400    297.93174   -1164.7366    6512.2152    11712.333    2065.0413 
  523500     299.9825    -1160.817    6464.4718    11712.321    2027.9281 
  523600    301.75098   -1160.4956    6426.3907    11712.342    1944.6726 
  523700    299.73003   -1163.2465     6472.322    11712.348    1949.7546 
  523800    298.71511   -1161.9918      6492.74    11712.338    1921.9107 
  523900    296.93296   -1159.3883    6528.2503    11712.379    1923.0422 
  524000    307.35134    -1166.793    6313.0393    11712.336    1915.1372 
  524100    296.86067   -1164.1045    6534.4815     11712.35    1977.5881 
  524200    299.08885   -1164.8858    6487.7125    11712.401    1876.8378 
  524300    304.58196   -1155.8126    6361.1754    11712.289    1863.1713 
  524400    302.15765   -1159.8268    6416.9457    11712.253    1904.5824 
  524500    300.38764   -1160.2766    6455.1956     11712.24     1874.463 
  524600    303.80689   -1162.7215    6384.5833     11712.23    1882.6459 
  524700    298.07294   -1161.7568    6506.0691    11712.183    1946.8217 
  524800    300.85597   -1157.8549    6442.7303    11712.202    1835.5691 
  524900     298.3856     -1161.38    6499.1502    11712.321    1958.3806 
  525000    303.62126   -1158.8113    6384.6607    11712.252    1966.6247 
  525100    299.68045   -1159.6179    6469.6412    11712.236    1947.6538 
  525200    298.69689   -1154.2405    6485.2369    11712.197    1930.0076 
  525300    302.29197   -1166.1215    6420.3302    11712.213    1979.0306 
  525400     299.5028    -1161.515    6475.2465    11712.149    1896.2904 
  525500    303.40574   -1160.0609    6390.4424     11712.18    1845.1663 
  525600    300.05484   -1160.5423    6462.6156    11712.285    1969.8251 
  525700    304.83283   -1158.3245    6358.2132    11712.174     1904.046 
  525800     293.9745   -1161.1585    6593.0895    11712.245    1947.2165 
  525900    305.69299    -1162.871    6344.4491     11712.24    1914.6986 
  526000    303.84545   -1163.6219    6384.6871    11712.257    1913.3241 
  526100    301.41552   -1164.7512    6437.6819    11712.211    1840.8739 
  526200    301.32811   -1162.2004    6437.0541    11712.266    1930.5288 
  526300    304.06254   -1163.0095    6379.4518    11712.272    1891.4348 
  526400    298.08138   -1159.0958    6503.3561    11712.312    1892.3258 
  526500    302.75355   -1163.2964    6407.7266    11712.295    1901.8782 
  526600    304.35012   -1161.1251    6371.4556    11712.304    1845.8551 
  526700    298.42791   -1166.5775    6503.4611    11712.338    1887.5425 
  526800    301.71682   -1162.4375    6429.0429    11712.322    1925.8456 
  526900    300.52553   -1157.3851     6449.423    11712.305    1934.3932 
  527000    297.98738   -1166.4185     6512.718    11712.343     1933.969 
  527100    305.48071   -1163.4132    6349.6639    11712.377    1943.1757 
  527200    300.50725    -1155.295    6447.7548    11712.336    1951.0422 
  527300     301.0216   -1156.7122    6438.1081     11712.26    1932.6086 
  527400    297.98994   -1157.1954    6503.3445    11712.247    1989.8262 
  527500    303.23015   -1163.5527    6397.7653     11712.26    1914.1613 
  527600     298.3019   -1159.9368    6499.4179    11712.244    1929.1717 
  527700    302.75182   -1164.6525    6409.0697    11712.245    1919.4866 
  527800    300.30525   -1169.0523    6465.8329    11712.341    1940.5155 
  527900    300.33502   -1155.9935    6452.0748    11712.278     1884.861 
  528000    298.89591   -1161.1286    6488.0345    11712.358    1942.2663 
  528100    302.10267   -1162.3829    6420.6851    11712.262    1834.5956 
  528200     298.9162     -1160.94    6487.3832    11712.329    1943.8317 
  528300    301.46342   -1158.8927    6430.8448    11712.255    1948.6043 
  528400    299.02162   -1157.2834    6481.2973    11712.152    1926.0464 
  528500     299.2976    -1162.667    6480.8819    11712.249    1905.2753 
  528600    299.11943   -1159.5842    6481.6228    11712.266      1968.77 
  528700    300.67175   -1159.5629    6448.3717    11712.199     1941.845 
  528800    300.21106   -1162.7415     6461.462    11712.269    1880.4465 
  528900    302.03753    -1160.957    6420.6983     11712.31    1894.1741 
  529000    302.10311   -1164.5631     6422.933    11712.339       1918.2 
  529100    299.65458   -1162.2898    6472.9393     11712.31    1924.1891 
  529200    303.08845   -1163.4781    6400.7535    11712.295    1935.1408 
  529300    303.49719   -1165.2378    6393.8094    11712.323    1958.4943 
  529400    300.09255    -1164.342    6465.6782    11712.353    1932.6277 
  529500    303.76154   -1165.0575    6388.0684     11712.41     1859.789 
  529600    300.23001   -1162.2718     6460.664    11712.346    1912.9368 
  529700     302.9825   -1168.1668    6407.7625    11712.352    1919.5556 
  529800    300.75259   -1163.7959    6451.0088     11712.33    1891.3615 
  529900    300.93634   -1166.3042    6449.6831    11712.422    1937.4506 
  530000    300.67466    -1167.843    6456.7693    11712.379    1921.0436 
  530100    299.41066   -1165.6575    6481.5774    11712.369    1917.3575 
  530200    303.03018   -1168.2425    6406.7883    11712.321    1914.3648 
  530300    298.89962   -1166.7928    6493.6081    11712.347    1929.6726 
  530400     301.8557   -1166.7545    6430.4918    11712.421    1928.7095 
  530500    302.11707   -1164.4329    6422.5102    11712.345    1941.9868 
  530600     297.5301   -1161.5988    6517.6882    11712.363    1923.0713 
  530700    299.07809    -1155.081    6478.1136    11712.377    1951.1759 
  530800    302.38684   -1162.1654    6414.3976    11712.263    1934.4484 
  530900    299.47675   -1162.6897    6477.1972    11712.369    1950.4431 
  531000    301.40952   -1162.1676    6435.3754     11712.36    1871.1484 
  531100     299.6303    -1165.466    6476.6625    11712.338    1990.4725 
  531200    300.54395    -1164.902    6456.5221     11712.28     2042.068 
  531300    299.03715   -1161.5737    6485.3582    11712.254     1983.411 
  531400     304.2982   -1158.0113    6369.4403    11712.293    1977.8837 
  531500    301.58942   -1162.9405    6432.2543    11712.309    1942.3819 
  531600    300.59866   -1160.9832    6451.4306    11712.277    1916.1361 
  531700    302.74254   -1158.5749    6403.2017    11712.257    1908.3182 
  531800    300.39123   -1169.4906    6464.3727     11712.28    1948.1426 
  531900    299.83167   -1165.2484    6472.1138    11712.309    1926.0792 
  532000    303.98433    -1163.204    6381.4435    11712.398    1912.8176 
  532100    297.24088   -1164.6977      6527.01    11712.408    1920.1772 
  532200     298.7996   -1162.2095    6491.1777    11712.363    1935.8087 
  532300    302.22036   -1160.2511    6416.0944    11712.318    1975.5802 
  532400    303.10838    -1164.419    6401.3281    11712.355    1935.9087 
  532500    301.05863    -1163.101    6443.8217    11712.376    1991.3147 
  532600    301.68067   -1162.1745    6429.5381    11712.308     1995.679 
  532700    301.19339   -1169.2967    6447.1471    11712.385    1965.3536 
  532800    299.19096   -1168.5602     6489.248    11712.444    1923.3441 
  532900    298.93678   -1172.7233    6498.8231    11712.425    1931.2666 
  533000    300.95784   -1172.7848    6455.7324     11712.45    1968.9482 
  533100    302.56151   -1171.5953    6420.3204    11712.487    1936.5629 
  533200    300.17121   -1165.5743    6465.3226    11712.446    1855.1431 
  533300    304.05323     -1167.01    6383.7612    11712.382    1998.6529 
  533400    301.03685   -1165.9253     6447.058    11712.323    2026.1181 
  533500    302.00342   -1167.5038    6428.0568    11712.393    1937.4051 
  533600    300.15769   -1164.0301     6464.063    11712.441    1988.0657 
  533700    296.86921    -1169.307    6539.6228    11712.471    2025.0551 
  533800    303.39989   -1167.8861    6398.6194    11712.406    1878.2379 
  533900    301.94107   -1171.2479    6433.1689    11712.429    1939.8067 
  534000    300.02041   -1157.0048    6459.8788     11712.35    1988.1051 
  534100    297.15159   -1161.4761    6525.6551    11712.367    1936.8078 
  534200    300.54567   -1160.9341    6452.4917    11712.255    1893.5707 
  534300    301.54721   -1166.1886    6436.4166    11712.321    1978.2648 
  534400    303.74768   -1157.8627    6380.9545    11712.195     1957.575 
  534500    297.26413   -1158.0421    6519.7006    11712.251    1932.6752 
  534600    301.01653   -1161.8727     6443.477    11712.361      1940.29 
  534700    302.99276   -1164.6086    6403.8313    11712.198     1908.182 
  534800    298.05437   -1157.8998    6502.5926    11712.167    1931.1898 
  534900    302.84186   -1156.3163    6398.7276    11712.163    1929.6916 
  535000    299.49003   -1161.6084     6475.738    11712.275    1967.0374 
  535100    300.05765   -1158.7833    6460.7075    11712.195    1909.0019 
  535200    298.40155   -1158.8609    6496.1183    11712.149    1912.1032 
  535300    303.09846   -1162.2768    6399.1457    11712.102     1921.706 
  535400     298.6504   -1157.3018    6489.2513    11712.157    1938.9895 
  535500    305.50464   -1158.3081    6343.8268    11712.157    1947.8481 
  535600    301.95524   -1157.5533     6418.819    11712.076     1899.742 
  535700    297.36737   -1162.6045    6521.9624    11712.155    1992.7771 
  535800    300.84216   -1162.1537    6447.3257    11712.203    1971.6336 
  535900    304.89328   -1161.9307    6360.5854    11712.232    1891.1292 
  536000    298.68419   -1158.3594    6489.6339    11712.204    1955.3252 
  536100    304.09831   -1169.8208    6385.5716    11712.345    1887.7121 
  536200    300.27685    -1165.047    6462.3723    11712.279    1875.6542 
  536300     301.8761   -1162.4184     6425.617    11712.318    1918.8976 
  536400    301.03713   -1160.3966    6441.5276    11712.327     1879.246 
  536500    299.33256   -1160.6805    6478.2502     11712.35    1936.0786 
  536600    303.04422   -1164.4254    6402.7614    11712.411    1999.3734 
  536700    299.65833   -1161.2388    6471.9044    11712.406    1971.2987 
  536800    298.81766   -1164.3334    6492.9132    11712.361    1920.4964 
  536900    303.24614   -1164.6735    6398.6977    11712.413    1915.2983 
  537000    302.37624   -1167.5568    6420.1172    11712.365    1919.8531 
  537100    300.80929   -1165.5847    6451.6551    11712.399    1889.7357 
  537200    300.60738    -1161.375    6451.8296     11712.47    1896.9882 
  537300    301.45367   -1166.5567    6438.8725    11712.411    1891.2989 
  537400     301.9852   -1165.5983    6426.4548    11712.307    1854.8985 
  537500    303.54816   -1159.5765    6387.0281    11712.292    1890.6428 
  537600    299.27693   -1158.4284    6477.1384    11712.303    1938.3764 
  537700    304.95064   -1163.5028    6360.9262    11712.226    1927.1429 
  537800    300.12552   -1158.2413    6458.8251    11712.305    1905.5774 
  537900    299.95237   -1158.0742    6462.3717     11712.32    1895.0985 
  538000    301.85485   -1161.7676     6425.411    11712.309    1931.3606 
  538100    299.77871   -1160.1777    6468.0897    11712.224    1943.5743 
  538200    301.46388   -1165.4733    6437.4044    11712.244    1920.1052 
  538300    301.04545   -1160.6147    6441.4553    11712.215     1970.305 
  538400    301.10816   -1156.3847    6435.8704      11712.2    1962.4137 
  538500    300.25949   -1158.5661    6456.1447    11712.162    1927.4043 
  538600    302.27028   -1158.4987    6413.1975    11712.239    1971.6957 
  538700    298.76344   -1153.3707    6483.1072    11712.359    1941.5324 
  538800    299.96716   -1163.1799     6467.111    11712.269    1885.6437 
  538900    302.43221   -1169.6661    6420.9394    11712.273    1897.6436 
  539000    301.69399   -1163.1747    6430.1792    11712.234    1886.7107 
  539100    296.62442   -1161.1573    6536.5484    11712.317    1827.5391 
  539200    302.98965   -1167.2255    6406.6005    11712.284    1864.5673 
  539300    300.06123   -1163.7189    6465.6504    11712.279    1973.3551 
  539400    300.26944   -1155.5221    6453.0268    11712.301    1950.2183 
  539500    302.42574   -1157.9384    6409.3339    11712.258    1890.2529 
  539600      301.212    -1159.261    6436.5793     11712.25    1913.3763 
  539700    299.04149   -1158.6291    6482.4258    11712.359    1923.4504 
  539800    304.31764    -1166.076    6377.0955    11712.299    1878.9584 
  539900     299.0846   -1166.7471    6489.5812    11712.318    1955.2869 
  540000    304.20248   -1172.4836     6385.984     11712.32    1916.4261 
  540100    302.65807   -1170.9028    6417.3751    11712.297    1843.0913 
  540200    300.04526   -1164.7716    6467.1312    11712.366      1929.49 
  540300    300.34622   -1163.1911    6459.0732    11712.318    1938.0411 
  540400    302.99241   -1159.7011    6398.9794    11712.246    1908.7314 
  540500    303.34898    -1155.953    6387.6366    11712.269     1895.524 
  540600    297.54788   -1153.4391    6509.1178    11712.333    1917.0353 
  540700    303.44331   -1153.5577    6383.2649    11712.308    1905.4403 
  540800    303.79225   -1159.4091    6381.6261    11712.272    1883.4676 
  540900    298.58089   -1162.7449     6496.312     11712.29    1929.0604 
  541000    306.42884   -1164.6937    6330.5985    11712.287    1877.7784 
  541100    295.23962   -1162.4467    6567.4078    11712.303    1862.0909 
  541200    299.44231   -1163.3681    6478.4464    11712.204    1836.8579 
  541300    301.93309   -1158.7933    6420.5999    11712.144    1859.4674 
  541400    302.48173   -1155.4188    6405.5011     11712.14    1874.7437 
  541500    301.04372   -1152.9646    6433.6885    11712.061    1902.9377 
  541600    298.96312   -1153.9226    6479.1286    11712.094    1870.7016 
  541700    300.82258   -1157.0023    6442.5111    11712.122    1833.6367 
  541800    297.54058   -1160.8598    6516.5139    11712.152    1868.5673 
  541900    305.67352   -1164.9076    6346.8411    11712.179    1850.8076 
  542000    297.04159   -1163.9867    6530.4159    11712.267    1878.9527 
  542100    301.87013   -1164.0564    6427.3294    11712.265    1877.1566 
  542200    300.53839   -1159.4305    6451.1604    11712.271    1948.1158 
  542300    301.85325   -1162.4987    6426.0891    11712.222    1902.9968 
  542400    302.00184   -1153.2354     6413.667    11712.238    1874.3232 
  542500    300.93786   -1160.2451    6443.4039    11712.234    1937.6421 
  542600     300.5269   -1161.1823    6453.1868    11712.301    1914.7325 
  542700    301.96559   -1158.9406    6420.1995     11712.29    1899.7369 
  542800    301.80999   -1160.7143    6425.2866     11712.28    1896.5691 
  542900    303.79453   -1170.4067    6392.5981    11712.295    1926.5379 
  543000    299.37749   -1169.1592    6485.8073    11712.389    1922.6661 
  543100    300.05263   -1168.7344    6470.9925    11712.422    1934.8733 
  543200    300.87428   -1166.8931       6451.5    11712.324    1944.7095 
  543300    300.79968   -1162.8895    6449.1289    11712.363    1958.0422 
  543400    300.37578   -1155.7702    6451.0343    11712.332    1927.5603 
  543500    301.03787   -1161.0704    6442.1725    11712.314    1927.6396 
  543600    300.33658   -1164.3934    6460.3289    11712.166    1903.0653 
  543700    301.73536   -1162.5742    6428.7567    11712.295    1915.0022 
  543800     303.0497   -1164.0614    6402.1834    11712.314     1919.658 
  543900    303.03004   -1163.7354    6402.3014    11712.338    1853.2434 
  544000    300.37792   -1165.7667    6460.9862    11712.333    1909.5795 
  544100    303.21705   -1169.5066    6404.0543    11712.315     1931.428 
  544200    298.73778   -1166.3682    6496.6051    11712.311    1986.1917 
  544300     300.2027   -1166.0292    6464.8923    11712.233    1977.0065 
  544400     301.8528   -1160.1738    6423.7525    11712.201    1869.9108 
  544500    302.09767    -1158.511    6416.8953    11712.237    1946.1327 
  544600    303.31295   -1158.7616    6391.1503    11712.204    1977.2372 
  544700    297.50096   -1155.3559    6511.9072    11712.203    1965.6884 
  544800    301.63855   -1164.4939    6432.6803    11712.231    1878.7139 
  544900    299.12521   -1165.3028    6487.1867    11712.235    1930.1467 
  545000    298.88728    -1164.999    6491.9904     11712.26    1933.8102 
  545100    304.65128   -1163.3482     6367.166    11712.225    1871.3644 
  545200    298.35392   -1162.9378    6501.2791    11712.215    1969.4129 
  545300    299.23719   -1160.0336    6479.5175    11712.227    1961.1503 
  545400    300.75582   -1161.3593     6448.367    11712.194    1963.6092 
  545500    300.85412   -1159.3495    6444.3192    11712.256    2011.9519 
  545600    302.30854     -1164.04    6417.9193    11712.238    1903.3477 
  545700    300.00808   -1164.0207     6467.058     11712.25    1863.2555 
  545800    305.04702   -1160.9962    6356.3448     11712.21    1876.0911 
  545900    298.15238   -1158.9957    6501.6449    11712.217    1940.0121 
  546000    301.58172   -1156.9457     6426.341    11712.226    1920.4137 
  546100    302.92625   -1158.0661    6398.7103    11712.199    1950.8761 
  546200    299.60649   -1157.3279    6468.9085    11712.214    1932.0172 
  546300    297.53108   -1164.5649    6520.4973    11712.227    1941.6075 
  546400    304.65798   -1156.6008    6360.1717    11712.121    1901.6057 
  546500    300.01736   -1160.8696    6463.6497    11712.191    1948.4055 
  546600     301.3282   -1157.7653    6432.5338    11712.183    1887.8648 
  546700    303.46905   -1156.9848     6386.005    11712.171    1918.4099 
  546800    299.68276   -1154.3701    6464.3104    11712.203    1969.5992 
  546900    300.18564    -1155.721    6454.9216    11712.206    1886.7324 
  547000    302.82009   -1158.1347    6400.9635    11712.115    1840.1019 
  547100    302.01631   -1162.5897    6422.6672    11712.193    1888.2624 
  547200    300.95093   -1163.8727    6446.7594    11712.242    1916.8801 
  547300    295.37894   -1160.9668    6562.8477    11712.199    1868.8493 
  547400    304.40556   -1159.9578    6368.9793    11712.179    1842.7815 
  547500    298.97023   -1157.0575    6482.2847    11712.267    1938.2298 
  547600     301.0112   -1155.1777    6436.8496    11712.314     1908.669 
  547700    300.24121   -1159.2245    6457.2319      11712.2    1840.9311 
  547800    301.20915   -1156.2116    6433.6703     11712.33    1857.8664 
  547900    303.66072    -1156.925     6381.989    11712.309    1851.4175 
  548000    297.41998    -1160.752    6519.0554    11712.225    1854.8985 
  548100     301.8304   -1166.4547    6430.5792    11712.268    1868.1933 
  548200     301.2634   -1167.3688    6443.6864    11712.348    1953.8907 
  548300    302.90712   -1165.6458     6406.895    11712.395    1872.3357 
  548400     299.0668   -1162.6324    6485.8525    11712.324    1872.8987 
  548500    300.83444   -1159.8513    6445.3446     11712.36    1923.7859 
  548600    302.38207   -1159.3599    6411.7572    11712.326    1877.3249 
  548700     305.4288   -1160.9233    6348.1629    11712.257    1887.6763 
  548800     299.1655   -1163.3595    6484.4571    11712.309    1912.2108 
  548900    301.24686   -1152.9049    6429.4775     11712.25    1864.3807 
  549000    298.93871   -1163.8095    6489.8372    11712.395    1890.2197 
  549100    302.59195   -1165.3262    6413.2495    11712.336    1911.1004 
  549200    300.11537   -1164.5523    6465.3191    11712.271    1957.9643 
  549300    299.62554   -1160.7176    6471.9849    11712.307    1940.8537 
  549400    298.54474   -1156.4734    6490.7945    11712.271     1973.308 
  549500    304.46441   -1156.8028    6364.6355    11712.248    1901.0243 
  549600    296.71252   -1149.8971    6523.2088    11712.119    1939.9135 
  549700    302.75486   -1156.1174    6400.3904    11712.166    1877.1967 
  549800    299.68066   -1158.9096    6468.8547    11712.162    1880.2282 
  549900    301.46299   -1157.8528    6429.6879    11712.129    1764.6206 
  550000    301.66998   -1157.6688     6425.108    11712.155    1824.7325 
  550100      302.383    -1156.374    6408.5053     11712.08    1851.3991 
  550200    299.43789   -1152.7094    6467.7746    11712.096    1889.6806 
  550300    303.65657   -1159.4647    6384.4452    11712.137    1885.9878 
  550400    299.05321   -1157.1191    6480.5246    11712.219    1921.7903 
  550500       300.22   -1157.3469    6455.7945    11712.187    1906.8608 
  550600    300.08776   -1157.9875    6459.2093    11712.136     1875.683 
  550700    301.50929   -1156.9189    6427.8233    11712.188    1917.2855 
  550800    300.77427   -1156.4943    6443.0178    11712.104    1916.7503 
  550900    302.24526   -1160.5319    6415.6569    11712.131    1874.6418 
  551000    305.02127   -1160.1918    6356.1331    11712.253    1948.2626 
  551100    300.47137   -1149.9315    6443.0587    11712.237    1935.6194 
  551200     303.3398    -1158.078    6389.8808    11712.192    1882.2973 
  551300      301.052    -1157.535    6438.2163    11712.195    1912.6342 
  551400    301.34034   -1161.0387    6435.6657    11712.301    1925.7488 
  551500      303.197   -1159.5065    6394.3652    11712.197    1898.1427 
  551600    303.02163   -1163.4035    6402.0371    11712.226    1945.1617 
  551700    301.53247   -1161.5437    6432.1245    11712.359    1931.6168 
  551800    300.00495   -1162.0707    6465.1993    11712.274    1924.0697 
  551900    297.83477   -1163.8175    6513.2753    11712.241    1926.1067 
  552000    303.95217   -1160.9085    6379.7252    11712.288    1916.5347 
  552100     299.1697   -1163.5767    6484.5704    11712.295    1978.3086 
  552200    302.27581   -1158.8187    6413.4143    11712.255    1911.8125 
  552300     299.1779   -1160.3644    6481.1641    11712.277     1939.191 
  552400    301.38084    -1164.113    6437.8003    11712.227    1965.2558 
  552500    300.52149   -1158.3318    6450.3581    11712.207    1934.0332 
  552600    303.13004   -1157.9609    6394.2833     11712.23    1929.1328 
  552700    297.61885   -1160.9341     6514.959    11712.195    1987.9909 
  552800    301.72577   -1156.7512    6423.0031     11712.16    1880.0041 
  552900    301.50195   -1159.2119    6430.2452     11712.16    1866.4825 
  553000    300.51717   -1159.8755    6451.9969    11712.209    1947.2465 
  553100    296.42271   -1158.4487    6538.0529    11712.221     1912.945 
  553200    297.62397   -1157.6737    6511.5952    11712.201    1917.6013 
  553300    304.83068   -1157.0734    6356.8785    11712.045    1885.9248 
  553400    301.20135   -1156.7014    6434.0927    11712.096    1947.6188 
  553500    300.96018   -1149.9424    6432.5031    11712.113    1921.5611 
  553600    300.26482    -1150.323    6447.6995    11712.074    1934.1703 
  553700    300.40346   -1152.5558    6447.0921    11712.195    1999.9949 
  553800    298.37483   -1156.7621    6494.6999    11712.258    1953.5878 
  553900    300.65709   -1159.1984    6448.3177    11712.197    1873.0393 
  554000     300.3025   -1160.5421    6457.2827    11712.243    1918.7718 
  554100    299.80082   -1156.3542    6463.8853    11712.316    1944.6137 
  554200     301.6346   -1160.4578    6428.7005    11712.203    1897.5788 
  554300    297.87595   -1158.8424    6507.3939    11712.214    1922.9196 
  554400    300.91564   -1159.0456    6442.7044     11712.26    1957.1352 
  554500    305.05508   -1159.7715    6354.9922    11712.255    1883.7049 
  554600    301.84431   -1160.0511    6423.8776    11712.267    1902.6509 
  554700    300.05957   -1159.8069    6461.7987    11712.304    1988.1971 
  554800    299.34439   -1167.5002    6484.8426    11712.376    1900.5661 
  554900    301.55905   -1166.3739    6436.4306    11712.403    1881.9888 
  555000    302.93203   -1171.2621     6412.025    11712.441    1919.3171 
  555100     297.3473   -1164.6741    6524.8245    11712.519    1931.1458 
  555200     303.1971   -1167.4082    6402.4946    11712.427      1877.57 
  555300    300.32636   -1164.4623    6460.8916    11712.441    1947.8356 
  555400    302.84787   -1159.5906    6402.1314    11712.421    1946.8476 
  555500    299.32608   -1157.0491    6474.8476    11712.441    1954.0249 
  555600    303.69205   -1161.2544    6385.7356    11712.396    1927.3541 
  555700    297.28522   -1161.3909    6522.7436    11712.395    1961.7503 
  555800    303.42253   -1163.0445    6393.2402    11712.352    1895.3167 
  555900    301.09494   -1163.6943    6443.6326     11712.37    1931.6194 
  556000    300.25625   -1165.0854    6462.8754    11712.304    1924.9856 
  556100    300.67434   -1161.9186    6450.7509    11712.278    1938.6623 
  556200    303.66934   -1155.5907    6380.2832    11712.122    1865.9302 
  556300    302.40971   -1160.7305    6412.3656    11712.155    1885.3028 
  556400    299.93607   -1156.5953    6461.0775    11712.156     1933.314 
  556500    300.77017   -1158.4156    6444.9779    11712.056    1915.8233 
  556600    298.38348   -1149.9773    6487.6357    11712.164    1886.5116 
  556700    299.27809   -1150.9374    6469.4329    11712.113    1926.0293 
  556800    302.70179   -1159.7298    6405.1057    11712.135     1938.301 
  556900    297.49974   -1153.4911    6509.9714    11712.106    1898.6649 
  557000    302.25751   -1159.8677    6414.7033    11712.104    1936.3183 
  557100    298.95298    -1163.333    6488.7457    11712.084    1917.0776 
  557200    301.06562   -1161.0961    6441.4581    11712.167     1884.913 
  557300     301.1209    -1155.948    6435.1302    11712.168    1992.8562 
  557400    303.74156   -1159.5722    6382.7751    11712.175    1941.1321 
  557500    298.04238   -1157.9291    6502.9311     11712.22    1923.3061 
  557600    299.54767   -1156.9629     6469.909    11712.323    1954.8435 
  557700     304.0578   -1158.6644    6375.2072    11712.271    1942.1738 
  557800    303.73091     -1165.81    6389.3636    11712.298    1906.3399 
  557900    301.34048   -1161.4369    6436.1741    11712.414    1851.5533 
  558000    296.94457   -1168.7395    6537.4345     11712.46    1930.8921 
  558100    304.16389   -1169.1384    6383.5705    11712.427    1890.6847 
  558200    300.76642   -1165.8536    6452.8909     11712.45    1923.7677 
  558300    302.50902    -1166.429    6416.2936    11712.506    1938.6183 
  558400    302.57826   -1162.8307    6411.1626    11712.452     1939.316 
  558500    301.49587   -1165.2936    6436.7349    11712.438    1911.4919 
  558600    302.14454   -1168.2516    6425.8077    11712.411     1969.486 
  558700    300.65531   -1168.9221    6458.3088    11712.426    1987.9697 
  558800    299.90017   -1171.9872    6477.4448    11712.365    1912.0942 
  558900    301.87907   -1169.9455    6433.1679    11712.405    1831.0328 
  559000    302.24302    -1175.685    6431.0201    11712.293    1923.5191 
  559100    296.51197   -1170.0661     6547.911    11712.368    2006.1247 
  559200    303.49311    -1167.799    6396.4848     11712.35    1995.3072 
  559300    299.52812   -1163.7186    6477.0605    11712.301    1982.3154 
  559400    302.69741   -1153.5705    6399.1783    11712.274    1981.5001 
  559500    299.58149   -1154.0726    6466.2263    11712.253    2010.3154 
  559600    301.59276    -1153.702    6422.7841    11712.149    2014.7098 
  559700    303.63674   -1153.0133    6378.4173    11712.137    1997.8323 
  559800    299.91514   -1158.9689    6463.9062    11712.164    1957.2513 
  559900    301.65913   -1163.2766    6431.0165    11712.224    1914.7838 
  560000    299.65743   -1164.1653    6474.6459    11712.202     1944.518 
  560100    302.50169   -1160.8255    6410.4663    11712.125    1872.1578 
  560200     302.5077   -1159.2304     6408.647    11712.029    1831.8267 
  560300    298.19958   -1156.7743    6498.3031    11712.105    1889.1871 
  560400    302.20534   -1147.7087    6403.5902    11712.035    1924.7255 
  560500    300.22359   -1153.1098     6451.357    11712.063    2001.5698 
  560600    301.83111   -1153.4413    6417.3712    11712.088    1968.1291 
  560700    302.01864   -1156.0775    6416.0464    11712.134    1941.8502 
  560800    300.30431   -1159.3211    6455.9601     11712.18    1953.9357 
  560900    297.04374    -1162.586    6528.9536    11712.251    1922.3974 
  561000    298.86543    -1165.623    6493.1498    11712.328    1907.0194 
  561100    301.94114   -1166.4749    6428.2553    11712.289    1965.0526 
  561200    301.73388    -1157.881    6424.0501    11712.251    1930.7185 
  561300    297.14287   -1152.7915    6517.0933    11712.303    1947.8037 
  561400    304.47846   -1157.0262     6364.518    11712.207    1979.4363 
  561500    301.59453   -1157.9974    6427.2516    11712.359    1986.0212 
  561600     301.9163   -1161.4734    6423.8746     11712.38    1944.8363 
  561700    299.67904   -1162.8982    6473.1672    11712.452    1956.8589 
  561800    299.42973    -1167.914    6483.5501    11712.493    1964.1384 
  561900    302.85499   -1171.5184    6413.8861      11712.4     1861.908 
  562000    298.42437   -1174.5956    6511.7111    11712.494    1982.8093 
  562100    303.72901   -1171.3727    6395.1015    11712.433    1985.5949 
  562200     302.4859   -1163.9452    6414.2216    11712.423    1922.1034 
  562300    299.52295   -1160.1417     6473.566    11712.273    1936.8574 
  562400    299.45785   -1160.3268    6475.1951    11712.326    1954.2616 
  562500    304.02604   -1161.1697    6378.4247    11712.305    1888.6885 
  562600     301.9575   -1159.1291    6420.5437    11712.273    1930.5908 
  562700    298.31902   -1160.6088    6499.7305     11712.25    1922.7949 
  562800    305.01495   -1165.3018    6361.3822    11712.257    1880.8652 
  562900    300.41916   -1168.2474    6462.4698    11712.217    1854.0406 
  563000     298.4055   -1167.6582    6504.9161    11712.233     1889.164 
  563100    303.82624   -1167.2719    6388.7812    11712.291    1892.9276 
  563200    300.01784   -1161.2864    6464.1614    11712.296    1925.7417 
  563300    303.94352   -1160.1269    6378.9761    11712.136    1920.5948 
  563400    302.14122   -1157.9827    6415.3199    11712.121    1877.0235 
  563500    301.12078   -1151.3183    6430.4398    11712.105    1874.9956 
  563600    301.09727   -1155.4763     6435.105     11712.11    1899.2223 
  563700    300.84874   -1153.7152    6438.7176    11712.174    1933.4739 
  563800    305.40735   -1158.6146     6346.201    11712.146    1930.7466 
  563900    302.84286   -1160.3562     6402.873     11712.29    1874.0383 
  564000     296.4813   -1166.8444    6545.2904    11712.314    1917.9478 
  564100    302.12449   -1163.5859    6421.4613    11712.302    1904.8654 
  564200    300.49257   -1158.5254    6451.2592    11712.296    1861.1456 
  564300    299.30508   -1160.8705    6479.0074    11712.331    1963.6116 
  564400    306.67413   -1161.3198    6321.9476     11712.25    1894.2844 
  564500    299.65031   -1157.9034     6468.607    11712.273    1909.3005 
  564600    300.86014   -1160.6252    6445.5649    11712.355     1962.797 
  564700    302.61542   -1156.5879    6403.9629    11712.289    1980.2196 
  564800     300.9343    -1160.407     6443.724    11712.316    1928.7278 
  564900     301.5926   -1164.2944    6433.5898    11712.359    1927.6358 
  565000    298.59945    -1168.012    6501.2402    11712.347    1934.4135 
  565100    305.19888   -1166.1822    6358.3603    11712.284    1917.8141 
  565200    299.76382   -1164.3709     6472.742    11712.365    2032.0352 
  565300    301.56907    -1167.079    6436.8546    11712.336    1967.7181 
  565400    300.93554   -1167.3738    6450.7482      11712.4    1979.8718 
  565500    299.84674   -1171.4596    6478.0539     11712.36    1948.4678 
  565600    299.73933   -1154.7216    6463.5879    11712.337    1890.6251 
  565700      304.163    -1163.885    6378.2491     11712.34    1972.6003 
  565800     304.3732   -1161.0338    6370.8775     11712.31    1997.4557 
  565900    301.86192   -1163.8867    6427.3691    11712.299    1936.2599 
  566000    302.24294   -1158.0277    6413.3458    11712.275    1961.4844 
  566100    301.81968   -1167.3959    6431.6864    11712.205    1938.1518 
  566200    300.07021   -1166.7695    6468.4547    11712.225    1899.8618 
  566300    303.41755   -1163.9272    6394.1555    11712.279    1888.1924 
  566400    296.95586   -1162.6784    6530.9962    11712.324    1904.7263 
  566500    300.98109   -1164.2659    6446.4817    11712.215    1834.1614 
  566600    298.58882   -1160.2577    6493.4912    11712.126    1898.6152 
  566700    300.88618   -1159.2795    6443.4965    11712.189    1947.8747 
  566800    303.06602   -1158.1804    6395.8003     11712.16    1898.5115 
  566900    300.36728   -1158.2302    6453.5292    11712.185    1961.7699 
  567000     299.3643   -1157.2082    6473.9867    11712.237    1950.8106 
  567100    305.24038    -1161.369     6352.553    11712.176    1850.0542 
  567200    301.65251   -1163.4379    6431.3445     11712.25    1859.2892 
  567300    301.77277   -1161.8108    6427.1008    11712.202    1926.6423 
  567400    299.94809   -1165.4246    6469.6953    11712.201    1950.0597 
  567500    302.38921   -1165.5457    6417.7019    11712.238    1897.8062 
  567600    297.70009   -1160.4674    6512.8556    11712.294      1928.13 
  567700    302.48674   -1165.4378    6415.6224     11712.35    1932.9448 
  567800    298.71571   -1167.7591    6498.4254    11712.269    1915.5967 
  567900    300.95354   -1157.5995    6440.5475    11712.359    1911.4911 
  568000    302.06483   -1159.7602    6418.9609    11712.352    1887.5837 
  568100    299.43855   -1166.8201    6482.1753      11712.4    1899.7081 
  568200    305.08955   -1163.5182    6358.1801    11712.432    1833.7462 
  568300    301.92473   -1163.5105    6425.8228    11712.471     1860.538 
  568400    300.08325   -1169.2692    6470.8659    11712.415    1900.3724 
  568500    299.83895   -1167.3622    6474.1631      11712.4    1877.1643 
  568600    298.21742   -1162.2636    6503.7611    11712.455    1985.6288 
  568700    302.44934   -1156.8537    6407.8252    11712.338    1875.9408 
  568800    299.55098   -1166.7563    6479.6471    11712.338    1914.6075 
  568900    302.15495   -1167.5452    6424.8766    11712.408    1871.2583 
  569000    299.88758    -1165.462    6471.2775    11712.454    1895.7321 
  569100     299.8049    -1164.586    6472.0742     11712.36    1902.4177 
  569200     304.0599   -1168.1891    6384.7622    11712.346    1926.9191 
  569300    299.96265   -1166.3494    6470.5358    11712.428    1957.6411 
  569400     300.7126   -1165.4827    6453.4685    11712.249    1911.2229 
  569500    303.42429   -1157.8611     6387.863    11712.196    1939.7909 
  569600     301.1633   -1162.3613    6440.5618    11712.092    1950.3677 
  569700    297.79446   -1158.5013    6508.7529    11712.173    1946.8447 
  569800    303.12367   -1157.0594    6393.4317    11712.144    1921.8442 
  569900    303.08419   -1162.2572    6399.4212    11712.093    1911.4893 
  570000    298.41904   -1163.8446    6500.7879    11712.208    1911.1254 
  570100    302.18191   -1163.9041    6420.4262    11712.175    1904.5513 
  570200    301.83887   -1169.2474    6433.1091    11712.186    1934.1507 
  570300    298.70314   -1162.7609    6493.6332    11712.207    1915.5469 
  570400    303.35002   -1164.7293    6396.3548    11712.233    1889.5234 
  570500    304.88191   -1158.3872     6357.191    11712.138    1827.7597 
  570600    300.10165   -1156.1998    6457.1999    11712.211    1911.8921 
  570700    299.16171   -1160.9461    6482.0499    11712.235    1961.9573 
  570800    300.15567   -1156.8245    6456.6692     11712.21    1935.6113 
  570900     301.1878   -1159.9751     6437.922    11712.362     1965.631 
  571000      303.937   -1163.8886    6383.0601    11712.319    1904.0659 
  571100    299.94537   -1165.2671    6469.7045     11712.31    1867.0931 
  571200    299.73447   -1163.7598    6472.8376    11712.445    1847.6476 
  571300    300.30339   -1159.0657    6455.9514    11712.407    1926.5726 
  571400    306.02544   -1166.8649    6341.4787    11712.378    1958.4536 
  571500    297.11923   -1163.1797    6528.0448    11712.362    1917.8154 
  571600    301.13512   -1161.4163    6440.4083    11712.282     1978.964 
  571700    304.52159    -1164.824    6371.5269    11712.339    1949.8723 
  571800     299.3147   -1160.0523     6478.023     11712.37    1940.2162 
  571900    301.60866   -1166.6114      6435.52    11712.315    1951.9123 
  572000    300.18714   -1160.0641    6459.4451    11712.419    1948.7406 
  572100     300.5316   -1165.5068    6457.5211    11712.411    1966.6825 
  572200    306.67903   -1164.0862    6324.6691     11712.31    1973.4935 
  572300     300.2675   -1164.3462    6461.8945    11712.303    1956.5801 
  572400    295.56688   -1162.7825    6560.7295     11712.28    1983.2983 
  572500    300.70755   -1159.2499    6447.3899    11712.295    1938.2893 
  572600    301.37044   -1161.0762    6434.9949    11712.236     1991.014 
  572700     299.3491   -1158.9613    6476.0191    11712.192    1963.7551 
  572800    299.72166   -1164.8278    6474.0212    11712.287    1905.4931 
  572900    301.31459   -1161.7869    6437.0189    11712.356    1898.5396 
  573000    300.22684   -1165.0939    6463.5367    11712.329    1936.8209 
  573100    300.69218   -1166.3884    6454.8791    11712.318    1959.8473 
  573200    297.99273   -1165.3721    6511.5156    11712.301    1981.2207 
  573300    304.19523   -1154.3805    6367.9053    11712.189    1948.6717 
  573400    297.79231   -1164.4751    6514.8696     11712.27    1988.3711 
  573500    298.35891    -1159.658    6498.0844    11712.407    1988.0614 
  573600    304.16322   -1162.7399    6377.1572    11712.398     1942.565 
  573700    298.90517   -1159.0152    6485.7175    11712.353    1933.8521 
  573800     297.1156   -1160.1543    6525.0659    11712.331    1955.5908 
  573900     301.1031   -1167.6869    6447.4279    11712.347    1936.4651 
  574000    304.60637   -1160.8931    6365.7866    11712.341    1930.8956 
  574100     299.4597   -1168.2062    6483.0492     11712.34    1928.2043 
  574200    299.94215   -1163.4136    6468.0642    11712.454     1911.011 
  574300     299.0039   -1164.1316    6488.7898    11712.418    1909.9284 
  574400    301.20665   -1162.6519    6440.1167    11712.283    1917.7502 
  574500    302.63859   -1162.2591    6409.0774    11712.227    1953.9418 
  574600    303.33135   -1162.3915    6394.5637    11712.381    1934.3187 
  574700    298.25342   -1161.1765    6501.7102     11712.26    1922.5057 
  574800    302.50726   -1161.6374    6411.2754    11712.241    1954.1282 
  574900    301.69033   -1162.8968    6430.1215    11712.376    1992.9989 
  575000     304.3919   -1161.8232    6371.2379    11712.281    1857.6039 
  575100    300.41564   -1161.3946    6455.7849     11712.31    1959.8398 
  575200    301.18128   -1161.2837    6439.2566    11712.249     1930.636 
  575300    300.30848   -1164.0563    6460.7269      11712.3    1860.2292 
  575400    298.20679   -1163.6715    6505.3093    11712.368    1912.7217 
  575500    303.24447   -1159.2878    6393.3186    11712.384    1918.6152 
  575600    297.91733   -1164.0626    6511.8769    11712.361    1853.8832 
  575700    303.48835   -1159.7185    6388.3976    11712.242    1864.6791 
  575800    298.93943   -1159.4064    6485.2217    11712.197     1952.719 
  575900    301.35782   -1155.1525    6429.2629    11712.158    1871.3515 
  576000    298.07301   -1157.1455    6501.4929     11712.22    1864.0348 
  576100    304.14943   -1160.7695    6375.3385    11712.255    1944.1554 
  576200    300.92111   -1160.9717     6444.568    11712.314    1969.5823 
  576300    300.10366   -1160.7618    6461.8103    11712.303    1892.9737 
  576400    302.36487   -1163.9925    6416.6789    11712.248    1834.6296 
  576500    298.44813   -1160.9671    6497.2985    11712.218    1912.7622 
  576600    304.86407   -1163.5846    6362.8508    11712.219    1882.5078 
  576700    297.35282   -1164.5923    6524.4385    11712.333    1916.8395 
  576800    302.49845   -1161.0205    6410.8969    11712.292    2002.1329 
  576900     299.5518   -1159.5714    6472.3624    11712.256    1959.7789 
  577000    295.28109    -1162.867    6566.8896     11712.25    1913.3722 
  577100    300.06657   -1153.4396    6455.2543    11712.276    1909.7237 
  577200    302.92392   -1160.7078    6401.4671    11712.264    1932.5896 
  577300     304.6297   -1168.5916    6372.9792    11712.334    1882.5312 
  577400    299.11849   -1163.3475    6485.5766    11712.437    1884.5591 
  577500    300.61217   -1165.5545    6455.7883    11712.352    1871.9156 
  577600    300.78968   -1166.7852    6453.2224    11712.347    1922.9521 
  577700    303.34513   -1161.0219    6392.8289     11712.31    1961.6709 
  577800     305.4715   -1157.0472    6343.4681    11712.351    1905.4919 
  577900    296.63342   -1161.6979    6536.8992    11712.319    1930.9982 
  578000     303.4203     -1158.84    6388.9614    11712.231    1881.4893 
  578100    302.40855   -1156.2245    6408.0479    11712.318    1913.9899 
  578200    296.85247   -1161.8797    6532.4213    11712.339     1991.615 
  578300    303.01218   -1165.6861    6404.5658     11712.27    1892.1971 
  578400    301.89705   -1167.1065    6429.7999    11712.261    1886.0571 
  578500    300.67606   -1170.8028    6459.6776    11712.357     1974.319 
  578600    302.38688   -1167.4563    6419.7107    11712.286    1870.8785 
  578700    300.15966   -1162.7422    6462.6093    11712.318    1901.8075 
  578800    297.38711   -1159.5189    6518.5632    11712.264    1920.5775 
  578900    301.94222   -1157.5711    6419.3273    11712.289    1900.9403 
  579000    302.85826   -1154.3807    6396.6095    11712.331    1919.1073 
  579100    302.57386   -1158.4141    6406.7123    11712.324     1959.738 
  579200    297.43527   -1157.8329    6515.8827    11712.298    1959.1534 
  579300    301.99576   -1164.9044    6425.4942    11712.266    1911.3336 
  579400    305.68997   -1165.3835     6346.993    11712.207     1956.784 
  579500    298.16501    -1170.598    6513.0624    11712.302    2004.2298 
  579600    300.20754   -1164.0356    6462.8493    11712.287    1909.8075 
  579700    302.81418   -1159.5637    6402.6122    11712.209     1940.177 
  579800    301.86587   -1159.6559    6422.9738    11712.219    2003.9643 
  579900    299.92571   -1157.5012    6462.2659    11712.217     1989.204 
  580000    300.44014   -1161.7411    6455.4159    11712.117    1964.0138 
  580100    302.47498   -1161.5234    6411.7329    11712.123    1966.7042 
  580200    303.69253   -1163.9922    6388.2536    11712.186    1881.3202 
  580300     296.0092   -1163.0734    6551.5026    11712.212    1893.5505 
  580400     301.5238   -1164.2652    6434.8569    11712.185    1899.7967 
  580500    301.10581   -1166.6805    6446.1875    11712.171    1881.6257 
  580600    301.73757   -1164.0605    6430.0788    11712.179    1903.6054 
  580700    300.39866   -1159.2336    6453.8511    11712.174    1938.1022 
  580800     302.1805   -1158.7801      6415.37    11712.213    1994.9355 
  580900    303.90815   -1164.5699    6384.1652    11712.127    1946.5408 
  581000    298.47855   -1158.5528    6494.2147    11712.198    1995.0563 
  581100    300.49116   -1157.5406    6450.2498    11712.242    1949.4163 
  581200    300.69198   -1161.8748    6450.2228    11712.171    1907.9757 
  581300    300.40449   -1163.9978    6458.6008    11712.284    1926.7777 
  581400    299.76807   -1168.2459    6476.3951    11712.234    1841.8991 
  581500    299.36005   -1173.0996    6489.9708    11712.239    1865.4546 
  581600    302.38962   -1165.0094    6417.2045    11712.285    1935.1166 
  581700    299.73973   -1163.6971    6472.4049    11712.187    1930.6023 
  581800    301.17134   -1157.0863    6435.3318    11712.309    1868.0519 
  581900    301.13104   -1162.0092     6441.122    11712.315    1908.1876 
  582000    298.61318   -1161.5479    6494.3719    11712.236    1968.4501 
  582100    298.58573   -1160.0686    6493.4987    11712.256    1955.1247 
  582200    303.88036   -1164.3264    6384.6545    11712.266    1960.0834 
  582300    297.44688   -1169.9037    6527.7605    11712.353    1949.9517 
  582400    298.46042   -1167.1476    6503.2952    11712.296    1938.1019 
  582500    303.97008   -1165.8935    6384.3775    11712.338    1920.3662 
  582600    298.83813   -1163.4984    6491.6303     11712.35    1930.5854 
  582700    302.81211   -1164.2311    6407.4535    11712.338    1919.4263 
  582800    299.45218   -1160.3234    6475.3181    11712.331    1952.3067 
  582900    302.70081   -1165.4549    6411.1485    11712.432    1955.9079 
  583000    301.08487   -1161.0368    6441.1425    11712.322    1904.4099 
  583100    301.03647   -1162.4687    6443.6355    11712.349    1948.1373 
  583200    300.91764   -1168.7187    6452.3659    11712.291    1908.6413 
  583300    299.09119   -1162.0491    6484.7043    11712.279     1854.686 
  583400     301.7714   -1167.5727    6433.0577    11712.368    1857.3801 
  583500    305.42807   -1168.4486    6355.7719    11712.325    1893.2206 
  583600    298.55432   -1165.0847    6499.2001     11712.27     1907.623 
  583700     303.0383   -1171.2034     6409.479    11712.224    1949.0925 
  583800    299.95098   -1161.8185    6466.2827    11712.457    1973.1717 
  583900     298.2507   -1159.5488    6500.1185    11712.238    1980.3669 
  584000    302.71479   -1166.1481     6411.305    11712.194    1927.1198 
  584100    301.16438   -1165.3695    6443.5756    11712.121    1945.2274 
  584200    301.31345   -1161.3438    6436.4157    11712.172    1899.9832 
  584300    300.20079   -1159.2263    6458.0361    11712.139    1871.8197 
  584400     300.5083   -1156.4718    6448.7009    11712.128    1921.4502 
  584500    306.06432   -1158.8729    6332.3995    11712.121    1909.2489 
  584600    300.03751    -1161.022    6463.3355    11712.155    1898.1099 
  584700    301.00033   -1156.7397    6438.4786    11712.149    1919.0117 
  584800    303.31562   -1158.3902    6390.7546    11712.237    1923.5491 
  584900    298.84445   -1161.9652    6489.8142    11712.202    1904.1533 
  585000    300.63044   -1154.0655    6443.7887    11712.231    1894.0626 
  585100    299.42645   -1156.3968    6471.7945    11712.184    1868.6801 
  585200    304.89519   -1150.9469    6349.4356    11712.107     1870.265 
  585300    300.81541   -1158.1487    6443.8728    11712.184    1947.6417 
  585400    299.94757   -1152.7477    6457.0739    11712.246    1934.2059 
  585500    298.65325   -1158.4648    6490.3918    11712.195     1901.859 
  585600    300.37046   -1156.4287    6451.6919    11712.217    1907.6679 
  585700    301.73195   -1157.4997    6423.6908    11712.231    1994.2644 
  585800    300.18249   -1156.1428    6455.3934    11712.189    1979.5628 
  585900    300.00292   -1155.5084    6458.6486    11712.242    1899.3111 
  586000    301.75961   -1159.5151    6425.1628    11712.279    1937.6215 
  586100    300.28319   -1156.3587    6453.5734    11712.304    1922.5419 
  586200    302.87614   -1156.0809    6397.8635    11712.267    1850.0151 
  586300       302.43   -1163.2122    6414.6072    11712.348    1934.5022 
  586400    303.86256    -1160.839    6381.6203    11712.339    1937.6933 
  586500    297.79944   -1158.0259    6508.3723    11712.375    1862.0366 
  586600      300.804   -1167.5952    6453.7424    11712.363    1851.3667 
  586700    302.89194   -1167.9363    6409.4898    11712.375    1953.6765 
  586800    300.50436   -1168.6781    6461.2049    11712.341    1970.5447 
  586900    302.74345   -1164.8219    6409.5329     11712.36    1918.8564 
  587000     300.4479   -1161.8947    6455.6275    11712.341    1915.3505 
  587100    301.64434    -1159.649     6427.739    11712.258    1951.2946 
  587200    302.17153   -1163.4259    6420.3456    11712.351    1930.0658 
  587300    300.12982   -1160.9937    6461.4695    11712.289     1943.368 
  587400    299.05171   -1159.3023    6482.7854    11712.264    1935.1191 
  587500     301.3129   -1160.0125    6435.1081    11712.183    1858.9317 
  587600    300.94587   -1162.9608    6445.9113    11712.197    1848.7581 
  587700    300.68378   -1165.4397    6454.0485    11712.256    1899.8394 
  587800    301.72329   -1157.6758    6423.9953    11712.175    1847.5041 
  587900    297.60293   -1157.7897    6512.2047    11712.245    1900.4982 
  588000    303.51849   -1161.3526    6389.2122    11712.066     1876.147 
  588100    301.58617   -1152.9311     6422.078    11712.073    1921.9221 
  588200    298.76488   -1152.0334    6481.4736    11712.093    1973.0293 
  588300    301.99189   -1150.4732    6410.9309    11712.051    1931.5341 
  588400    297.54043   -1157.3694    6512.9758    11712.101    1961.9767 
  588500    303.37552   -1158.6432    6389.5912      11712.1    1896.4912 
  588600    299.45115   -1152.3699     6467.069    11712.013    1858.6649 
  588700    300.57701   -1161.4652    6452.1633    11712.065    1876.6371 
  588800    298.03801   -1152.7101    6497.7242    11712.139     1918.191 
  588900    302.05399   -1153.9434    6413.1565    11712.133    1847.3893 
  589000    303.05605   -1159.9922    6397.7907    11712.126     1879.717 
  589100    299.32888   -1154.7689    6472.1985    11712.132    1993.9708 
  589200    302.65536   -1159.4968    6405.8657    11712.136    1896.0334 
  589300    299.95983   -1157.4724    6461.4462    11712.155    1919.8269 
  589400    302.77274   -1161.5362    6405.5615      11712.3    1943.0469 
  589500     301.8928   -1163.2777    6426.1808    11712.379    1905.2116 
  589600    303.65036   -1164.1683    6389.4628    11712.318    1918.0586 
  589700    301.85837    -1165.471    6429.0182    11712.288    2016.3661 
  589800    299.58551   -1164.2243    6476.4464    11712.407    1968.1203 
  589900    299.81395   -1168.4354    6475.7628    11712.393    1881.6509 
  590000    302.62635   -1162.5064    6409.8032    11712.444    1902.8888 
  590100    301.74028   -1162.5571     6428.801    11712.462    1928.5351 
  590200    300.40089   -1166.0317    6460.9168    11712.489    1939.0881 
  590300    303.81855   -1173.2946    6395.1345    11712.457    1927.4862 
  590400    300.02717   -1165.3233    6468.0545    11712.351      1880.37 
  590500    302.59534    -1162.949     6410.765    11712.301     1859.835 
  590600    299.55151   -1167.4907    6480.4605    11712.428    1981.7004 
  590700    302.28347   -1159.7887    6414.2757    11712.309    1968.8319 
  590800    301.40427    -1161.204    6434.5257    11712.361    1956.9915 
  590900    302.57276   -1161.4386    6409.6986    11712.263    1909.7443 
  591000    300.70728   -1158.9281    6447.0459    11712.267    1961.9377 
  591100    300.74514   -1159.4159    6446.5979     11712.14    1919.5076 
  591200    300.84406   -1157.1825    6442.2732    11712.162    1901.7823 
  591300     299.6259    -1158.152    6469.2743     11712.17    1912.7761 
  591400    300.55001   -1159.8493    6451.0403    11711.981    1878.1853 
  591500    299.37146   -1156.4407    6472.8834    11712.055    1874.6467 
  591600    301.17972   -1157.2817    6435.1028    11712.064    1935.2689 
  591700     302.8995    -1154.578    6395.5958    11712.001    1916.8486 
  591800    297.96147   -1152.9848    6499.5225    11712.027    1913.5516 
  591900    299.38123    -1152.932    6469.0799    11711.969    1928.4594 
  592000    302.13422   -1155.4703    6412.9195    11712.083    1986.6364 
  592100    300.98212    -1146.548     6428.546    11712.019    1992.5272 
  592200    303.99329   -1154.9922    6372.6901    11712.048     1939.435 
  592300    300.60546   -1154.4322    6444.5843    11712.126    1909.2042 
  592400     298.4313   -1163.2801    6499.9539    11712.201    1931.3677 
  592500      297.927   -1165.3928     6512.868    11712.228    1905.5383 
  592600    307.15438   -1163.3891    6313.8425    11712.335    1877.6131 
  592700    300.19509   -1160.0788    6459.2619    11712.391    1932.8972 
  592800    301.82453   -1166.5234    6430.8389    11712.333    1890.7146 
  592900    300.84397   -1165.5464    6450.8382    11712.362    1890.0896 
  593000    300.02523   -1162.0296    6464.8686    11712.418    2010.6941 
  593100    302.83506   -1162.8318    6405.6344    11712.409    1927.7544 
  593200      302.144    -1164.517    6422.0623    11712.388    1882.2433 
  593300    299.18316   -1163.5682    6484.3781    11712.399    1973.9216 
  593400    300.57588   -1170.3312    6461.4925    11712.504    1918.7618 
  593500    302.64599   -1173.1581    6420.2179    11712.627    1923.3654 
  593600    297.64985   -1167.1208     6520.857    11712.569    1950.7849 
  593700    301.45369   -1173.0049    6445.4158    11712.506    1928.0829 
  593800    300.30387   -1159.8649    6456.8101    11712.477    1936.5678 
  593900    298.68281   -1160.5867    6492.1511    11712.464     1975.348 
  594000    302.08276   -1163.8685    6422.7104    11712.377    1899.1924 
  594100    300.87139   -1160.7434     6445.364    11712.276     1908.726 
  594200    299.47247   -1162.7562    6477.2761     11712.29    1919.6841 
  594300    302.88259   -1165.4933    6407.1909    11712.319    1897.4625 
  594400    301.24175   -1159.1404    6435.7788    11712.206     1895.973 
  594500    301.75911   -1157.5089    6423.0639    11712.175    1848.5707 
  594600    301.34888   -1162.5828    6436.8973    11712.171    1871.8549 
  594700    297.79906   -1151.8027    6501.8174    11712.035     1905.283 
  594800    301.09123   -1149.1584    6428.7221    11711.916    1963.3668 
  594900    302.97501    -1143.904    6383.1956    11711.888    1956.0589 
  595000    298.74831   -1144.8514    6474.4751    11711.923    1948.3272 
  595100      300.154   -1149.6707    6449.2641    11711.923    1937.9528 
  595200    301.86009   -1150.5418    6413.6903    11711.926    1938.2323 
  595300    303.63303   -1149.6908    6374.9928    11711.956    1870.5437 
  595400    297.64484   -1155.2631    6508.5818    11712.044    1911.4604 
  595500    300.05802   -1157.2277    6459.0035    11712.055    1856.2403 
  595600    302.16839   -1153.2341    6409.9196     11712.05    1910.8388 
  595700    302.29949   -1152.7586     6406.611    11712.017    1917.5099 
  595800    300.42744   -1149.5442    6443.5341    11712.161    1914.2944 
  595900    300.88263   -1154.2774    6438.4533    11712.072    1877.0534 
  596000    295.68924   -1149.3341    6544.5166    11712.129    1932.1886 
  596100    303.37915   -1155.1196    6386.0434    11712.154    1909.0787 
  596200    299.76571   -1159.2514    6467.4152    11712.198     2041.026 
  596300    300.21938   -1165.7965     6464.261    11712.191    1950.4429 
  596400    299.16333   -1161.8238     6483.004    11712.346    1862.4686 
  596500    300.65671   -1170.8885    6460.2237    11712.405    1853.0015 
  596600    299.16036   -1172.0024      6493.29     11712.39    1857.2938 
  596700    301.32182    -1165.512    6440.6347    11712.401    1915.3257 
  596800    302.38145   -1167.6002    6420.1337    11712.449    1931.6979 
  596900    300.04723   -1166.9837    6469.3676    11712.432    1897.1234 
  597000    301.11703    -1159.636    6439.0702    11712.337    1877.7678 
  597100    305.58416   -1166.5225    6350.5485    11712.363    1934.2529 
  597200     298.7999   -1164.5799     6493.652    11712.473    1956.4252 
  597300    302.05973   -1162.6065    6422.0064    11712.442    1860.8872 
  597400    299.86933     -1172.91    6479.1537    11712.492    1882.5549 
  597500    297.53367   -1170.2338    6526.3735     11712.49    1893.9402 
  597600    308.05419   -1169.9108    6301.2381    11712.432    1801.8017 
  597700    300.25061    -1162.204    6460.1936    11712.383    1914.8958 
  597800      302.236   -1158.7402    6414.2178    11712.286    1919.5337 
  597900    303.17008   -1158.6447     6394.111     11712.23    1894.9308 
  598000     301.9499   -1155.6903    6417.1846    11712.191    1912.7563 
  598100    299.69747   -1154.7667    6464.3858    11712.196    1985.0295 
  598200    299.68421   -1150.8616    6460.6529    11712.085    1946.1457 
  598300     301.7245   -1152.2268    6418.4007    11712.055    1928.1199 
  598400    302.71645   -1152.0922    6397.0337    11712.014    1936.5093 
  598500    298.69705   -1152.8567    6483.5603    11711.908    1931.1749 
  598600    301.58132   -1155.5823    6424.7142    11711.954    1848.8181 
  598700    296.70412   -1155.2287    6528.5894    11711.989    1885.2023 
  598800    304.43539   -1154.2117    6362.3494    11711.933     1830.571 
  598900    301.36729   -1149.3245    6423.0008    11711.926    1834.4264 
  599000    297.99115   -1147.5825    6493.2569    11711.798    1801.3325 
  599100    302.91814   -1148.4317     6388.869    11711.818    1834.4133 
  599200    302.38622   -1142.0445    6393.8907    11711.864    1910.2891 
  599300    300.24668   -1152.6445    6450.2373    11711.902    1899.1735 
  599400    300.27701   -1154.1617    6451.0978    11711.894    1884.9854 
  599500    299.48413   -1156.3229    6470.3155    11712.012    1990.3084 
  599600    298.50101    -1157.363    6492.3612    11712.014    1903.0025 
  599700    301.98718   -1162.3727    6422.9032    11712.023    1751.6291 
  599800      300.763   -1154.6337    6441.3019    11712.008    1873.0459 
  599900    301.46466   -1157.8217     6429.468    11711.976    1933.8536 
  600000    299.99904   -1161.9037    6464.9022    11712.018    1958.6143 
Loop time of 283.108 on 8 procs for 300000 steps with 7168 atoms

Pair  time (%) = 137.378 (48.5248)
Bond  time (%) = 81.1522 (28.6647)
Neigh time (%) = 19.6129 (6.92772)
Comm  time (%) = 34.5012 (12.1866)
Outpt time (%) = 0.490545 (0.173271)
Other time (%) = 9.97352 (3.52287)

Nlocal:    896 ave 902 max 890 min
Histogram: 1 0 1 1 2 0 0 1 1 1
Nghost:    2851 ave 2860 max 2847 min
Histogram: 3 0 1 2 0 1 0 0 0 1
Neighs:    23591 ave 24058 max 23324 min
Histogram: 1 3 1 0 0 1 1 0 0 1

Total # of neighbors = 188728
Ave neighs/atom = 26.3292
Ave special neighs/atom = 157.056
Neighbor list builds = 3043
Dangerous builds = 0
# −−−−−−−−−−−−−− Flux calculation in nve −−−−−−−−−−−−−−−
reset_timestep  0
compute         PE all pe/atom
compute         KE all ke/atom

variable        CX atom (vx*(c_KE+c_PE))
compute         Jcx all reduce sum v_CX

variable        CZ atom (vz*(c_KE+c_PE))
compute         Jcz all reduce sum v_CZ

variable        CY atom (vy*(c_KE+c_PE))
compute         Jcy all reduce sum v_CY

compute         SA all stress/atom virial

variable        VX atom -(c_SA[1]*vx+c_SA[4]*vy+c_SA[5]*vz)*1.4593e-5
compute         Jvx all reduce sum v_VX

variable        VZ atom -(c_SA[3]*vz+c_SA[6]*vy+c_SA[5]*vx)*1.4593e-5
compute         Jvz all reduce sum v_VZ

variable        VY atom -(c_SA[2]*vy+c_SA[6]*vz+c_SA[4]*vx)*1.4593e-5
compute         Jvy all reduce sum v_VY

variable        Jx equal (c_Jcx+c_Jvx)/vol
variable        Jz equal (c_Jcz+c_Jvz)/vol
variable        Jy equal (c_Jcy+c_Jvy)/vol

fix             JJTx all ave/correlate $s $p $d                 v_Jx type auto file J0Jt_tx.dat ave running
fix             JJTx all ave/correlate 5 $p $d                 v_Jx type auto file J0Jt_tx.dat ave running
fix             JJTx all ave/correlate 5 20000 $d                 v_Jx type auto file J0Jt_tx.dat ave running
fix             JJTx all ave/correlate 5 20000 100000                 v_Jx type auto file J0Jt_tx.dat ave running

fix             JJTz all ave/correlate $s $p $d                 v_Jz type auto file J0Jt_tz.dat ave running
fix             JJTz all ave/correlate 5 $p $d                 v_Jz type auto file J0Jt_tz.dat ave running
fix             JJTz all ave/correlate 5 20000 $d                 v_Jz type auto file J0Jt_tz.dat ave running
fix             JJTz all ave/correlate 5 20000 100000                 v_Jz type auto file J0Jt_tz.dat ave running

fix             JJTy all ave/correlate $s $p $d                 v_Jy type auto file J0Jt_ty.dat ave running
fix             JJTy all ave/correlate 5 $p $d                 v_Jy type auto file J0Jt_ty.dat ave running
fix             JJTy all ave/correlate 5 20000 $d                 v_Jy type auto file J0Jt_ty.dat ave running
fix             JJTy all ave/correlate 5 20000 100000                 v_Jy type auto file J0Jt_ty.dat ave running

run             1000000
Memory usage per processor = 13.8919 Mbytes
Step Temp E_pair E_mol TotEng Press 
       0    299.99904   -1161.9037    6464.9022    11712.018    1958.6143 
     100    301.96103   -1159.6122    6420.7154    11712.037     1943.044 
     200    302.90145   -1159.2235    6400.2311    11712.032     1901.962 
     300    302.75691   -1153.1973    6397.3535    11712.093    1877.2817 
     400    299.20844   -1159.8851    6479.9732    11712.217    1942.5709 
     500    301.93946   -1162.7194    6424.4721    11712.226    1933.5645 
     600     301.6779   -1167.0579    6434.4438    11712.271    1899.5639 
     700    297.12713   -1167.5668    6532.1412     11712.24    1938.5499 
     800    301.86591   -1166.3355    6429.7778    11712.344    1894.2859 
     900    299.64096   -1163.6534    6474.5058    11712.222    1868.5843 
    1000    303.29321   -1156.6803     6389.487    11712.201     1928.188 
    1100    299.86349   -1161.5349    6467.5722    11712.161    2000.8729 
    1200    302.23544   -1153.8599    6409.2364    11712.173    1921.6176 
    1300    303.39301   -1154.5534    6385.1366    11712.109    1963.0145 
    1400    301.31059   -1155.0531    6430.1366    11712.122    1915.1637 
    1500     299.4453   -1157.3502    6472.3077    11712.147     1948.841 
    1600    302.77001   -1161.0176    6404.9994    11712.199    1903.0316 
    1700    298.84096   -1161.4475    6489.3034    11712.134    1898.6094 
    1800    304.70158   -1155.0291    6357.6532    11712.106     1835.655 
    1900     297.9261   -1154.1143    6501.5272    11712.147    1907.9425 
    2000    302.66113   -1155.2113     6401.345    11712.024    1879.7762 
    2100    300.06949   -1152.9925    6454.4425    11711.974    1881.4992 
    2200    303.26147   -1153.2446    6386.5979    11712.069     1895.951 
    2300    299.41207   -1152.1016    6467.7145    11712.092    1920.5357 
    2400    302.18109   -1151.8969    6408.3686    11712.107    1846.5221 
    2500    300.81913   -1159.5793    6445.1686    11712.128    1918.6806 
    2600    299.48617   -1159.8663    6473.9944    11712.191    1955.7666 
    2700    303.27732   -1160.8824    6394.0545    11712.227    1875.2215 
    2800    299.33922   -1163.5667    6480.9135     11712.27    1914.4397 
    2900    300.49581   -1159.2369    6451.8919    11712.287    1898.7683 
    3000    300.62869   -1161.7391      6451.56    11712.292    1933.4461 
    3100    300.44757    -1161.966    6455.6622    11712.298    1879.1994 
    3200    301.42119   -1154.7165    6427.6639    11712.349    1882.7042 
    3300    301.06401   -1158.0649    6438.6899    11712.396     1917.958 
    3400    304.09306   -1163.6523    6379.5507     11712.38    1860.6539 
    3500    298.67394   -1165.5729    6497.2235    11712.361    1939.6892 
    3600    301.15753   -1160.8344    6439.4043    11712.339    1889.6004 
    3700    303.45669   -1168.4619     6397.908    11712.333    1859.6271 
    3800    301.74689   -1169.7661    6435.7638    11712.357    1948.1455 
    3900    300.72827   -1174.0802    6461.8352    11712.353    1985.6805 
    4000    299.04455    -1171.219    6494.8959    11712.305    1941.4653 
    4100    300.74898   -1164.7573    6452.0568     11712.34    1928.3586 
    4200    300.70103    -1158.319    6446.6239    11712.321    1990.3976 
    4300    299.98147    -1163.202    6466.8211    11712.263    1886.3039 
    4400    298.63812   -1161.4764    6493.7705    11712.239    1942.5979 
    4500    304.24881   -1161.5863    6373.9802    11712.203    1958.5418 
    4600    299.99946   -1159.0672    6462.2663    11712.227    1948.7971 
    4700    299.95507   -1156.2593    6460.2842    11712.105    1916.7212 
    4800    302.68175   -1154.4621    6400.2543    11712.123    1904.6101 
    4900    298.53646   -1158.6856    6493.1604    11712.248    1993.5075 
    5000    301.82906    -1153.615    6417.5692    11712.069    1866.7578 
    5100     302.1997   -1155.0871    6411.1065    11712.052    1883.2887 
    5200    301.27835    -1159.501    6435.2298    11712.079    1915.2949 
    5300    299.21073   -1152.4792    6472.3534    11712.052    1956.0247 
    5400    300.31627    -1154.655     6450.953    11712.094    1990.5619 
    5500    299.90523   -1151.0916    6456.1287    11712.052    1992.4496 
    5600    299.02786   -1156.6261    6480.4538    11712.099     1873.896 
    5700    300.39379   -1153.3113    6447.9038    11712.045    1875.2436 
    5800    304.38739   -1160.8811    6370.1798    11712.068    1971.4555 
    5900      303.428   -1155.2686    6385.1185    11712.124    1985.0224 
    6000    298.14971   -1157.0372    6499.6573    11712.131    1872.0535 
    6100    302.66045   -1158.1823    6404.5013    11712.195    1928.7722 
    6200    302.64034   -1164.2436     6411.014    11712.217    1880.7837 
    6300    301.65609   -1168.0009    6435.8098    11712.228     1865.187 
    6400    303.19175   -1159.3517    6394.4124    11712.287    1896.4518 
    6500    302.48563   -1165.8273    6416.0194    11712.333    1892.1809 
    6600    301.22064   -1161.6432    6438.8097    11712.283    1846.8683 
    6700    301.23996   -1163.3098     6440.088    11712.308    1877.4443 
    6800    297.41868    -1162.393    6520.7976    11712.298    1997.8311 
    6900    300.90627   -1162.8643    6446.7436     11712.28    1971.0345 
    7000    298.14948   -1158.0561    6500.8477    11712.298    1982.0897 
    7100    304.15384   -1159.8645    6374.3258    11712.242    1899.0452 
    7200    302.50983   -1162.9016    6412.4592    11712.216    1885.1497 
    7300    302.01908   -1165.7836    6425.7616    11712.152     1888.367 
    7400    302.12624   -1163.5254    6421.2258    11712.164    1961.3768 
    7500     301.0124   -1163.8315     6445.354    11712.191    1964.4935 
    7600    301.15369   -1162.0767    6440.4716    11712.081    1928.5442 
    7700    298.46408   -1159.9112    6495.7314    11712.047    1910.2121 
    7800    299.47924   -1163.2375    6477.3354    11712.012    1996.8637 
    7900    301.63058   -1153.2384    6421.3773    11712.014    1953.5881 
    8000    300.33398   -1153.8213    6449.5991    11711.953    1916.6281 
    8100     301.5922   -1154.5507    6423.3805    11711.884    1977.8331 
    8200    302.79112   -1154.5073    6397.7544    11711.915    1941.8945 
    8300    301.12083   -1152.6004    6431.5708    11711.955    1912.2955 
    8400    300.62486   -1151.8946    6441.5412    11712.035    1911.8512 
    8500    302.83638   -1154.3983    6396.7374    11711.974    1944.3838 
    8600     298.0206   -1152.8511     6498.126    11712.028    1962.8609 
    8700    302.85539   -1156.5283     6398.429    11711.941    1915.0414 
    8800    298.32248   -1160.9938    6499.7267    11711.935    1945.7686 
    8900    304.33834   -1159.1673    6369.4073    11711.962     1873.184 
    9000    299.20671    -1159.608    6479.5399    11712.024     1935.949 
    9100    298.46646   -1157.5973    6493.3604    11712.041    1899.5491 
    9200    302.23757   -1159.3585    6414.5941    11712.077    1868.6048 
    9300    300.57228   -1162.5569    6453.4719     11712.18    1974.9512 
    9400    299.33393   -1163.9869    6481.4163     11712.24    1988.9017 
    9500    301.01149   -1169.6079    6451.2669    11712.308    1915.8666 
    9600    300.68294   -1170.5175    6459.2113    11712.323    1840.0549 
    9700    303.36324   -1164.4988    6395.9824    11712.374    1882.0137 
    9800     301.5565   -1167.1789    6437.2081    11712.321    1905.3728 
    9900    301.58737   -1160.9801    6430.4167    11712.388    1935.6413 
   10000    301.33871   -1161.4573    6436.3318    11712.514    2001.9521 
Loop time of 1429.97 on 8 procs for 1000000 steps with 7168 atoms

Pair  time (%) = 564.034 (39.4438)
Bond  time (%) = 297.44 (20.8005)
Neigh time (%) = 65.6973 (4.59432)
Comm  time (%) = 122.307 (8.5531)
Outpt time (%) = 0.00396517 (0.000277291)
Other time (%) = 380.485 (26.608)

Nlocal:    896 ave 905 max 890 min
Histogram: 1 0 2 1 2 0 1 0 0 1
Nghost:    2842.38 ave 2849 max 2838 min
Histogram: 2 0 1 3 0 0 0 1 0 1
Neighs:    23635.4 ave 24268 max 23259 min
Histogram: 2 2 0 0 1 1 1 0 0 1

Total # of neighbors = 189083
Ave neighs/atom = 26.3788
Ave special neighs/atom = 157.056
Neighbor list builds = 10167
Dangerous builds = 0
