LAMMPS (11 Jun 2012)
# Initialization
atom_style      full
units           real
variable        T equal 300
variable        dt equal 1.0
variable        seed equal 123460
variable        radius equal 0.5
variable        sizet equal 4
variable        sizeb equal -4
variable        p equal 20000    # correlation length
variable        s equal 5        # sample interval
variable        d equal $p*$s    # dump interval
variable        d equal 20000*$s    variable        d equal 20000*5    
# convert from LAMMPS real units to SI
variable        kB equal 1.3806504e-23    # [J/K] Boltzmann
variable        kCal2J equal 4186.0/6.02214e23
variable        A2m equal 1.0e-10
variable        fs2s equal 1.0e-15
variable        convert equal ${kCal2J}*${kCal2J}/${fs2s}/${A2m}
variable        convert equal 6.9510174124148567155e-21*${kCal2J}/${fs2s}/${A2m}
variable        convert equal 6.9510174124148567155e-21*6.9510174124148567155e-21/${fs2s}/${A2m}
variable        convert equal 6.9510174124148567155e-21*6.9510174124148567155e-21/1.0000000000000000777e-15/${A2m}
variable        convert equal 6.9510174124148567155e-21*6.9510174124148567155e-21/1.0000000000000000777e-15/1.0000000000000000364e-10
variable        b_eq equal 10.0/3.0

# setup problem
dimension       3
boundary        p p p
neighbor        2    bin
pair_style      lj/cut 10.0
bond_style      morse
read_data       lammps.data
  9 = max bonds/atom
  orthogonal box = (0 0 0) to (80 80 80)
  2 by 2 by 2 MPI processor grid
  7168 atoms
  33696 bonds
  10 = max # of 1-2 neighbors
  86 = max # of 1-3 neighbors
  824 = max # of 1-4 neighbors
  164 = max # of special neighbors
pair_coeff      1 1 0.000 3.500
pair_coeff      2 2 0.000 3.500
pair_coeff      1 2 0.105 3.500
bond_coeff      1 10 1.8 ${b_eq}
bond_coeff      1 10 1.8 3.3333333333333334814
bond_coeff      2 5 0.805 7.4536
bond_coeff      3 10 1.8 ${b_eq}
bond_coeff      3 10 1.8 3.3333333333333334814
bond_coeff      4 5 0.805 7.4536
velocity        all create $T ${seed} mom yes rot yes dist gaussian
velocity        all create 300 ${seed} mom yes rot yes dist gaussian
velocity        all create 300 123460 mom yes rot yes dist gaussian
timestep        ${dt}
timestep        1
thermo          100
dump            T1 all cfg 600000 *.cfg id type xs ys zs
dump            T2 all xyz 10000 traj.xyz
#dump_modify    1 element Cu
# −−−−−−−−−−−−− Equilibration and thermalisation −−−−−−−−−−−−−−−−
fix             NVT all nvt temp $T $T 10
fix             NVT all nvt temp 300 $T 10
fix             NVT all nvt temp 300 300 10
run             300000
Memory usage per processor = 11.5453 Mbytes
Step Temp E_pair E_mol TotEng Press 
       0          300   -906.89526 0.00012694983    5502.1446    343.62551 
     100    243.07525    -934.5925    7066.7586    11325.096    2173.3738 
     200    291.48944   -993.09112    10016.751    15250.884    1251.5064 
     300    301.43187   -990.91965    8288.5986    13737.308     562.3133 
     400    298.59716   -970.34039    6382.4928    11791.223    877.81814 
     500    301.10822   -955.16705    5755.8625    11233.411    1337.1395 
     600    299.90747   -952.44741    5730.8682    11185.484     1255.779 
     700    297.84902   -964.21054    6494.4319    11893.309    1123.6383 
     800     303.4055   -976.17575    7092.8976    12598.515    1130.7377 
     900    297.27696   -979.87079     7063.433    12434.428    1106.4685 
    1000    300.80201   -977.09828     6663.047    12112.122    1189.1159 
    1100    297.37431   -974.95449    6345.1045    11723.096    1227.6736 
    1200    303.33978   -974.89346    6156.6351    11662.131    1260.9308 
    1300    301.54754   -978.84753    6284.0913    11747.344    1156.1716 
    1400    300.89311   -988.62838    6679.7536    12119.245    1201.8766 
    1500     303.2019   -995.26816    6972.4834    12454.659    1317.2301 
    1600    299.46318   -996.09803    6741.8212    12143.295    1217.9793 
    1700    297.17539   -999.08123    6317.9465    11667.561    1176.0271 
    1800      301.207   -1003.2227     6438.149    11869.752    1424.9567 
    1900    299.32863   -1006.7101    6587.9252    11975.912    1430.3467 
    2000    300.68766   -1012.2676    6524.9253    11936.388      1307.52 
    2100    299.36861   -1019.0534    6531.1131    11907.611    1372.5557 
    2200    299.46875    -1027.284    6381.3234     11751.73    1371.0037 
    2300     302.3003   -1037.6497    6313.2379     11733.77    1362.2577 
    2400     298.3764   -1048.8928    6499.4129    11824.874    1404.3772 
    2500    306.92978   -1063.7854    6560.3955    12053.694    1351.7827 
    2600    299.75937   -1076.0721    6491.7295    11819.556    1421.9616 
    2700    298.96808   -1086.6635    6362.3315    11662.662    1440.1673 
    2800    297.43427   -1096.0844     6521.665    11779.807    1516.0305 
    2900    300.70586   -1107.5224    6237.6584    11554.255    1489.7681 
    3000    296.91831   -1105.1712    6096.6734    11334.706    1512.8085 
    3100    303.85783   -1102.4594    6340.1335     11729.13    1578.2614 
    3200    297.65424   -1099.0087    6410.7755    11670.693    1619.2473 
    3300    301.56851   -1080.9002    6159.9571    11521.605    1708.3571 
    3400    295.90841   -1057.9311    6107.0136    11370.712    1681.4178 
    3500    303.55152   -1067.8456    6347.8312    11764.898     1629.164 
    3600    298.86649   -1092.4385    6636.1629    11928.548    1700.1564 
    3700    302.03069   -1100.2447    6312.2101    11664.388    1693.4284 
    3800     305.0178   -1112.0747    6110.0265    11514.189    1728.7324 
    3900    296.79821   -1120.1487    6118.2353    11338.725    1673.7729 
    4000    301.32414   -1115.7723    6342.1791    11663.735     1653.876 
    4100    298.55217   -1110.5017    6522.2087    11789.816    1631.9603 
    4200    296.22167   -1107.0026    6361.0302    11582.349    1664.1193 
    4300    296.18104   -1098.6179    6411.2179    11640.053    1719.0721 
    4400    300.40059   -1095.2896    6365.6516     11687.96    1642.1925 
    4500    299.07729   -1084.7362    6239.3858    11543.977      1576.94 
    4600    300.63207   -1082.1569    6384.6649    11725.051    1558.2267 
    4700    299.20979   -1079.2982    6630.5914    11943.451    1520.7108 
    4800    303.14774   -1077.5951    6592.8581    11991.549    1504.6085 
    4900    300.72303   -1076.6938    6458.5551    11806.348    1530.9954 
    5000    301.99735   -1079.1259    6233.0295    11605.614    1519.0883 
    5100    298.01632   -1083.4288     6220.689    11503.922    1535.3243 
    5200    302.17038   -1089.9239    6591.4098    11956.892     1690.923 
    5300    295.44403   -1097.1916    6566.2292    11780.746    1585.2846 
    5400    299.73329   -1105.8855    6481.8523    11779.309    1558.8132 
    5500    299.88129    -1108.163    6345.6476    11643.988    1645.7837 
    5600    297.46454   -1111.2952     6345.691    11589.269    1638.0803 
    5700    299.73127    -1118.781    6338.6772    11623.195    1639.6229 
    5800    302.98668   -1120.7271    6264.0479    11616.166    1672.4199 
    5900     298.0396   -1124.5598    6384.7347    11627.334    1618.8981 
    6000    301.39484   -1124.7501     6509.855    11823.943    1759.1254 
    6100    297.62689   -1122.9629    6320.2421    11555.621    1767.9635 
    6200    302.09154   -1119.4456    6162.9463    11497.223    1711.7054 
    6300     299.3753   -1119.0654    6268.2031    11544.832      1775.68 
    6400    299.28578   -1119.2935    6403.7926    11678.281     1866.316 
    6500    302.90647   -1116.1786    6319.1739    11674.127    1769.7225 
    6600    296.69381   -1126.7155    6394.1769     11605.87    1788.8172 
    6700    300.22549   -1139.6232    6414.1918    11688.426    1778.2905 
    6800    299.50055   -1138.8931    6398.2329     11657.71    1747.8314 
    6900    304.50919    -1147.532    6277.9479    11635.787      1753.93 
    7000    294.50741   -1135.2548    6290.8339    11447.278    1789.1793 
    7100    300.22824   -1133.7833    6369.6097    11649.742    1782.1016 
    7200    302.30919   -1118.8216    6408.1868    11747.737    1704.0772 
    7300    297.20396   -1129.7614    6324.6969    11544.242    1708.7263 
    7400    299.78668   -1127.2052    6256.5666    11533.844    1733.4091 
    7500    301.44694   -1127.9895    6494.3868    11806.349     1778.914 
    7600    299.50282    -1124.533    6413.6156    11687.501    1782.1975 
    7700    303.59266   -1126.3898    6367.1174    11726.519    1781.0479 
    7800    301.47315   -1121.0519    6457.1849    11776.644    1741.8532 
    7900    298.44059    -1122.325    6429.2934    11682.694     1804.198 
    8000    298.69453   -1126.4227    6239.8605    11494.588     1785.094 
    8100    294.19605   -1125.6463    6410.0197    11569.421    1756.4132 
    8200    302.10631   -1123.4466      6348.36    11678.951    1788.9098 
    8300     303.1261   -1126.9977    6223.3735      11572.2    1794.6787 
    8400     295.6994   -1129.2298    6256.7621    11444.696    1775.5635 
    8500    299.41485   -1134.0884    6512.4641    11774.915    1780.0306 
    8600    302.27363   -1134.4789    6388.7133    11711.847    1731.7817 
    8700    296.71149   -1142.9751    6306.0344    11501.845    1775.1222 
    8800    301.96713   -1141.2544    6373.2702     11683.08    1767.4802 
    8900    297.73054   -1141.3139    6422.8503    11642.093    1722.1149 
    9000    301.65073   -1140.7038    6523.8109    11827.412    1784.1121 
    9100    300.26105   -1147.9011    6307.5269    11574.242    1708.0857 
    9200     298.8391   -1145.6292    6174.6984    11413.308    1656.9622 
    9300    299.24802   -1157.1455    6266.2167    11502.046    1740.1251 
    9400    303.47571   -1155.9444    6385.3524    11712.701    1809.0454 
    9500    299.35587   -1153.4843     6285.996    11527.791     1708.072 
    9600    299.33655   -1153.6948    6387.4457    11628.617    1800.0267 
    9700    298.26687   -1149.7695    6333.8472    11556.092     1729.514 
    9800    300.56459   -1137.3697    6340.3354    11624.067     1725.878 
    9900    300.52189   -1137.2313    6343.5458    11626.504    1849.9956 
   10000    299.36599   -1132.8322    6328.1061    11590.769    1790.1692 
   10100    299.36392    -1131.707    6451.7513    11715.495    1737.6302 
   10200    299.98514   -1131.5605    6318.0188    11595.181    1713.0889 
   10300    300.09226   -1134.9413    6369.5931    11645.662    1783.8627 
   10400    298.13102   -1143.5852    6319.8576    11545.384    1723.0329 
   10500    298.44506   -1138.3988    6428.4611    11665.883    1801.6823 
   10600    299.42253   -1134.3961    6364.2859    11626.593    1822.1042 
   10700    300.81854   -1134.8367    6376.9597    11668.649    1767.2408 
   10800    298.58707   -1130.9363    6399.0601    11646.978    1726.6745 
   10900    294.71377   -1124.7731    6458.9692    11630.304    1789.8527 
   11000    304.73885   -1126.1001     6350.833    11735.011    1756.2601 
   11100    298.13917   -1128.8582    6396.5711    11636.999    1746.3996 
   11200    299.95685   -1125.0397     6437.946    11721.024    1788.3956 
   11300    302.21027   -1121.5767    6310.4402    11645.122     1686.804 
   11400    301.25628   -1127.3194    6468.2583    11776.817    1759.2702 
   11500    302.86194   -1127.8854    6506.3967    11848.692    1743.3763 
   11600    299.58316   -1130.7254    6361.1157    11630.525    1747.0142 
   11700    298.63079   -1133.5106     6412.429    11658.707    1722.6364 
   11800     304.2652   -1138.2603    6463.2322    11825.131    1763.2405 
   11900    301.44331   -1143.6395    6413.2337    11709.468    1741.5636 
   12000    305.37113   -1143.4702    6315.7479    11696.063    1704.8145 
   12100    304.71725   -1131.6114    6422.9857    11801.191    1746.0228 
   12200    297.05855   -1135.8702     6295.695    11506.025     1691.794 
   12300    297.57724   -1141.6314    6332.7412    11548.391    1672.9108 
   12400    299.39558   -1139.4531    6466.9459     11723.62    1716.3813 
   12500    304.83043   -1140.9569    6517.8349    11889.113     1827.995 
   12600    301.06778    -1138.146    6282.3669    11576.072    1748.0447 
   12700    298.97233   -1141.1784    6393.6402    11639.547    1848.0289 
   12800    300.95443   -1145.1892    6339.0022    11623.243    1814.6559 
   12900     300.5936   -1133.5896    6454.7685      11742.9    1864.7556 
   13000    303.62893   -1142.3304    6505.1109    11849.347    1909.6842 
   13100    299.05637   -1138.6564    6344.0489    11594.273    1887.8155 
   13200    294.71343   -1133.7688    6385.7492    11548.081    1874.9974 
   13300    303.62434   -1135.8559    6250.9387    11601.551    1810.5956 
   13400    302.93024    -1130.842    6405.6043    11746.402    1799.1121 
   13500    297.13663   -1126.6458    6541.7613    11762.984    1808.7278 
   13600    304.18763   -1122.0244    6508.3261    11884.804    1796.2251 
   13700    297.63305   -1121.3678    6420.6693    11657.775    1783.1444 
   13800    308.70667   -1118.7094    6274.5714    11750.906    1741.0795 
   13900    298.16944   -1118.6055    6555.5556    11806.883    1815.3036 
   14000    298.08589   -1119.6968     6414.934    11663.385      1769.45 
   14100    304.47147   -1121.3495    6420.4954    11803.712    1775.0318 
   14200    298.75503   -1116.5376    6490.5426    11756.448    1781.7495 
   14300    301.56392   -1123.7358    6449.7107    11768.425    1721.1244 
   14400      297.784   -1130.8112    6361.8755    11592.763    1709.0245 
   14500      299.997   -1141.1539    6388.7905    11656.612    1755.1264 
   14600    303.84469   -1140.6922    6400.8321    11751.316     1784.411 
   14700    291.52655   -1146.3887    6371.8637    11453.492    1673.0086 
   14800    296.73986   -1149.0798    6440.2031    11630.515    1697.1719 
   14900    301.15737   -1149.6454    6440.5961    11724.716    1738.0703 
   15000    301.05098   -1155.9896    6336.0974      11611.6     1751.023 
   15100    298.39461   -1153.9092    6338.9896    11559.824    1775.9286 
   15200    298.06733   -1157.4323    6411.1272    11621.446    1854.4613 
   15300    298.62565   -1155.3033    6362.9727    11587.348    1770.8644 
   15400    303.08622   -1157.7709    6495.6786     11812.88    1824.8133 
   15500    298.22254   -1158.4699     6429.733     11642.33    1792.9487 
   15600    299.71029   -1152.4173    6346.3255    11596.759    1751.9378 
   15700    297.03025   -1168.2917    6383.4381    11560.742    1755.1445 
   15800    298.58492   -1169.4028    6322.6728    11532.079    1694.0641 
   15900    299.12737   -1165.2531    6357.3649    11582.509    1773.0758 
   16000    301.10103   -1163.8379    6370.8575    11639.581    1842.1912 
   16100    299.20158   -1159.7619    6243.7336    11475.954    1713.6294 
   16200    298.44787   -1158.5637    6477.5667    11694.884    1788.7631 
   16300    301.20057   -1155.0067    6343.0804    11622.762      1726.53 
   16400    295.59702   -1148.5769     6465.816    11632.216    1803.4424 
   16500    303.68945   -1145.3041    6320.3929    11662.948    1739.3325 
   16600    297.40688   -1145.1836    6380.1388    11588.597    1802.3516 
   16700     309.3219   -1141.7701    6479.9896    11946.407    1787.0531 
   16800    301.68716   -1138.5089    6505.6097    11812.184    1738.8645 
   16900    296.72275   -1132.4821    6391.8587    11598.403    1698.5081 
   17000    295.90908    -1129.073    6418.3912    11610.962    1756.7028 
   17100     301.1914   -1125.7043    6360.0297    11668.818    1687.3416 
   17200    300.95695   -1127.1158    6480.5348    11782.902    1744.7189 
   17300    301.25934   -1123.2863    6432.6918    11745.349    1781.2532 
   17400    301.23225   -1125.4378    6427.8802    11737.807    1727.4993 
   17500     296.7777   -1122.2466    6540.2789    11758.233    1711.6069 
   17600    303.10639   -1123.6874    6515.4883    11867.204    1783.8758 
   17700    295.47173    -1127.388    6418.1597    11603.072    1713.6345 
   17800    300.09514   -1127.2085    6368.7119    11652.576    1667.0684 
   17900    299.22244   -1125.1413    6539.7543    11807.041    1779.7574 
   18000    300.79637   -1122.7884    6507.1381    11810.403    1750.7619 
   18100    301.03649   -1131.8035    6441.3445    11740.724    1802.7049 
   18200    300.65185   -1135.3466    6353.3497    11640.969    1822.0155 
   18300    297.93396   -1135.5503    6370.6181     11599.97    1830.3345 
   18400    296.52581   -1134.5736    6407.4199    11607.665    1778.1362 
   18500    303.67406   -1137.6421    6455.4845    11805.373    1783.8665 
   18600    298.57606    -1140.494    6435.9772    11674.103    1793.4483 
   18700    302.13884   -1146.9297    6370.6462    11678.449    1818.6844 
   18800    300.33505   -1145.4341    6406.0037    11676.767    1799.0137 
   18900    294.56696    -1154.354    6419.3107    11557.928    1808.0915 
   19000    300.51722   -1151.6732    6370.3332    11638.749    1841.2819 
   19100    301.80425   -1150.5437    6355.1676    11652.209     1789.113 
   19200    293.82629   -1154.9824    6266.5103    11388.676    1759.1498 
   19300    304.86173   -1150.7799    6376.4036    11738.527    1852.5222 
   19400    293.87746   -1151.5523    6375.2309     11501.92    1790.8769 
   19500    303.82542   -1142.1843    6322.1415    11670.721    1864.0056 
   19600    300.20175   -1151.2551    6333.9295    11596.024    1865.6789 
   19700    294.51717   -1149.6497    6408.1493    11550.407    1830.5534 
   19800    304.24365   -1144.6749    6468.0665     11823.09    1777.4237 
   19900    297.78975   -1151.3039    6378.9839    11589.501    1832.6853 
   20000     300.3415   -1151.0317    6272.3731    11537.677    1784.0735 
   20100     298.7563   -1146.4985    6410.0665    11646.038    1770.0308 
   20200    297.37532   -1136.3287    6490.2815     11706.92    1803.7738 
   20300    300.81191   -1144.6992    6452.5575    11734.243    1831.7346 
   20400    296.54297   -1138.2174    6301.2296    11498.198    1747.8435 
   20500    307.10266   -1137.3455    6401.5628    11824.995    1884.2788 
   20600    299.45812   -1136.2257    6412.3223     11673.56    1889.9095 
   20700    299.05127   -1133.4846    6520.2892    11775.576    1800.1778 
   20800    302.48491   -1130.4575    6613.6016     11945.27    1831.5645 
   20900    298.67589    -1132.533    6380.9969    11629.216    1794.0606 
   21000    304.33438   -1125.1445    6337.2793    11713.772    1807.3166 
   21100    297.09171   -1127.0112    6422.1146    11642.012    1863.3086 
   21200    303.32445   -1122.6956    6488.8268    11846.193    1888.1251 
   21300     301.3891   -1127.1541    6495.9519    11807.513     1834.301 
   21400    302.28186   -1130.0355    6378.5604    11706.313    1850.7288 
   21500    304.06828   -1134.7764    6436.8501    11798.026    1864.3171 
   21600    297.83029   -1137.0535     6415.437    11641.071    1793.2108 
   21700    303.57041   -1137.8642    6409.2009    11756.653    1791.5337 
   21800    298.58832   -1142.8068    6403.7557     11639.83    1814.5381 
   21900     299.2582   -1145.8117    6431.3525    11678.733    1863.8883 
   22000     295.4511   -1149.4867    6384.6747    11547.048    1805.9473 
   22100    300.71246   -1153.9594    6381.2518    11651.553    1863.0788 
   22200    295.43532   -1157.2594    6291.0197    11445.283    1825.8062 
   22300    303.63722   -1152.1759    6402.3463    11736.914    1818.9146 
   22400    299.94941   -1154.5145    6416.7325    11670.177     1743.885 
   22500    300.17387   -1152.0674    6434.7034     11695.39    1795.7787 
   22600    302.37081   -1156.5196    6375.0406    11678.209    1766.2023 
   22700    297.91388   -1158.8546    6362.1957    11567.814    1773.2502 
   22800    298.50463   -1152.3308    6500.9323    11725.695    1798.4798 
   22900     300.1441   -1167.7102     6358.371    11602.779    1753.9002 
   23000    300.38426   -1164.5784    6352.5119    11605.182    1786.3876 
   23100    297.55436    -1162.234    6502.0855    11696.644    1885.1499 
   23200    297.86149    -1159.543    6331.1541    11534.965    1913.3419 
   23300     301.7419   -1158.0067    6330.8486    11619.095    1903.5719 
   23400     296.6908   -1151.5579    6386.1438     11572.93    1874.8647 
   23500    298.74204    -1154.006    6426.2338    11654.393    1879.6933 
   23600    299.30349   -1146.8746    6458.6509    11705.936    1823.3069 
   23700    299.38706   -1146.5681    6410.1856    11659.563     1792.816 
   23800    304.33951   -1146.2328    6379.6253    11735.139    1864.6595 
   23900    295.24044     -1142.95    6382.1907      11546.6     1772.654 
   24000    303.56621    -1141.153     6484.264    11828.337    1750.8402 
   24100    300.49475   -1143.0415    6532.5541    11809.122     1816.381 
   24200    299.33253   -1138.4658    6387.7014    11644.016    1780.4519 
   24300    304.89299   -1136.7839    6261.0018    11637.789    1720.7331 
   24400    300.00175   -1139.7853    6508.4601    11777.752    1840.4202 
   24500    301.42884   -1137.3531    6518.9383     11821.15    1772.4499 
   24600    298.71171   -1132.9269    6534.8678    11783.458    1775.0588 
   24700    301.67051   -1143.5467      6406.67    11707.851    1777.5997 
   24800    297.26547    -1141.268    6303.9354    11513.288    1756.3143 
   24900    304.49176   -1141.4592    6423.2319    11786.772    1806.2505 
   25000    299.06158   -1146.7176    6482.7256        11725    1843.3558 
   25100    300.29523    -1147.933    6494.9485    11762.362    1890.3815 
   25200    300.45376   -1150.6779    6325.2966    11593.352    1777.7127 
   25300    299.15983   -1156.2823    6451.1126    11685.921    1851.0462 
   25400    302.82575   -1154.4352     6389.495    11704.467    1860.2905 
   25500    298.23376   -1157.6179    6350.3174    11564.006    1901.0205 
   25600    300.75097   -1158.8061    6391.1928     11657.47    1923.2075 
   25700    299.20765   -1158.8283     6367.708    11600.992    1868.4641 
   25800    297.68456   -1164.7086    6341.9201    11536.785    1856.6741 
   25900    300.00752   -1166.5551    6450.3523    11692.998    1935.3376 
   26000     304.8076   -1168.2406    6459.9533    11803.459    1853.2382 
   26100    296.41353     -1170.13    6391.4095      11553.7    1773.6301 
   26200     298.0911    -1168.464    6498.8697    11698.665    1853.5248 
   26300    301.08347   -1166.7386    6361.7962    11627.244    1778.8781 
   26400    300.05304   -1163.0774    6403.5678    11650.663    1817.9075 
   26500    295.83957   -1159.8974    6432.4107    11592.672     1893.182 
   26600    303.65899   -1164.1784    6352.8659    11675.896    1824.9114 
   26700    299.20222   -1160.2357    6386.8434    11618.604    1779.8824 
   26800    301.23855    -1154.141    6506.4153    11787.774    1910.6916 
   26900    297.22225   -1157.3392    6339.5692    11531.927    1895.6142 
   27000     302.1843   -1159.9682    6390.4088    11686.145    1885.8933 
   27100    299.67425   -1155.9552    6425.2336    11671.359    1839.4544 
   27200    299.72706   -1148.3825    6421.5349    11676.361    1792.4592 
   27300    299.25446   -1143.0897      6523.54    11773.563    1761.3947 
   27400    301.52093   -1142.0883    6477.8709    11777.315    1785.0021 
   27500    298.79601    -1141.907    6396.6866    11638.098    1824.1758 
   27600    294.44707   -1140.6392    6450.7888    11600.559    1876.5193 
   27700    303.15824   -1137.4911    6375.5222    11714.542    1752.8024 
   27800    293.95737   -1138.0325    6524.0262    11665.942    1799.5265 
   27900    300.73534    -1134.414    6499.9308    11790.266    1805.5304 
   28000    299.69455   -1140.4939    6320.1592     11582.18    1731.4653 
   28100    298.60332   -1144.2746    6485.1223     11720.05    1827.0466 
   28200    301.61832   -1146.5794    6542.5484    11839.582    1899.7025 
   28300    298.41172   -1148.5138    6444.2723    11670.867    1824.4088 
   28400    306.70586   -1153.8934    6409.5976    11808.004    1824.0776 
   28500    298.59001   -1156.1928    6444.0536    11666.778    1819.3074 
   28600    301.25652   -1155.7985    6380.8058    11660.891    1768.2387 
   28700    299.16688   -1151.6426    6428.4754    11668.074    1812.1978 
   28800    300.52255    -1164.888    6436.2729    11691.588    1839.3062 
   28900    301.27727   -1162.4051    6404.2595    11678.181    1812.0989 
   29000    298.21546   -1164.9257    6357.3788    11563.369    1875.1054 
   29100    303.53291   -1162.5967    6417.3887    11739.307    1954.1056 
   29200    302.68613   -1161.2058    6358.2271    11663.446    1887.4484 
   29300    300.99339   -1166.0379    6399.6761      11663.9    1899.5554 
   29400    295.88954   -1175.2968    6406.0874    11552.017    1888.7744 
   29500    301.98341   -1163.1189    6477.1588    11765.452    1953.3452 
   29600    298.98329     -1169.19    6348.7372    11566.866    1866.3839 
   29700    298.33573    -1168.458    6371.0775    11576.105    1901.7302 
   29800    298.39628   -1166.3956    6354.4061    11562.789    1885.8918 
   29900    307.17374   -1163.6347    6398.7811    11797.442    1882.6718 
   30000    299.43068   -1162.1084    6385.4361    11620.205    1866.4826 
   30100     302.8273   -1155.1247    6487.6201    11801.936    1872.6462 
   30200     299.1732   -1154.3614    6529.9808    11766.996    1826.8594 
   30300    295.96226   -1153.1413    6406.0079    11575.646    1847.2541 
   30400    303.44572   -1154.0691    6291.1828    11619.766     1813.781 
   30500    296.09534   -1156.5641    6455.2772    11624.336     1800.859 
   30600     300.1596   -1145.6183    6511.9957    11778.827     1847.663 
   30700    297.28481   -1146.1849    6518.5701    11723.419    1866.4131 
   30800     301.9638   -1148.2322     6333.769     11636.53    1784.2279 
   30900    303.52974   -1146.9213    6447.9076    11785.434    1860.3465 
   31000    297.21118   -1145.1759    6540.0559    11744.341    1843.1651 
   31100    302.50613   -1143.0616    6392.2382    11711.756    1826.9814 
   31200     294.2754   -1146.1187    6463.2275    11603.851    1815.0466 
   31300    298.52684   -1147.6607    6541.3901    11771.297    1794.3305 
   31400    307.09186   -1151.0816     6518.788    11928.253    1787.8732 
   31500    302.12098   -1156.6754    6329.8357    11627.511    1746.9175 
   31600    302.44922   -1154.9446     6480.419    11786.838    1859.5588 
   31700    299.00705   -1149.4797     6338.381    11576.728    1785.2056 
   31800    303.19261   -1159.5715    6488.0819    11805.755    1865.1414 
   31900      299.154   -1155.7146    6458.3464    11693.598    1847.2132 
   32000    301.09347   -1162.5956    6345.5189    11615.323    1822.6017 
   32100    301.49515   -1164.3517    6370.9637    11647.593    1882.5118 
   32200    299.40273   -1166.7185     6480.186    11709.747    1884.5237 
   32300    304.25342   -1161.8193    6332.2604    11670.349    1832.6618 
   32400    298.69468   -1161.6157    6289.5754    11509.113    1865.4095 
   32500    299.36036   -1161.5057    6467.6601    11701.529    1888.2136 
   32600    304.90542   -1159.9909    6521.8914    11875.737    1915.8401 
   32700    295.37906   -1164.7986    6331.7743    11477.296    1873.1481 
   32800    301.02366   -1163.0652    6205.1197    11472.963    1781.7946 
   32900    301.20289    -1161.337     6441.602    11715.003    1774.2796 
   33000    301.43836   -1158.0247    6725.0921    12006.836     1862.241 
   33100     303.3453   -1158.8628    6323.7433    11645.387    1762.4719 
   33200    298.25583   -1158.6141    6305.2622    11518.426    1829.9685 
   33300    301.60451   -1154.6282    6367.0171    11655.706    1903.4088 
   33400    302.51033   -1154.1831    6426.0308    11734.517    1815.2202 
   33500    300.51042   -1147.0486    6535.6431    11808.539    1882.3177 
   33600    299.15597   -1148.5817    6433.8802    11676.307    1817.8302 
   33700    300.28856   -1147.7757    6437.3901    11704.819    1765.9753 
   33800    301.46303   -1148.7415     6514.687     11806.24    1847.9209 
   33900    299.25254   -1145.8232     6384.902     11632.15    1847.6794 
   34000    295.15248   -1141.6132    6503.4643    11667.331    1791.9919 
   34100    302.47749   -1143.3114    6457.4832    11776.139    1800.7232 
   34200    302.14089   -1140.0391    6385.4137    11700.151    1822.2387 
   34300    301.02544   -1143.0222    6345.6785    11633.603    1825.6206 
   34400    299.49072   -1142.6858    6486.3962     11741.87    1845.2133 
   34500    305.57507   -1148.5839    6568.8221    11948.381    1906.1822 
   34600    298.91637   -1147.0559    6433.7906    11672.624    1775.1461 
   34700    299.37149   -1154.5744    6378.0887    11619.127    1832.8548 
   34800    299.35703   -1150.6784    6407.4056    11652.031    1916.9343 
   34900    296.37921    -1151.241    6419.2374    11599.683    1818.6032 
   35000    301.31014   -1158.7063    6391.8134    11670.136    1769.7503 
   35100    300.89424   -1155.2095    6479.0524    11751.987    1886.1054 
   35200    306.39262   -1162.8843    6391.7867    11774.511    1918.5261 
   35300     299.0576   -1165.6835    6275.6895    11498.913    1841.0053 
   35400    301.50457     -1162.72    6482.6803    11761.143    1967.2501 
   35500    299.01874   -1164.6573    6409.5723    11632.992    1917.0205 
   35600    300.86569    -1169.042    6334.9327    11593.425    1783.5003 
   35700    301.09263   -1172.3505    6483.9452    11743.977    1803.6939 
   35800    293.95329   -1170.6158    6524.3256    11633.571    1856.3404 
   35900    299.20202    -1176.091    6279.0573    11494.958    1804.2867 
   36000    300.29499   -1170.6744    6343.2631     11587.93    1879.3209 
   36100    295.47939   -1168.5751    6362.5168    11506.406    1863.6095 
   36200     301.8488   -1167.1921    6458.3298    11739.674    1913.4062 
   36300    297.51539   -1166.5856    6495.8266    11685.201    1889.0348 
   36400    303.97136   -1168.1963     6326.958    11652.643    1842.8782 
   36500     299.5121    -1162.154     6329.224    11565.686    1749.4501 
   36600    300.69289   -1172.2542     6448.628    11700.216    1739.9376 
   36700    299.42227   -1167.6011    6348.7356    11577.832    1724.4452 
   36800    299.74754   -1159.6297    6491.8066    11735.823    1807.9436 
   36900    300.68921   -1160.1773    6331.2413    11594.828    1742.1722 
   37000    298.40697    -1156.471    6393.3827    11611.919    1865.4916 
   37100    301.79946   -1151.6509    6483.2726    11779.104    1886.6924 
   37200    298.73224   -1150.3126    6388.1275    11619.771    1808.3639 
   37300    304.97151   -1151.7844    6449.6444    11813.108    1833.9287 
   37400    297.74361   -1148.8963    6505.5429    11717.482    1844.1702 
   37500    301.81394   -1145.5681    6382.6437    11684.867    1757.3036 
   37600    301.31637   -1149.2207    6393.5916    11681.533    1865.3662 
   37700    297.71888   -1146.1669    6409.3056    11623.446    1870.2197 
   37800    300.81297    -1145.955    6561.5645    11842.017    1875.9826 
   37900    299.46218   -1144.3345    6409.6409    11662.856    1843.7246 
   38000    299.18786   -1146.8412    6393.5496    11638.398    1886.6486 
   38100    299.31008   -1151.4226     6464.779    11707.657    1868.4791 
   38200    298.17568   -1150.2188    6417.0533    11636.901    1801.6549 
   38300    298.28687   -1149.4119    6452.9193    11675.949    1883.1734 
   38400    299.82429    -1158.315     6403.071    11650.042    1874.5399 
   38500     305.0976   -1157.6326    6342.7942    11703.104    1849.5585 
   38600    297.97959   -1157.6602    6493.3064    11701.523    1881.6877 
   38700      300.658   -1160.4699    6351.2178    11613.845    1851.8388 
   38800    297.40279   -1163.5928     6388.312    11578.273    1905.1968 
   38900    300.46841   -1163.5733     6355.414    11610.887    1818.1508 
   39000    299.43307   -1159.5033    6504.8678    11742.293    1918.2594 
   39100    297.47244   -1163.8281    6478.8598    11670.074    1913.0662 
   39200    303.54164   -1164.1166    6319.9268    11640.511    1822.4975 
   39300    300.00872   -1162.4408    6430.7027    11677.488    1809.0237 
   39400    294.02869   -1167.9786    6441.0605    11554.554    1847.7472 
   39500    299.13436   -1166.4881    6361.9311     11585.99    1800.3823 
   39600    296.77513   -1165.2756    6493.3186    11668.188    1899.7311 
   39700    297.98336   -1156.9352    6379.0326    11588.055    1934.2434 
   39800    302.55198   -1169.3104    6269.6547    11563.903     1839.916 
   39900    297.69834   -1165.1958    6467.2217    11661.894    1887.0175 
   40000    300.38843   -1158.6728    6508.3686    11767.034    1939.0825 
   40100    299.89344   -1156.6677    6417.0886    11667.184    1854.1744 
   40200    294.90825   -1161.5695    6427.4487    11566.141    1875.6912 
   40300    300.45195   -1153.7021    6398.0364    11663.029    1913.5542 
   40400    304.62748   -1152.3384     6470.026    11825.586    1943.7952 
   40500     298.0383   -1150.2437    6333.4659    11550.353    1810.4376 
   40600    303.41694   -1149.8635    6439.7245    11771.898    1827.9854 
   40700    298.22256   -1152.5129    6646.1537    11864.708    1940.8286 
   40800    303.57001   -1150.8031    6324.5586    11659.063    1779.5969 
   40900    293.42435   -1150.9308    6375.1318    11492.762    1818.2821 
   41000    307.21761   -1143.0607    6451.1932    11871.365     1860.125 
   41100    297.66625   -1141.6754    6443.4022    11660.909    1801.0463 
   41200    297.84555   -1145.5244    6494.5055    11711.994    1840.4816 
   41300    303.53031   -1142.6358     6429.632    11771.456    1945.2871 
   41400    299.81523   -1149.4992     6231.708    11487.301    1782.3348 
   41500    301.32241   -1152.6448    6417.6523    11702.298    1844.6833 
   41600    296.83576   -1148.9874    6450.5652    11643.018    1811.6095 
   41700    304.70978   -1156.4078    6472.4622    11825.711    1840.4885 
   41800    292.30734     -1155.76    6396.8458    11485.784    1830.1359 
   41900    302.14201   -1159.7724    6374.1509    11669.179    1918.9843 
   42000    301.01409     -1150.97    6401.0066    11680.741    1837.0628 
   42100    295.85516   -1158.1803    6390.9776    11553.289    1784.3138 
   42200    301.29594   -1153.6587    6386.8282    11669.895    1844.7934 
   42300    299.70508   -1163.2969    6408.3367    11647.779    1847.4939 
   42400    299.71636   -1167.8708       6453.6    11688.709     1834.972 
   42500    295.42714   -1167.4028    6357.9652     11501.91    1769.0946 
   42600    302.36777   -1165.1011    6392.1602    11686.683    1879.9331 
   42700    298.04132   -1167.0968    6429.0374    11629.136    1880.7322 
   42800    301.43232   -1164.5893    6427.9049    11702.955    1900.1013 
   42900    301.00846   -1161.1614    6412.3382    11681.761    1938.7597 
   43000    294.30499   -1161.4419    6380.8952    11506.828    1886.3087 
   43100    300.60229   -1163.7826    6374.7082    11632.832     1899.598 
   43200    299.68169    -1166.083    6331.0044    11567.161    1915.2353 
   43300    296.42834   -1168.8998    6436.8136     11600.65    1881.9889 
   43400    302.83984   -1162.8762    6448.4309    11755.263    1909.1682 
   43500    297.20882   -1163.6609    6398.9863    11584.736    1891.1765 
   43600    299.02839   -1156.9331    6501.7971    11733.147    1898.8871 
   43700    299.06319   -1160.4354    6479.3141    11707.905    1905.4913 
   43800    301.65857   -1162.5466    6291.3404    11573.266    1813.7242 
   43900    297.63725   -1165.7813     6484.021    11676.803    1895.3505 
   44000    299.94749   -1162.2262    6540.7062    11786.398    1955.7022 
   44100    300.65317   -1159.3885    6317.7684    11581.374    1850.0789 
   44200    299.13224   -1160.5569    6309.5999    11539.544    1855.7341 
   44300    298.91377   -1155.1027    6562.7649    11793.496    1993.0942 
   44400    297.33963   -1157.4452    6471.3326    11666.092    1819.9172 
   44500    300.53468   -1160.4331    6463.7755    11723.805    1835.5926 
   44600    304.05769   -1162.7995    6470.2864    11803.213    1915.5078 
   44700    292.74923   -1166.6897    6346.1541    11433.603    1753.4336 
   44800    299.13919   -1162.3285    6404.6068    11632.928    1785.3674 
   44900    300.90782    -1160.336    6488.0997    11756.198    1833.9991 
   45000    294.89723   -1163.9754    6511.4328    11647.484     1894.641 
   45100    303.69614   -1165.7484    6258.5681    11580.822    1840.1545 
   45200    294.46657   -1156.8313    6432.7759    11566.771    1947.7397 
   45300    305.60782   -1159.6713    6528.0568    11897.228    1963.4004 
   45400    298.08457   -1158.5875    6325.0239    11534.556    1830.0221 
   45500    305.24603    -1156.869    6412.7387    11776.983    1932.4223 
   45600    301.29404   -1158.8236    6403.9849    11681.846    1894.7528 
   45700    296.65634   -1162.7659    6518.2511    11693.093    1861.4509 
   45800    297.82236   -1163.1332    6443.3076    11642.692    1821.8558 
   45900    307.04555   -1164.9805    6367.8634     11762.44    1843.9388 
   46000    299.34329    -1162.948    6414.3303    11646.392    1884.9776 
   46100    300.34467    -1159.053    6340.7863    11598.136    1841.8442 
   46200    301.78043    -1155.612    6476.8285    11768.292     1886.675 
   46300    298.61333   -1150.9377    6440.6539    11669.132     1829.895 
   46400    299.05783   -1145.3746    6355.8397    11599.377    1800.7293 
   46500    299.15791   -1143.8596    6491.0839    11738.274    1902.0681 
   46600    302.44561   -1154.5183    6327.1801    11633.948    1903.1009 
   46700    299.83625   -1151.5976     6341.484    11595.428    1860.4755 
   46800    294.99165   -1150.9219    6431.9284    11583.051    1818.4968 
   46900    301.78949   -1160.5031    6506.2885    11793.055    1823.4211 
   47000    298.91176   -1154.2878    6472.2971      11703.8    1789.8898 
   47100    297.20635   -1150.8043    6368.2359    11566.789    1808.8356 
   47200    305.00961   -1155.4754    6439.6302    11800.217    1924.7014 
   47300     298.0213   -1157.1306    6402.9911    11612.628    1850.1332 
   47400    300.14434   -1152.9898    6354.1025    11613.236    1834.2965 
   47500    298.74097   -1148.8455    6516.9769    11750.274    1915.3067 
   47600     304.7196   -1150.8478    6507.6304    11866.649    1875.6108 
   47700     299.1514   -1152.7384    6367.4514    11605.624    1806.1674 
   47800    302.70582   -1160.6729    6337.3393    11643.512    1830.3909 
   47900    296.82966   -1163.2742    6439.7178    11617.754    1854.2034 
   48000     303.7124   -1160.7728    6499.5713    11827.148    1851.6317 
   48100    298.66414   -1161.1003    6395.8949    11615.296    1831.4746 
   48200    298.74601   -1160.0833    6307.3244    11529.491    1833.3702 
   48300    301.15109   -1162.3821    6466.4038    11737.653    1882.9012 
   48400    304.83071   -1163.8139    6442.8013    11791.228    1903.2713 
   48500    301.04112   -1168.7525    6425.4589    11687.988    1892.4592 
   48600     296.4791   -1162.7012    6389.8774    11560.997    1876.8985 
   48700    303.43665   -1163.9815    6450.6548    11769.132    1941.1115 
   48800    294.54029   -1168.8847    6376.0692    11499.586    1901.2511 
   48900    300.29372   -1163.6676    6385.6956    11637.342    1807.2237 
   49000    300.99354   -1160.0687    6488.1488    11758.345    1913.4082 
   49100    298.28596   -1163.9701    6308.1935    11516.645    1828.5544 
   49200    304.70549   -1160.7223    6379.9226    11728.765    1883.1481 
   49300    304.11659   -1159.4677     6355.181    11692.698    1854.8688 
   49400    302.09619   -1156.7758    6474.6412    11771.687    1971.8455 
   49500    297.37975   -1162.5328    6393.1715    11583.701    1888.8643 
   49600    300.25024    -1162.011    6373.7022    11626.077    1827.3867 
   49700    304.15399   -1158.9768    6428.0627    11766.869    1823.5263 
   49800    296.53965   -1162.5611    6430.0329    11602.586    1775.9213 
   49900    303.71149   -1162.3434    6468.4385    11794.425    1820.2248 
   50000    299.47383   -1163.1099    6400.7476    11635.437    1828.3204 
   50100     305.3617   -1153.3489    6448.7195    11818.955    1888.3185 
   50200     301.5658   -1151.4988    6527.6931    11818.685    1932.5553 
   50300    297.79314    -1153.121    6364.9334    11573.706    1892.1759 
   50400    299.60273    -1155.598    6330.3439    11575.299     1892.116 
   50500    296.18604   -1150.4036    6422.0664    11599.223    1845.5391 
   50600    298.63717   -1156.6935    6445.2764    11668.508    1793.7872 
   50700    296.90115   -1152.6496    6474.5336    11664.722    1873.0494 
   50800    304.74785   -1156.1843    6606.4665    11960.752    1930.8265 
   50900    302.84859   -1153.1772     6389.444    11706.162    1862.0899 
   51000     296.2274   -1156.9403    6408.2486    11579.752    1845.1354 
   51100    299.51058   -1155.5771    6513.0265    11756.033    1894.1982 
   51200    297.21677   -1153.6891    6387.3767    11583.268    1900.8351 
   51300    299.36487   -1157.4979    6318.3405    11556.314    1820.2363 
   51400    302.48328   -1153.7195    6525.3121    11833.684    1871.6898 
   51500    297.72391   -1159.4927    6406.6737    11607.596    1850.2417 
   51600    299.41583   -1162.4829    6348.6558    11582.733    1888.9678 
   51700    301.36344    -1163.675    6465.9327    11740.425    1885.2153 
   51800    305.34661   -1159.0655    6508.0183    11872.215     1890.816 
   51900     299.0941   -1170.6052    6356.0996    11575.181    1894.6059 
   52000    299.46129    -1171.387    6469.4161     11695.56     1973.897 
   52100    298.77567   -1167.5073    6405.6712    11621.048    1884.3837 
   52200    305.92635   -1165.8484      6356.33    11726.129    1934.3171 
   52300    294.13695   -1164.7809    6429.2497    11548.254    1911.8759 
   52400    301.53738   -1169.9644    6458.3876    11730.306    1908.2854 
   52500    299.27769   -1169.0541    6374.8067    11599.361    1916.9281 
   52600    298.96713   -1166.9138    6408.8106    11628.871    1909.5549 
   52700    298.30951   -1172.3173     6368.842     11569.45    1828.7784 
   52800    303.37133   -1163.9055    6478.1864    11795.344    1922.8824 
   52900    304.04061   -1170.8162    6382.3705    11706.915    1857.0533 
   53000    297.21604   -1165.7434    6394.1756    11577.997    1859.6284 
   53100    302.28256   -1164.9698    6358.0864     11650.92    1830.4988 
   53200    300.96479   -1167.9459    6485.9327    11747.638    1914.7526 
   53300    299.63037   -1168.6123    6439.5544    11672.085    1881.9413 
   53400    300.74415   -1158.5596    6350.6091    11616.987    1867.3204 
   53500    298.05793   -1164.3783    6465.0718    11668.244    1933.2695 
   53600    299.75328   -1163.6965    6417.0236    11657.096    1856.5829 
   53700    297.70105   -1159.4931    6357.0786    11557.512    1853.7742 
   53800    304.17397   -1159.9146    6389.5985    11727.894    1893.4757 
   53900    300.52198    -1155.556    6509.5204    11774.155     1954.059 
   54000    301.45563   -1154.8016    6464.2911    11749.626    1984.2391 
   54100    301.85458   -1153.3093    6353.5928    11648.943    1979.0631 
   54200    300.22797   -1153.9787    6354.1224    11614.054    1901.5478 
   54300    294.91751   -1158.8453    6508.7972    11650.412    1879.7134 
   54400    301.70309   -1157.5297     6562.591    11850.485    1864.0959 
   54500    295.37126   -1155.8366    6425.1512    11579.468    1795.6745 
   54600    306.61926   -1156.5244    6381.0212    11774.947    1883.5699 
   54700    303.66395    -1156.765    6374.8967    11705.446    1903.8692 
   54800    300.88333   -1151.8485    6513.1749    11789.237    1963.8505 
   54900    296.12076   -1154.4837     6472.455    11644.137    1974.9693 
   55000    301.33375   -1153.3062    6364.0024    11648.229    1958.2979 
   55100    298.40086   -1151.7733    6359.6205    11582.724     1903.045 
   55200    298.81378   -1160.0323    6467.5554    11691.221    1910.1734 
   55300    301.19023   -1150.3259    6364.8094    11648.951    1842.6388 
   55400    298.46043   -1157.8775    6510.0317    11728.303    1907.2816 
   55500     300.7616   -1161.7162    6440.8679    11704.462      1864.06 
   55600     300.1638   -1161.6329    6324.9856    11575.892    1863.1326 
   55700    305.20635   -1165.0469    6443.4481    11798.667    1931.4429 
   55800    299.37254   -1159.4079    6457.7268    11693.954    1842.8779 
   55900    300.70545   -1157.2228    6481.9922     11748.88    1903.6781 
   56000    300.87372   -1147.3714    6395.0053    11675.339    1919.1904 
   56100    300.50485    -1157.226     6436.147    11698.746    1937.8613 
   56200    300.57056   -1160.2179    6362.6439    11623.655    1936.6801 
   56300    303.75298   -1160.5832    6378.4054    11707.039    1940.6521 
   56400    301.89425   -1159.0571    6469.7408    11760.191    1901.0488 
   56500    294.19303   -1161.3074    6419.4604    11543.136    1802.8317 
   56600    297.74072   -1162.8157    6461.5157    11659.474    1931.3001 
   56700    302.05461    -1160.216    6392.2757    11684.993    1930.4995 
   56800    297.57639    -1154.394    6359.7443    11562.613      1867.69 
   56900    300.15846   -1152.1827    6524.1882    11784.431     1920.203 
   57000    299.88826   -1152.9315    6442.8537    11696.575    1910.2195 
   57100    302.04774   -1157.8159    6361.5125    11656.483    1860.1176 
   57200    305.40273   -1161.8314    6530.4535    11893.083    1937.1934 
   57300    301.03633   -1159.8489    6378.4733    11649.804    1925.8997 
   57400    298.14726   -1156.3643    6403.5028    11616.597    1934.5221 
   57500    297.02837   -1159.7002    6506.1277    11691.983    1910.5679 
   57600    304.57576   -1160.8503    6525.6274    11871.571    1963.1793 
   57700    298.56675   -1163.0564    6430.7761     11646.14    1936.7417 
   57800    300.48713   -1159.8968    6369.1998    11628.749    1911.1672 
   57900    300.73112   -1152.9228    6393.9334     11665.67    1896.3972 
   58000    295.54402   -1160.9803    6452.4763     11605.34    1948.7276 
   58100    294.84256   -1154.0255     6414.709    11559.542    1918.2107 
   58200    304.01271   -1156.6845      6404.88    11742.961    1890.6622 
   58300    296.61982   -1165.9911    6384.4948    11555.331    1834.7613 
   58400    297.90275   -1164.8506    6428.8226    11628.207    1905.7233 
   58500    296.96602   -1160.3659    6408.0879    11591.945    1864.4119 
   58600    304.40444   -1165.9531    6502.7095     11839.89    1918.8724 
   58700    299.39131   -1163.3127    6357.1879    11589.911    1875.2248 
   58800    306.79049   -1158.0094     6319.959    11716.058    1883.9021 
   58900    298.55009   -1157.7408     6528.568    11748.892    1876.7084 
   59000    298.38246   -1153.2984    6499.5774    11720.762    1968.1753 
   59100    301.59196   -1157.3732    6395.6863    11681.362    1972.6997 
   59200     293.9389   -1154.4203    6383.0194    11508.153    1899.0146 
   59300    302.46301   -1159.0369    6344.9857    11647.607    1909.1148 
   59400    297.88631   -1160.2941    6616.0179    11819.608    1974.5695 
   59500    304.42692   -1158.5643    6483.1138    11828.164    1850.7377 
   59600    301.51992   -1160.0499    6430.6559    11712.116    1883.4809 
   59700    293.29516   -1158.9461    6403.5863    11510.441    1872.0831 
   59800    303.70195   -1154.1539    6496.7744    11830.747    1925.1047 
   59900     296.6153     -1155.65    6397.6421    11578.723    1893.1669 
   60000    306.79803   -1156.1257    6421.6667     11819.81     1947.103 
   60100    300.23455   -1158.3334    6433.2547    11688.972    1882.9852 
   60200    298.91235   -1157.8229    6527.6627    11755.644    1914.2887 
   60300    301.88138   -1160.9429    6465.3337    11753.623     1944.527 
   60400    300.18773   -1159.1583    6426.9455    11680.837    1943.2783 
   60500    296.78867   -1157.1581     6293.975    11477.251    1796.2568 
   60600    300.82766    -1159.506    6435.2916    11702.507    1858.5815 
   60700    303.59158   -1158.3872     6529.798    11857.179    1880.3425 
   60800    301.81606   -1164.7414    6417.4913    11700.587    1858.6534 
   60900    295.49895   -1168.8877    6317.2804    11461.274    1839.6356 
   61000    301.67997   -1170.0681    6511.7844    11786.646     1965.434 
   61100    302.55459    -1165.127    6538.2815    11836.769     1927.418 
   61200    295.74001   -1165.6314    6353.7264    11506.126    1869.0925 
   61300    301.02005   -1164.3683      6351.49    11617.953    1918.3226 
   61400    297.74388   -1166.2367     6382.599    11577.204     1892.868 
   61500    298.74557   -1163.8483    6495.3631    11713.755    1915.8834 
   61600    296.34937   -1168.6242    6362.7986    11525.224    1885.3178 
   61700     298.9708   -1171.7937    6475.6056    11690.864     1879.654 
   61800    301.19084   -1158.9952    6344.7912    11620.276    1821.7032 
   61900    300.12382   -1163.0164    6387.2197    11635.888    1902.9332 
   62000    298.53781    -1162.438    6458.5007    11673.865    1948.0129 
   62100     299.1047   -1164.5206    6352.9361    11578.328    1860.7606 
   62200    303.52377    -1164.596    6493.3121    11813.036    1895.2075 
   62300    299.06026   -1161.4743    6442.9072    11670.396    1939.9529 
   62400    302.91314    -1163.683    6354.9069    11662.498    1893.9318 
   62500    295.07304   -1151.2304    6453.1618    11605.714    1929.5038 
   62600    303.84191    -1158.851    6526.2053     11858.47    1940.3379 
   62700    298.30902    -1156.845    6420.6447    11636.714    1800.2176 
   62800    300.81549    -1150.367    6397.6393    11673.734    1865.2365 
   62900    300.02372   -1149.0632    6383.1349    11643.618    1836.5829 
   63000    300.43887   -1157.5538    6427.3383      11688.2    1845.0247 
   63100    302.51938    -1150.479    6428.4366     11740.82     1833.542 
   63200       298.06   -1150.7304    6492.5419    11709.406    1871.2745 
   63300    306.13427   -1148.7497    6494.1418    11885.481    1951.3514 
   63400    298.28084   -1150.3235     6417.618    11639.607    1901.8412 
   63500    302.56408    -1151.538    6452.1486    11764.428    1890.1084 
   63600    297.39069   -1151.0784    6493.1444    11695.362    1873.9296 
   63700    304.49924   -1153.4828    6436.4365    11788.113    1899.0765 
   63800    300.30303   -1160.1565    6469.0831     11724.44    1945.4372 
   63900    298.23704    -1155.607    6347.9581    11563.728     1845.122 
   64000    304.42576   -1158.2327    6430.2768    11775.633     1962.943 
   64100    297.16867   -1162.1235    6409.0612     11595.49    1933.4241 
   64200    301.94348   -1164.2796    6401.3605     11687.64    1918.6243 
   64300    296.31666   -1167.1443    6403.9284    11567.135     1982.044 
   64400    298.52975   -1167.5996    6366.9399     11576.97    1903.1624 
   64500     300.4501   -1172.4471    6469.9183    11716.127    1947.3876 
   64600    305.13335   -1175.1426    6337.1728    11680.736    1983.3676 
   64700    300.31217   -1172.8289     6460.007    11702.887    1911.0277 
   64800    304.15464   -1167.7462    6493.9589     11824.01    1907.6838 
   64900    298.38755   -1172.6741     6338.281    11540.199    1864.7795 
   65000    302.35505   -1168.3398    6452.1464    11743.158    1936.2544 
   65100    297.96097   -1168.0115    6463.8172    11661.285    1836.2043 
   65200    301.56796   -1170.1798    6378.1291    11650.486    1907.9618 
   65300    299.44977   -1163.9492    6397.9553    11631.291    1927.4038 
   65400     302.2415   -1167.5022    6492.4373    11781.861    1945.2035 
   65500    299.64384   -1169.2531    6419.6978    11651.876    1891.8265 
   65600    299.81146   -1171.4193    6441.1442    11674.737    1945.0934 
   65700     303.6618   -1169.8561    6455.5211    11772.933    1953.5365 
   65800    298.83649   -1164.2848    6410.6835    11630.582    1946.7936 
   65900    300.51979   -1161.1192    6437.7045    11696.729    2001.1398 
   66000    301.25976   -1155.3412    6416.3596    11696.971    1884.2286 
   66100    300.43596   -1156.0439    6430.2832    11692.592    1875.4303 
   66200    303.53687   -1151.7902    6397.4781    11730.287    1953.2117 
   66300    303.77308   -1153.7878     6412.922     11748.78    1913.0994 
   66400    302.86782   -1149.9943    6535.5173    11855.829    1849.1656 
   66500    302.12257   -1152.5654    6470.0854    11771.905    1837.3187 
   66600    294.70222   -1154.5148     6401.686    11543.032    1886.7669 
   66700    301.39646   -1151.4963    6393.0724    11680.449    1885.5102 
   66800    297.09598    -1148.548    6560.4302    11758.882    1965.7221 
   66900    304.01632   -1150.6353     6391.142    11735.349    1936.7531 
   67000     299.9924    -1151.119    6428.7815     11686.54    1892.0549 
   67100    302.93791   -1156.2212    6444.2096    11759.792    1892.7389 
   67200    299.04546   -1155.7848    6431.1916    11664.054    1916.7671 
   67300    296.62997   -1159.2658    6466.5854    11644.364    1876.1084 
   67400    300.52217    -1158.393    6423.4768    11685.279    1820.4044 
   67500    301.74266   -1161.5485    6389.3617    11674.082    1857.2386 
   67600    299.19433   -1164.4226    6481.6289    11709.034    1948.3727 
   67700    302.01528   -1162.2423    6470.5702    11760.421    1860.4871 
   67800    300.49685   -1166.2868    6284.8989    11538.266     1874.875 
   67900    300.09241    -1167.742    6344.1249    11587.397     1955.719 
   68000    302.86933   -1167.5496     6555.318    11858.107    1931.5435 
   68100    298.83618   -1167.8317    6482.9611    11699.306    1905.3595 
   68200    303.04471   -1167.6674    6364.7669    11671.185    1892.9118 
   68300    300.42877   -1169.6384    6432.4666    11681.028    1882.2469 
   68400    300.13801   -1169.9516     6457.021    11699.057    1886.4083 
   68500    302.60634   -1172.0864    6385.3509    11677.985    1996.1872 
   68600    298.97954    -1169.273    6388.6649    11606.631    1916.8567 
   68700    298.43439   -1167.5922    6470.8321    11678.833    1929.1575 
   68800     298.4942   -1161.9543    6329.3235     11544.24    1904.7103 
   68900     303.4606   -1168.1375    6389.1976     11704.03    1910.6387 
   69000     296.3079   -1164.8534     6490.286    11655.596    1925.7427 
   69100    299.54567   -1162.5205    6378.8941    11615.707     1867.287 
   69200    300.73385   -1157.2095    6393.0656    11660.573    1917.4371 
   69300    302.90863   -1163.4496    6473.9885    11781.717    1963.8345 
   69400    302.24544   -1161.2849    6408.0512    11703.776     1893.879 
   69500    297.63455   -1159.9355    6495.2833    11693.853    1881.4651 
   69600    303.70263   -1156.7952    6390.7375    11722.083    1875.5077 
   69700    294.79347   -1155.3829    6415.3268    11557.754    1870.4221 
   69800    297.59399   -1152.5743    6387.6978    11592.763     1901.128 
   69900    301.72958   -1152.5338    6482.5982    11776.054     1856.809 
   70000    298.23151   -1153.1915    6415.5767    11633.644    1858.4972 
   70100    300.71417    -1158.478    6385.4403    11651.259    1900.8527 
   70200    298.67074   -1153.9788    6530.2851    11756.948    1909.2283 
   70300    307.74116   -1158.5471    6486.0438    11901.914    1846.0645 
   70400    301.19523   -1162.5593    6476.2058     11748.22    1887.8174 
   70500    297.52302   -1154.0313    6357.6146    11559.706    1859.4832 
   70600    301.69122   -1159.0008    6446.9519    11733.121    1896.2954 
   70700    298.94564   -1157.6567    6460.6996    11689.558    1888.5384 
   70800    302.48379   -1159.4895    6447.7902    11750.403     1916.588 
   70900    301.60976   -1165.0067     6424.267     11702.69    1875.3374 
   71000    296.39491    -1170.032    6418.6692     11580.66    1865.5557 
   71100    299.60853   -1166.6121    6479.6455     11713.71    1909.6248 
   71200    301.44652   -1175.1143    6367.1515    11631.979    1858.4784 
   71300     296.8551   -1168.8209    6414.9423    11587.975    1788.3179 
   71400    302.67684    -1169.996    6442.4023    11738.633    1867.9429 
   71500    302.28545   -1173.2161     6379.354    11664.003    1887.2791 
   71600     301.8353    -1172.622    6386.6134    11662.239    1851.3433 
   71700      301.705   -1161.8895    6286.3684    11569.943    1851.2758 
   71800    299.64366   -1166.4627    6427.1036    11662.068    1969.7436 
   71900    299.18729   -1163.5027    6378.7739    11606.949    1872.9505 
   72000    298.38231   -1170.7553    6468.2093    11671.934    1934.8263 
   72100    303.99884   -1177.3618    6379.3623    11696.469     1912.126 
   72200    297.58608   -1168.6701    6433.0591    11621.859    1904.4219 
   72300    297.13581   -1172.1388    6484.2617    11659.974    1966.0608 
   72400    306.12505   -1167.0945    6374.0494    11746.847    1929.4303 
   72500    298.00164    -1165.859    6418.3139    11618.803     1904.484 
   72600    303.92468   -1158.2763    6533.1292    11867.737    1963.0022 
   72700    299.80714   -1158.1058    6450.1428    11696.957     1895.172 
   72800    304.77392   -1159.8133    6406.2046    11757.418     1877.007 
   72900    301.73147   -1156.2827    6451.8886    11741.636    1956.5489 
   73000    297.31766   -1160.3161    6406.8221    11598.242    1862.8069 
   73100    301.10995   -1159.0788    6527.5691    11801.242    1906.9055 
   73200    300.78565   -1161.0513    6449.6385    11714.411    1910.3406 
   73300    299.21981   -1156.5039    6478.2051    11714.073    1924.3182 
   73400    299.99073   -1154.8249    6486.5745    11740.591    1898.7522 
   73500    302.67295   -1156.8401    6437.3731    11746.676    1902.3952 
   73600    302.23473   -1158.0757     6416.224     11714.93    1894.2539 
   73700    301.68267   -1156.5912    6463.5949    11751.991    1916.4663 
   73800      299.493   -1155.5054    6482.9935    11725.697    1942.1103 
   73900    304.02932   -1166.0222    6490.5464    11819.644    1892.0649 
   74000    296.61781    -1166.306    6301.1541    11471.633     1761.026 
   74100    306.41142   -1166.4883    6484.2755    11863.797    1894.3428 
   74200    298.59935   -1170.0492     6426.562     11635.63    1938.3391 
   74300    301.04023   -1165.0225    6437.1884    11703.428    1913.9269 
   74400    304.66287   -1171.8941    6380.7856    11717.546    1939.8835 
   74500    295.60804   -1165.5547    6420.5322     11570.19     2000.718 
   74600     301.5544     -1160.02    6356.1073    11638.334    1890.2835 
   74700    296.84064   -1170.6178    6407.0953    11578.022    1892.3431 
   74800    300.78313   -1165.6615    6430.5426    11690.651    1996.2538 
   74900    297.45468   -1174.8575    6403.2406    11583.046    1931.9413 
   75000    303.70765   -1178.8706    6378.5322    11687.909    1881.3614 
   75100    296.43506   -1176.9603    6342.6409    11498.561    1903.3204 
   75200    301.00418    -1175.433    6569.5618    11824.621    1998.6916 
   75300    299.78022   -1172.0432    6464.7997    11697.101    1895.4823 
   75400     300.6034   -1163.2096    6420.1939    11678.915    1957.1348 
   75500     297.6471   -1171.9831    6411.8784    11598.669     1947.962 
   75600    300.98159   -1164.9092    6447.2158    11712.316    1972.7769 
   75700    298.08849   -1169.4257    6330.7267    11529.504    1937.7837 
   75800     305.4993     -1161.79      6402.08    11766.814    1955.2616 
   75900    301.16277   -1168.7222    6539.7156    11804.874     1891.887 
   76000    293.17549   -1166.6447    6519.1465    11615.746     1875.928 
   76100    294.90757   -1164.3414     6454.523    11590.429    1908.2407 
   76200    301.64842   -1159.0026    6372.5796    11657.833    1850.5167 
   76300    300.33631   -1158.0136    6468.4038    11726.615     1881.448 
   76400    295.56185   -1156.6417    6405.0304    11562.614    1885.0086 
   76500    302.70361   -1152.9969    6464.4619    11778.263    1909.0028 
   76600    297.32608   -1155.8977    6494.4214    11690.439    1901.6234 
   76700    301.76152   -1152.5131    6434.6862    11728.845    1920.8035 
   76800    296.28094   -1152.8476    6362.1506    11538.891      1877.24 
   76900      302.627   -1153.8804    6418.8831    11730.164    1901.0201 
   77000    298.60938   -1159.7757    6501.7709    11721.326    1916.7222 
   77100    300.21638   -1158.6233    6416.5574    11671.596    1818.7314 
   77200    297.64612   -1155.2411    6551.2545    11754.766    1896.7184 
   77300    302.44093   -1159.4778    6416.8624    11718.571     1843.673 
   77400    300.43972   -1160.2566    6310.0543    11568.231    1808.6673 
   77500    298.75593   -1158.3372    6356.7798    11580.905    1873.4014 
   77600    303.18806   -1157.0529    6535.4641    11855.559    1961.0484 
   77700    301.83605   -1157.0988    6415.2188    11706.384    1909.0091 
   77800    293.99898   -1164.6452    6392.8302    11509.022    1889.8931 
   77900    303.11495    -1163.008    6434.4048    11746.983    1908.7622 
   78000    298.45264    -1168.019    6450.0241    11657.988    1897.8669 
   78100    302.62828   -1170.5782    6417.4471    11712.058      1880.79 
   78200     301.6324   -1173.3308    6373.2544    11643.837    1810.6785 
   78300    296.22497   -1170.5631    6456.4781    11614.307    1888.8738 
   78400     300.1808   -1167.1596     6341.791    11587.534    1836.4327 
   78500    302.31407   -1163.5126     6471.534    11766.498    1970.3549 
   78600    295.93568   -1167.6351    6356.3477    11510.924    1930.9512 
   78700    297.39021   -1158.0824    6432.3626    11627.566    1895.5025 
   78800    303.43287    -1167.298    6322.5827    11637.662    1889.1769 
   78900    295.82774   -1170.9534    6442.9964    11591.949    1971.5151 
   79000    296.13897   -1169.1608    6427.0687    11584.463    1845.2712 
   79100    298.83558   -1169.4528    6457.8907    11672.602     1874.937 
   79200    302.70285   -1167.2974    6463.1314    11762.616    1909.7874 
   79300     302.2214   -1166.2035    6395.0991    11685.392    1866.4917 
   79400       307.01   -1165.8124    6455.7088    11848.694    1912.4246 
   79500     301.5697   -1158.9652    6389.4037    11673.012    1862.3787 
   79600    294.18876   -1157.0299    6353.1392    11481.001    1843.7291 
   79700    295.91885   -1160.2333    6441.2456    11602.864    1844.4872 
   79800    300.72919     -1161.18    6512.6571    11776.095    1863.1894 
   79900    301.89508    -1157.013    6454.3548    11746.867    1892.4116 
   80000    294.16391   -1160.8465    6354.4895    11478.003    1824.2981 
   80100    305.74749   -1157.8986    6430.1174    11804.045     1815.943 
   80200     299.9984   -1157.2842    6519.9088     11771.63    1897.7811 
   80300    298.70068   -1159.5319    6370.8136    11592.563    1897.3225 
   80400    302.84168   -1159.8466    6384.0957    11693.997    1878.7154 
   80500    298.67838   -1158.4688    6496.6721    11719.008    1905.5391 
   80600     300.2493   -1159.7418    6454.4553    11709.079    1942.3557 
   80700    302.07912   -1159.7833    6348.6784    11642.352    1853.2284 
   80800     303.2117   -1158.3863    6382.9398    11702.206    1896.6331 
   80900    300.54265   -1155.3017    6372.3243    11637.655    1912.1341 
   81000    298.74564     -1156.08    6402.2831    11628.445    1891.8549 
   81100    306.05621   -1160.2321    6379.8954    11758.085    1921.7738 
   81200    299.03337   -1166.8905     6373.991     11595.49     1932.488 
   81300    299.32144   -1168.7859    6341.2132    11566.971    1889.5164 
   81400    298.58705   -1169.1831    6490.2858    11699.957    1889.6632 
   81500    309.42217   -1166.1165    6457.9741    11902.188    1830.4512 
   81600    302.25979   -1170.3252    6456.1207    11743.112    1816.3472 
   81700    293.59574   -1171.6031    6395.6362    11496.256    1827.2192 
   81800    302.57019   -1169.1619    6376.5294    11671.315     1863.396 
   81900    297.86397   -1162.8917    6429.3404    11629.855    1897.5693 
   82000    298.76624   -1163.4598    6383.0906    11602.313    1901.5015 
   82100     301.5348   -1168.0911     6275.998    11549.735    1762.0493 
   82200    299.23708   -1170.1143     6547.516    11770.143    1833.7548 
   82300    300.71052   -1169.4304    6514.8977    11769.686    1830.5754 
   82400    301.02092   -1171.0238    6424.9878    11684.814    1813.3219 
   82500    297.68475   -1168.9673    6352.5806    11543.191    1841.4212 
   82600    304.58981   -1166.4682    6508.9348     11849.56    1934.7782 
   82700    296.45239   -1164.6182     6508.402    11677.034    1869.8718 
   82800    302.78079   -1157.1612    6485.5173    11796.803    1906.6916 
   82900    297.18261   -1169.9789     6223.058     11401.93    1826.9685 
   83000    293.35704   -1162.4447    6426.7653    11531.444    1902.2869 
   83100    301.77288   -1161.4871     6418.948    11704.375    1897.9222 
   83200    296.25378   -1159.1159    6432.3461    11602.238     1888.744 
   83300    301.45519    -1161.292     6472.645     11751.48    1917.3855 
   83400    298.54934   -1158.3549    6429.9576    11649.651    1889.1714 
   83500    299.57979   -1160.2367    6481.3049    11721.131    1928.9178 
   83600    299.10639    -1161.703    6389.2544      11617.5    1897.4084 
   83700    296.70277    -1162.154     6296.773    11473.218    1826.1119 
   83800    302.10206    -1155.434    6493.6679    11792.181    1952.2423 
   83900    301.01243   -1161.0742    6412.7347    11682.329    1919.1747 
   84000    301.94394   -1158.1962    6357.2449    11649.618    1872.1417 
   84100    299.43189    -1160.006    6516.7941    11753.691    1907.5462 
   84200    298.75279   -1166.4967     6408.456    11624.354    1903.2283 
   84300    304.49884   -1165.2255    6365.6365    11705.561    1836.1076 
   84400    296.50384   -1165.7995     6414.281    11582.831    1804.5571 
   84500    304.39661     -1166.16    6476.4205    11813.227    1901.8566 
   84600    303.32208   -1165.3395    6453.0066    11767.678    1826.2646 
   84700    296.00681   -1165.9766    6423.2626    11581.017     1833.946 
   84800    298.79755   -1166.7867    6306.7164    11523.281    1888.1771 
   84900    301.06058   -1163.7313    6375.1675    11643.134    1856.2431 
   85000    297.91508   -1159.6517    6492.4284    11697.275    1914.0176 
   85100    301.14359   -1164.6167    6454.5261     11723.38    2001.8628 
   85200    300.68779   -1171.4438    6406.0245    11658.314    1994.0161 
   85300    297.66645   -1170.4853     6340.277    11528.979    1916.6465 
   85400    299.97724   -1166.8215    6420.0452    11661.777    1936.3792 
   85500    301.30489    -1166.219    6455.3986    11726.096    1955.4933 
   85600    298.70041    -1163.559    6408.1783    11625.895    1907.7339 
   85700    299.64543   -1163.1975    6427.7216    11665.989    1919.1268 
   85800    302.54571   -1169.9043    6309.0117    11602.532    1917.5397 
   85900    298.96689   -1166.5539    6429.9968    11650.412    1916.2767 
   86000    302.26015    -1159.246    6554.4124    11852.491    1904.4847 
   86100    297.87285   -1163.4812    6424.2175    11624.333    1858.8311 
   86200    298.84695   -1164.1395    6401.9262    11622.193    1916.6199 
   86300    303.06897    -1163.927    6354.2054    11664.882    1880.2018 
   86400    298.63073   -1157.0411    6442.1145    11664.861    1881.5785 
   86500    301.18711   -1159.8109    6442.9668    11717.556    1829.7253 
   86600    308.50366   -1162.9322    6484.2069    11911.982    1877.8821 
   86700    299.04934   -1157.9885    6490.9003    11721.642    1875.3572 
   86800    298.41002   -1156.0612       6368.8    11587.811    1848.2506 
   86900    300.68277   -1159.0116    6443.5275    11708.142    1877.4247 
   87000    305.06635    -1159.126    6448.5454    11806.694    1933.5346 
   87100    300.09255   -1161.5778    6342.2915    11591.731    1861.0697 
   87200    298.00746   -1157.6491    6465.5964    11674.419    1916.3409 
   87300    302.19115   -1161.1472    6487.6784    11782.381     1885.102 
   87400    299.30655   -1156.5417    6475.4912    11713.175    1903.4161 
   87500    295.64617   -1164.1542    6364.1998    11516.072    1868.2237 
   87600    301.22978   -1159.8034    6425.0517     11700.56    1932.1966 
   87700    298.66306   -1163.1178    6406.1259    11623.486    1868.0939 
   87800    295.90528    -1163.024    6443.8793    11602.418    1845.0074 
   87900     302.6493    -1168.277    6358.5036    11655.864    1841.2241 
   88000    299.28188   -1166.1478    6355.3231    11582.873     1845.816 
   88100    295.98572   -1163.2018    6465.5841    11625.663    1840.9045 
   88200    303.34613   -1162.6736    6454.0856    11771.937     1857.108 
   88300    300.75085   -1166.9296    6385.4783    11643.629    1903.9752 
   88400    302.31892    -1168.248    6337.8096    11628.141    1866.1225 
   88500    297.91665    -1165.219    6404.3043    11603.618    1847.7484 
   88600    300.07806   -1168.1052    6408.0674    11650.669    1871.4348 
   88700    301.30801   -1169.9835    6452.5058    11719.506    1845.7276 
   88800     299.3043   -1166.4005    6436.6982    11664.475    1831.0764 
   88900    300.27819   -1165.1913    6341.5756    11591.367     1863.574 
   89000    298.56856   -1172.0033    6418.3063    11624.762    1835.4796 
   89100     300.8086   -1159.8436    6498.9902    11765.461    1853.1032 
   89200    297.91141   -1164.1215    6331.7744    11532.073    1832.2999 
   89300    304.12136    -1163.643    6301.9955    11635.439    1863.4623 
   89400    298.79248   -1165.6288    6378.9019    11596.516    1841.0419 
   89500     300.3779   -1166.3494    6478.5779    11729.341     1864.487 
   89600    300.14501   -1172.8891    6483.0286    11722.277    1870.3743 
   89700    298.61169   -1163.3018    6564.4247    11780.503    1856.4576 
   89800    301.95895   -1168.7319    6359.7414    11641.899    1779.4471 
   89900    297.11831   -1160.9613    6384.8536    11571.369    1862.0431 
   90000    303.12927    -1164.262    6395.0051    11706.635    1863.2815 
   90100    298.98621   -1158.9543    6473.6679    11702.095    1907.6767 
   90200    301.83654   -1157.2551    6334.5799    11625.599    1838.3479 
   90300    302.68522   -1156.8567    6454.1874    11763.736    1903.6872 
   90400    297.42004    -1158.913    6493.2665    11688.276    1888.5807 
   90500    301.52319    -1157.471    6380.3795    11664.489    1876.4118 
   90600    298.61516   -1158.2036    6442.9216    11664.173     1931.964 
   90700    301.40738   -1160.6686    6378.0564    11656.494    1899.2077 
   90800     296.2297   -1161.4694    6480.6225    11647.646    1833.7201 
   90900    301.80218   -1159.3039    6428.9341    11717.171    1867.9407 
   91000    300.79822   -1167.2717    6404.4565    11663.277     1892.227 
   91100    299.20447   -1156.3868    6444.5889    11680.247     1841.393 
   91200    300.56472   -1153.2344    6322.3104     11590.18    1806.5026 
   91300    303.01503    -1159.971    6393.8538    11707.334    1860.8992 
   91400    300.57152   -1161.5726    6448.9641    11708.641    1871.3651 
   91500    305.36662   -1164.2725    6367.6105    11727.027    1880.0977 
   91600    298.98687   -1168.2919    6453.0594    11672.163    1953.3763 
   91700    303.80098   -1164.2277    6400.9072    11726.921    1834.1115 
   91800    298.56347   -1164.7025    6483.4911    11697.139    1897.1445 
   91900    299.76062   -1167.7962     6497.723    11733.852    1916.6887 
   92000    302.87272   -1168.6157    6386.3846     11688.18    1846.3917 
   92100    303.04924   -1164.6513    6306.5608    11616.092    1859.9506 
   92200    302.11595    -1163.309    6461.5874    11752.522    1979.5971 
   92300    297.20228   -1159.8334    6387.5642    11577.001    1837.3316 
   92400    302.50901   -1161.8097    6472.0647    11772.896    1893.0075 
   92500    298.31268    -1161.617    6343.0893    11554.465    1836.0548 
   92600    298.49242   -1167.9231    6541.9538    11750.863    1912.5932 
   92700    302.75579   -1166.4191    6493.7165     11795.21    1863.7353 
   92800    298.38627   -1166.0337    6339.2324    11547.764    1853.6714 
   92900    299.58452   -1164.4005    6423.7614    11659.524    1936.7896 
   93000    300.25778   -1164.8311    6377.6236    11627.339    1802.9542 
   93100    299.39098   -1166.3898    6469.6178    11699.257    1854.4492 
   93200    297.30272   -1161.8597    6470.8626    11660.419    1866.5317 
   93300    299.50802   -1157.7441    6485.4158    11726.201    1873.7297 
   93400    300.65359   -1162.4696    6341.5749    11602.108    1854.0865 
   93500    300.63687   -1169.6775    6381.9821     11634.95    1891.8367 
   93600     296.6433   -1158.1117    6512.6488    11691.866    1911.8421 
   93700    299.08133   -1158.2514     6419.473    11650.635    1880.4359 
   93800    306.29472   -1161.2343    6403.7114    11785.994    1929.4735 
   93900    298.07657    -1163.505    6405.3742    11609.818    1974.1071 
   94000    298.12245   -1161.4116    6358.2192    11565.736    1937.9251 
   94100    301.52219   -1162.1915    6355.4846    11634.852    1882.7053 
   94200    300.21092   -1164.2835    6503.3062    11752.568    1878.6462 
   94300     298.5722   -1166.7014    6522.4347     11734.27    1898.1202 
   94400    299.50591   -1161.3261    6415.8976    11653.056    1924.9522 
   94500     301.5382   -1166.3732    6355.5778    11631.106    1947.0877 
   94600    298.17562   -1162.8374     6446.613     11653.84    1987.8536 
   94700     302.6005   -1164.0393    6354.0178    11654.574    1900.2781 
   94800    300.61572   -1158.4375    6370.2613    11634.017    1924.0192 
   94900    299.04179   -1163.2267    6490.5921    11715.934    1924.5374 
   95000    304.21503   -1166.2223    6440.1071    11772.972    1811.4905 
   95100    300.84873    -1163.317    6424.1098    11687.964    1837.8747 
   95200      299.024   -1169.6837    6408.2135    11626.719    1820.0789 
   95300    301.44397   -1162.2675    6544.0094     11821.63    1863.8105 
   95400    296.76357   -1172.7097    6471.8904    11639.079    1823.7587 
   95500    304.63596   -1167.0821    6316.1174    11657.115    1852.3382 
   95600    298.82511   -1161.0988    6474.2045    11697.046    1923.8949 
   95700    301.17135   -1160.9653    6465.3255    11738.424    1933.2032 
   95800    297.97446   -1160.4875    6284.3757    11489.655    1872.1288 
   95900    301.79495   -1160.2808    6473.8641    11760.969    1930.4967 
   96000    298.35758   -1162.6746    6485.7762    11697.053    1908.4557 
   96100    299.37349   -1166.1228    6329.2394    11558.772    1871.7375 
   96200     299.8044   -1168.9478    6305.4903    11541.403    1849.7033 
   96300     297.9026   -1169.5445    6563.8053    11758.493    1892.9452 
   96400    305.18041   -1161.7587    6505.2627    11863.215    1897.7329 
   96500    293.95751   -1161.8358    6348.5302    11466.646    1842.0589 
   96600    297.81498   -1157.8056    6377.9903    11582.545    1877.9252 
   96700    303.68503   -1158.9779    6499.3681    11828.155    1945.6526 
   96800    293.98074    -1154.946    6458.8506    11584.352     1936.122 
   96900    300.31081   -1157.9223    6401.3564    11659.114    1861.3469 
   97000    302.62671   -1163.0371    6402.1809    11704.299    1887.2353 
   97100    297.24002   -1163.5769    6392.5769    11579.077    1928.8887 
   97200    303.67326   -1165.0735    6407.9203     11730.36    1878.3521 
   97300    295.15628   -1167.5458    6488.9926    11627.008    1913.5489 
   97400     300.3967   -1167.1439    6441.6074    11691.978    1969.4467 
   97500     300.6128   -1161.5062    6308.0146     11568.64    1874.3088 
   97600    301.70152   -1162.6308    6412.2689    11695.028    1856.7048 
   97700    301.18935   -1164.5668    6448.8404    11718.722    1924.7748 
   97800    299.96461   -1160.8354    6547.9977    11795.446    1931.4504 
   97900     298.8016    -1162.219    6369.1442    11590.363    1820.9143 
   98000    295.21606   -1167.8232    6330.7695    11469.784    1904.0527 
   98100    304.25515   -1170.6322    6324.5889    11653.901    1872.8339 
   98200    299.11731   -1168.4084    6482.7194    11704.493    1901.7874 
   98300    298.47015   -1165.6232    6546.2146    11756.948    1919.7057 
   98400    303.56855   -1168.6475    6377.1869    11693.816    1863.0065 
   98500    297.89664   -1170.8908     6348.226     11541.44     1815.776 
   98600    303.10439   -1168.2859    6480.1315    11787.206    1896.6497 
   98700    298.82549    -1164.509     6393.223    11612.662    1954.0186 
   98800    302.16901   -1163.2422    6354.4869    11646.622    1923.8491 
   98900    300.47459    -1166.453    6506.7969    11759.522    1928.0022 
   99000     296.9485   -1172.6668    6404.1123    11575.295    1908.7963 
   99100    301.66221   -1171.4944    6472.5935    11745.649    1959.2765 
   99200     298.3247   -1168.6044    6378.3027    11582.948    1884.4993 
   99300    301.71411   -1162.3239     6483.438    11766.773    1912.5165 
   99400    299.30785   -1162.9347    6507.1357    11738.454     1957.047 
   99500    301.42594    -1159.734    6387.3293    11667.098    1956.3612 
   99600    303.49969   -1159.5678    6425.3813    11749.619    1947.1399 
   99700    298.69268   -1164.3684    6418.3733    11635.116    1893.7895 
   99800     303.1196   -1160.4342      6490.35    11805.601    1940.5029 
   99900    297.44643   -1165.0385    6587.5904    11777.039     1969.834 
  100000    299.77989   -1167.5413    6324.0442     11560.84    1904.0358 
  100100    303.48917   -1167.0099    6364.3644    11680.935    1969.9384 
  100200    296.69837   -1164.7332    6558.4699    11732.242    1953.4034 
  100300     301.9337   -1157.8673    6373.5436    11666.027    1892.4729 
  100400     302.6429    -1160.158    6258.0702    11563.413    1838.2032 
  100500    298.31765   -1160.4642    6486.4443    11699.079    1887.1517 
  100600    300.38366   -1156.4501    6587.9009    11848.687    1977.0193 
  100700    303.03841   -1162.7174    6310.2142    11621.447     1904.326 
  100800    301.31867   -1163.0995    6239.9896    11514.101    1831.6181 
  100900    295.22638   -1162.5647    6518.7271    11663.221     1941.189 
  101000    301.49131   -1167.9668    6519.1219    11792.054    1984.0952 
  101100    299.60955   -1171.9926    6352.8938    11581.599    1845.2967 
  101200    297.46453   -1164.6685    6488.6738    11678.879    1884.6115 
  101300    295.73848   -1160.7492    6493.7795    11651.029       1947.9 
  101400    303.97788   -1161.0183    6450.2878    11783.291    1905.3465 
  101500    297.61131   -1164.2529    6397.2524    11591.008     1845.734 
  101600    299.28976   -1164.8312    6472.0721    11701.107    1937.1234 
  101700     306.6072   -1165.4416    6380.9158    11765.666    1890.6248 
  101800    300.57283    -1167.167    6388.4778    11642.588    1870.7243 
  101900    301.49603   -1169.0873    6533.3987    11805.311    1921.3727 
  102000    299.29489   -1165.5548    6480.3753    11708.797    1882.4556 
  102100    296.11125   -1165.4198     6407.274    11567.817    1842.4528 
  102200    303.48289   -1166.0681    6462.1926    11779.571    2000.4024 
  102300    303.07697   -1159.3525    6420.5603    11735.982    1880.3635 
  102400    299.39719   -1161.2698     6442.801    11677.693    1883.6617 
  102500    299.05318   -1150.6159    6412.0453    11650.242    1992.2092 
  102600    299.58252   -1161.9403     6386.068    11624.249    1970.6823 
  102700    299.36101   -1169.8402     6483.507    11709.055    1875.0844 
  102800    300.51035   -1169.2123    6484.8611    11735.591    1890.5461 
  102900    299.15462   -1169.2775    6462.0415    11683.743    1896.0927 
  103000    302.73702   -1167.1999    6422.8052    11723.117    1905.6676 
  103100    299.87594    -1165.995    6462.3763    11702.771    1893.7153 
  103200     299.4546   -1162.5751    6471.3249    11706.138    1880.2633 
  103300    300.90477   -1166.6506    6459.4961    11721.214    1920.4554 
  103400    304.92523   -1161.9795    6449.8441    11802.124    1939.6844 
  103500    296.41747   -1161.9939    6326.1395     11496.65    1853.2748 
  103600    300.44165    -1161.104    6396.7521    11654.123    1878.8785 
  103700    298.30593   -1166.0299    6413.9449    11620.763    1839.0513 
  103800    299.04456   -1159.4264     6408.893    11638.095    1831.8247 
  103900    300.69489   -1163.6471      6452.33    11712.568    1920.1468 
  104000    299.86178   -1168.3231    6428.6282    11666.392    1816.9499 
  104100    304.65537   -1167.7009    6447.6451    11788.439     1834.933 
  104200    295.52412   -1167.0331    6437.9681    11584.354    1869.3583 
  104300    300.82908   -1171.3028    6399.0919    11654.541    1893.4619 
  104400    305.30444   -1169.6631    6314.7804    11667.478    1888.0551 
  104500    300.00272   -1162.5397    6389.4384    11635.996    1911.8107 
  104600    302.76485    -1160.367     6521.802    11829.542    1866.2661 
  104700    299.43986   -1160.3347    6485.8708    11722.609     1841.436 
  104800    303.36306   -1167.9799    6346.9096    11659.816    1890.0781 
  104900    295.59399   -1166.6564     6278.751    11427.007    1862.9447 
  105000    299.69124    -1163.314    6353.2554    11592.385    1878.4905 
  105100    302.22259   -1159.2118    6522.6019    11819.912     1932.402 
  105200    295.92477   -1160.3015    6488.6506    11650.328    1876.8314 
  105300    298.80508   -1167.6898    6335.8018    11551.624    1838.6075 
  105400     298.6395   -1160.9154    6478.5159    11697.575    1889.4761 
  105500    298.87103   -1159.3229    6411.3021      11636.9    1907.8328 
  105600    297.93793   -1162.7136    6266.3889    11468.662    1784.6827 
  105700    296.66891   -1157.0775    6513.3462    11694.145    1886.5867 
  105800    301.42276   -1162.7941    6524.1537    11800.794     1987.987 
  105900    298.27814    -1159.333    6309.7411    11522.663    1851.6995 
  106000    301.99313     -1158.35    6534.2864    11827.556    1889.7149 
  106100    300.08313   -1167.3844    6422.5395    11665.971    1887.4059 
  106200    293.88784     -1163.29    6421.8148    11536.988    1840.3815 
  106300    307.64989   -1161.4393    6453.8908    11864.919    1871.5786 
  106400     299.3107   -1161.3683    6440.9001    11673.846    1873.8755 
  106500     300.0501    -1162.061    6392.8973    11640.946    1854.4878 
  106600    304.14909   -1157.6294    6419.4634    11759.513    1888.7006 
  106700    300.96644   -1161.2102    6319.3389    11587.815    1828.1414 
  106800    300.05642   -1164.3149    6397.4484    11643.379    1894.9661 
  106900    298.29427     -1158.55    6459.7536    11673.803    1819.2775 
  107000     305.4831   -1165.1165    6491.6276    11852.689    1837.4828 
  107100    298.28661   -1168.5528    6500.5344    11704.417    1910.6608 
  107200    300.49913   -1164.5648    6344.7605    11599.899    1879.1893 
  107300    303.05501   -1161.0552    6356.3758    11669.626    1925.9388 
  107400    289.42263   -1164.6746     6441.082    11459.478    1951.1244 
  107500    303.27547   -1163.6418    6460.2067     11775.58    1947.5377 
  107600    298.79679   -1169.1022    6453.7326    11667.965    1922.0023 
  107700    298.75923   -1171.3914    6363.5185    11574.659    1904.3157 
  107800    300.47037   -1165.2805    6413.3767    11667.185    1928.6836 
  107900    297.47405   -1167.6792     6421.183     11608.58    1928.9485 
  108000    303.49359   -1167.8149    6418.8659    11734.726     1914.598 
  108100    296.28242   -1169.8056    6509.3643    11669.178    1939.4498 
  108200    302.29185     -1166.12    6382.8979    11674.779    1913.2116 
  108300     297.2997   -1168.6964     6414.651    11597.307    1889.4521 
  108400    305.66753   -1166.5767    6488.8761    11852.417     1932.513 
  108500    300.90943        -1169     6444.116    11703.584    1926.1065 
  108600    301.07212    -1164.797     6400.143     11667.29    1877.8466 
  108700    299.58948   -1167.1416    6454.3868    11687.515    1951.4748 
  108800    299.35288   -1167.5336    6335.8087     11563.49    1921.0082 
  108900    293.45136   -1167.4672    6429.9001    11531.571    1899.0303 
  109000    303.97685   -1163.2297    6446.8077    11777.577    1915.2705 
  109100    297.75668   -1164.6628    6508.0467    11704.499    1966.8512 
  109200    298.94242   -1162.5188     6353.015    11576.942    1874.8792 
  109300     296.9807   -1166.3752    6359.9601    11538.122    1885.1214 
  109400    303.57986   -1159.1629    6473.7096    11800.065    1944.1116 
  109500    297.96091   -1167.0909    6402.5524    11600.939    1894.8846 
  109600    300.85644   -1169.1985    6438.8754    11697.013    1914.2668 
  109700    304.38783   -1164.4932     6641.654     11979.94    2010.7718 
  109800    299.93253   -1167.9276    6406.0156    11645.686    1908.9205 
  109900    301.52787   -1160.7553    6363.2049     11644.13    1921.2836 
  110000    297.80664   -1161.0279    6445.0947    11646.249    1956.5513 
  110100     300.4951   -1160.9335    6395.6031    11654.286    1894.6786 
  110200    301.95746   -1161.1375    6520.8702    11810.591     1932.931 
  110300    300.32001    -1166.887    6468.7975    11717.787    1950.2903 
  110400    301.39606   -1169.2319    6364.1718    11633.804    1903.5516 
  110500    302.72507   -1165.0828    6386.0605    11688.234    1925.8075 
  110600    295.69335    -1170.375    6386.8058    11533.465     1862.792 
  110700    301.10652   -1164.0505    6476.2858    11744.914     1867.864 
  110800    303.64989   -1164.3439    6451.3482    11774.018    1882.5227 
  110900    296.51322   -1161.0961    6399.5914    11573.045    1857.0365 
  111000    297.49145    -1162.281    6284.3111    11477.479     1895.721 
  111100    302.48227   -1161.1257    6413.0719    11714.016    1987.3003 
  111200    300.02704   -1164.0077    6507.6473    11753.257    1954.2443 
  111300    303.62982    -1165.405    6489.3765    11810.557    1874.8211 
  111400    301.59588   -1169.2938    6427.1723    11701.012    1882.8631 
  111500    298.12928   -1171.3125    6431.7111    11629.473    1888.3363 
  111600    297.80811   -1167.5261    6474.1914    11668.879    1905.1476 
  111700    295.77693    -1164.924    6366.7284    11520.625      1940.43 
  111800    301.94974   -1160.8889    6394.8324    11684.637     1965.553 
  111900    301.27565    -1160.797    6397.4784    11672.974    1932.9536 
  112000    301.92461   -1158.1019    6402.6431    11694.697    1959.3575 
  112100    298.22059   -1163.7496    6431.4448    11638.721      1976.04 
  112200    297.84672   -1163.7584    6381.5729    11580.853    1867.5363 
  112300     298.5824   -1166.8131    6375.2732    11587.215    1829.9618 
  112400    301.32263   -1168.2132    6512.3325    11781.415    1923.0637 
  112500    297.02971   -1167.9121    6291.5826    11469.255    1711.0259 
  112600    298.65218   -1163.8383    6479.8153    11696.223    1847.4388 
  112700    298.81101   -1161.6187    6392.2183    11614.238    1911.3793 
  112800    300.07856   -1155.5325    6421.7212    11676.907     1874.704 
  112900    298.73233     -1158.18     6383.015    11606.793    1900.2333 
  113000    302.45094   -1162.2656    6283.0993    11582.234    1858.0715 
  113100    299.03102   -1158.5668     6470.472    11700.244    1847.9274 
  113200    299.29011   -1166.0369     6485.208    11713.045    1852.5016 
  113300    298.23274   -1170.4792    6449.5329    11650.339    1863.7096 
  113400    298.98397   -1172.5652    6343.7898    11558.558    1910.4136 
  113500    306.88272   -1167.8272    6363.5657    11751.817    1921.8014 
  113600    301.20824   -1160.3826    6444.0235    11718.493    1946.6676 
  113700    296.48152   -1161.6947    6355.1815     11527.36     1896.782 
  113800    300.16004   -1162.7618     6431.097    11680.794    1993.6912 
  113900    299.13925   -1155.4672    6331.9341    11567.118    1896.4282 
  114000    304.03678    -1156.941    6354.9328    11693.271    1945.7063 
  114100     295.8934   -1155.9909    6421.2774    11586.595    1944.6911 
  114200    305.19158   -1164.8064    6410.8834    11766.027    1850.3646 
  114300    296.60384   -1170.1355    6484.4908    11650.841    1830.7084 
  114400    303.06203   -1166.9521    6450.7061    11758.209    1852.9331 
  114500    300.20625   -1167.0496    6410.4813    11656.878     1833.551 
  114600    301.23211   -1161.4858    6432.5096    11706.386    1842.9145 
  114700    298.88752   -1157.4415     6419.674    11647.506     1963.979 
  114800    302.58986    -1157.833    6378.2601    11684.795    1936.3739 
  114900    299.15311   -1162.1008    6392.3063    11621.153    1934.1696 
  115000    300.61133   -1162.5416    6363.0302    11622.589    1908.1474 
  115100    299.81524   -1160.8889    6422.8873    11667.091    1921.5922 
  115200    296.50828     -1168.08    6504.3234    11670.688    1897.5381 
  115300    297.28592   -1165.7659    6407.3838    11592.676    1830.7372 
  115400    302.81152   -1166.6809    6429.0241    11731.447    1880.1379 
  115500    306.51298   -1165.2561    6421.5318    11804.455    1895.7301 
  115600    305.20207   -1161.3801    6492.4314    11851.225    1943.5918 
  115700    297.92957   -1164.5188    6439.9242    11640.214    1920.4146 
  115800    303.71907   -1158.9113    6391.7679    11721.348    1915.7898 
  115900    301.88409   -1155.7706    6450.4554    11743.975    1941.1548 
  116000    298.74385   -1164.9323     6337.712    11554.984    1928.2517 
  116100    301.03576   -1164.0914    6364.5804    11631.656    1885.3566 
  116200    299.84337   -1166.2081    6443.6482    11683.134    1850.7654 
  116300    300.90868   -1171.8059    6514.8718    11771.518    1929.1565 
  116400    302.26697   -1166.1668    6439.1447    11730.448    1901.0896 
  116500    300.43039   -1167.4829    6366.7312    11617.483    1904.6639 
  116600    298.81355   -1168.2501    6348.1647    11563.607    1901.5412 
  116700    297.99292   -1166.2673    6445.9416    11645.836    1924.5496 
  116800    302.02917   -1160.1596    6464.7152    11756.945    1894.6786 
  116900    296.03469   -1158.0286    6433.6051    11599.903    1881.8274 
  117000     303.6102   -1164.3132    6411.2115    11733.064    1899.4158 
  117100    299.91381   -1166.4829     6384.236    11624.952    1895.3703 
  117200    293.49393   -1168.3834    6499.0424    11600.706    1917.8956 
  117300    294.62555   -1166.6879    6487.4827    11615.018    1901.5033 
  117400    302.77196   -1162.9862    6525.0972    11830.369    1889.4492 
  117500    297.99523   -1167.3313     6382.547    11581.427     1846.566 
  117600    305.04941   -1162.4648    6428.0184    11782.466    1937.2143 
  117700    304.00445   -1156.6224    6355.5407    11693.507    1888.7622 
  117800    299.09633   -1157.2806    6351.6999    11584.153    1903.0218 
  117900    298.80862    -1164.882    6497.6348    11716.341    1998.5855 
  118000    302.44553   -1160.3129    6446.1923    11747.164    1945.1901 
  118100    297.88455   -1169.8452    6387.9999    11582.001    1853.1242 
  118200    303.95729   -1170.9383    6463.2947    11785.938    1890.3459 
  118300    300.20255   -1163.6235    6593.2276    11842.971    1910.6347 
  118400    301.07177   -1164.6152    6332.0733    11599.394    1788.7213 
  118500    297.70754   -1160.8053    6413.6756    11612.935    1852.4121 
  118600    300.16457   -1168.6449    6440.8266    11684.737     1855.814 
  118700    298.81245   -1159.5915    6488.0717     11712.15    1860.0275 
  118800    304.46964   -1161.3431    6435.6069     11778.79    1872.2395 
  118900    303.35179   -1157.2233    6367.5362    11690.958     1876.277 
  119000      300.228   -1162.4268    6423.7432    11675.227    1901.9414 
  119100     294.7794   -1166.2144      6469.23    11600.525    1867.2021 
  119200    300.78315   -1166.5195    6450.2838    11709.535    1904.9964 
  119300    300.44834    -1168.058    6325.9729    11576.533    1822.5232 
  119400    300.44847   -1168.4948    6382.2864    11632.412    1824.3367 
  119500    296.99245   -1165.9171     6566.418    11745.289    1921.0341 
  119600    301.75082   -1167.1653    6431.4905    11710.768    1857.1908 
  119700    296.45473   -1163.2499    6360.7012    11530.752    1792.4499 
  119800    298.23043   -1164.4948    6356.5467    11563.287    1898.7435 
  119900    304.40289    -1167.577    6393.2423    11728.766    2017.5157 
  120000    299.67708   -1165.0902    6441.2775    11678.328    1861.8864 
  120100    302.05272   -1163.7781    6503.6708    11792.786     1867.307 
  120200    300.44648   -1167.0731    6398.6999    11650.205    1839.3626 
  120300    303.18502   -1173.3473    6410.1784    11713.914    1844.5832 
  120400    300.68041   -1173.3755     6398.846    11649.046    1770.1529 
  120500     303.1263   -1170.8859    6507.4908    11812.433    1912.2413 
  120600    297.66073   -1167.9491    6341.7877    11532.903    1841.4658 
  120700     300.4131   -1157.3421    6416.5472     11677.07    1830.5267 
  120800    299.94618    -1157.318    6507.5642    11758.136    1913.5459 
  120900    300.97551   -1161.9187    6398.5173    11666.479    1864.0172 
  121000    302.95595   -1156.9872    6399.0821    11714.284    1845.9937 
  121100    297.88909   -1166.3782    6448.3138    11645.879    1891.3815 
  121200    301.05612   -1167.3969    6416.3973    11680.602     1882.761 
  121300      302.691   -1161.9343     6426.844    11731.438    1857.4339 
  121400    297.54453   -1163.3319    6394.3068    11587.557     1788.819 
  121500    302.83099   -1159.5791    6444.7185    11754.659    1898.4956 
  121600    300.26614    -1160.542    6442.7072    11696.891     1879.688 
  121700     298.8474   -1158.8963    6331.9901     11557.51    1823.2901 
  121800    295.52155   -1159.9599    6379.9192    11533.324    1870.0914 
  121900    301.79617   -1153.2639    6537.7695    11831.918    1950.6579 
  122000    300.09347   -1163.2305    6448.6631    11696.469    1851.9116 
  122100    298.93002     -1162.87    6398.6095    11621.921    1908.0044 
  122200    298.70077   -1162.5417     6336.687    11555.429    1885.3179 
  122300    297.34829   -1165.4473    6448.4086    11635.351    1867.1576 
  122400    304.25014   -1166.0087    6542.7649    11876.594    1933.7966 
  122500    298.15063   -1156.8769    6456.1356    11668.789    1829.3899 
  122600    296.67934   -1159.0354    6347.1021    11526.166    1810.0429 
  122700    301.29628   -1161.3845    6410.1535    11685.502    1819.5469 
  122800    297.22722   -1159.5842    6483.4383    11673.657     1892.827 
  122900    300.13844   -1162.5325    6387.3523    11636.817    1924.0454 
  123000    296.62512   -1167.1381    6349.4931    11519.296     1885.973 
  123100    302.01993   -1163.1883    6455.5228    11744.527    1912.8458 
  123200    295.02588   -1168.2814    6456.3268    11590.821    1842.6244 
  123300    301.77814   -1164.5941    6410.7992    11693.232    1911.6793 
  123400    298.50233   -1166.5753     6389.992    11600.461    1905.8909 
  123500     302.2538   -1167.4208    6470.7795    11760.547    1860.1957 
  123600    296.75293   -1169.2957    6337.3927    11507.768    1752.2479 
  123700    303.38197    -1169.833    6423.1938    11734.651    1803.0353 
  123800    299.46702   -1163.8018    6366.8319    11600.683    1853.1715 
  123900    303.14641   -1157.3791    6344.8186    11663.697    1855.7398 
  124000    300.05718    -1165.805    6465.3272    11709.783    1963.5306 
  124100    298.86943   -1159.0771    6450.8408     11676.65    1874.6616 
  124200    303.73319   -1165.4771    6388.5364    11711.853     1834.864 
  124300    299.50668   -1166.6511      6538.04     11769.89     1934.627 
  124400    301.00987   -1169.7895    6320.6711    11581.496    1802.7652 
  124500    298.86737   -1169.4022    6441.3455    11656.786    1799.9589 
  124600    298.92683   -1166.5093    6445.5271    11665.131    1817.5204 
  124700    297.00485   -1159.5073    6453.1648     11638.71    1798.6401 
  124800     300.6803   -1158.5655    6420.8352    11685.843     1765.134 
  124900    302.01676   -1155.9579    6466.5271    11762.694    1905.4822 
  125000    298.10117   -1164.7753    6367.9218    11571.621    1888.8388 
  125100    296.36225   -1160.4612    6398.2427    11569.106    1807.2652 
  125200    300.69446   -1161.1697    6394.1946    11656.901    1827.1786 
  125300    291.75516   -1161.2748    6460.5013    11532.128    1858.1126 
  125400    303.02324   -1163.5982    6468.5165    11778.545    1830.7916 
  125500    296.96157    -1160.217    6394.3729    11578.284    1866.3615 
  125600    301.35224   -1162.5866    6383.2349    11658.576    1938.2499 
  125700    293.86032   -1162.4185    6461.2124    11576.669    1847.6737 
  125800    298.20389   -1165.4934    6435.4672    11640.642    1836.3043 
  125900     305.3428   -1166.1624    6456.2098    11813.228    1881.8636 
  126000    296.51167   -1160.1495     6347.961    11522.328    1808.8933 
  126100    301.26485   -1162.5753    6375.6228    11649.109    1851.4875 
  126200    294.34069   -1162.6243    6387.1205    11512.633    1880.5204 
  126300    302.82926   -1159.3858      6468.14    11778.237    1920.6262 
  126400    301.77766   -1162.8074    6477.4723    11761.682    1937.0514 
  126500    302.33096   -1166.1324    6357.3232    11650.028    1841.3637 
  126600    294.40854   -1169.6391    6483.2196    11603.167    1862.5247 
  126700    299.25991   -1166.8355    6311.1835    11537.577    1814.4145 
  126800     301.6433   -1165.1254    6405.7573    11684.778    1936.4781 
  126900    301.31626   -1160.0208    6504.8372    11781.976     1892.186 
  127000    298.26469   -1165.6738    6456.6413    11662.935    1887.9247 
  127100    303.39447   -1167.9914    6289.0048    11602.571    1856.9278 
  127200    291.34125   -1164.5607    6440.1251    11499.623    1850.3218 
  127300    308.71773   -1164.0009    6425.7672    11857.047    1855.6081 
  127400    297.76123   -1168.4297    6471.9487    11664.731    1857.0829 
  127500    300.19709   -1161.1757    6373.2801    11625.355    1849.3168 
  127600    304.08212   -1159.6606    6381.1914    11717.779      1901.52 
  127700    294.51602   -1165.2047    6407.0745    11533.753    1886.4916 
  127800    304.77431   -1164.0025    6424.7892    11771.822    1878.5083 
  127900    302.72546     -1157.43    6488.1504    11797.985    1916.3831 
  128000    297.07524   -1164.2428    6403.9178    11586.232      1898.06 
  128100     300.8798   -1168.2826    6469.8908    11729.444    1968.1774 
  128200    299.17204   -1165.7943    6346.7912    11572.348    1887.8038 
  128300    299.06117   -1159.7007    6367.7067    11596.989    1871.9706 
  128400    296.84655   -1159.8606    6526.3958    11708.206     1912.143 
  128500    305.34084   -1160.6815    6368.1388    11730.596    1878.4889 
  128600    297.43664   -1163.1262    6377.3223    11568.473    1887.7632 
  128700    293.65171   -1162.9848    6416.1413    11526.575    1848.2537 
  128800    301.48868   -1165.5103    6384.4159    11659.749    1908.5383 
  128900     300.8859   -1159.8562    6462.7129    11730.822    1952.4131 
  129000    295.56157   -1164.5244     6376.994    11526.689    1895.4293 
  129100    296.31903   -1158.1362    6473.0453     11645.31    1932.0191 
  129200    300.76922   -1166.5674     6388.185     11647.09    1840.1474 
  129300    298.97048   -1156.0479      6435.99    11666.988     1883.596 
  129400    299.42801   -1162.7088    6314.4485     11548.56    1853.7238 
  129500    298.69835   -1164.1995     6420.221    11637.253    1839.2342 
  129600    302.64265   -1161.6388    6503.9574    11807.814    1862.5554 
  129700    298.22201   -1160.3417     6440.325    11651.039    1924.4582 
  129800    299.45479   -1161.6417    6334.8101    11570.561    1907.6795 
  129900    303.91068    -1164.933    6475.3996    11803.052    1856.8034 
  130000    306.53226    -1162.458    6544.2689    11930.402    1914.2449 
  130100    302.71162   -1160.4244      6403.61    11710.155    1865.0171 
  130200    297.53302   -1162.3119    6368.7725    11562.797    1887.1861 
  130300    299.65344   -1162.0857    6462.8784    11702.429    1909.9774 
  130400     299.0859   -1153.3102    6519.3195    11755.521    1912.2008 
  130500    297.57051   -1159.0902    6441.9485    11639.996    1948.0098 
  130600    301.79682     -1160.09    6377.3565    11664.693    1925.6288 
  130700    293.27942   -1156.1484    6368.5344    11477.851    1867.9351 
  130800    297.84628   -1159.5653    6404.3647    11607.828    1856.9266 
  130900    304.37134   -1155.3327    6541.3949    11888.489     1872.867 
  131000      305.405   -1165.7325    6476.9414    11835.718    1896.3032 
  131100    297.72776   -1159.3021    6413.7902    11614.985    1936.3675 
  131200    302.70016   -1163.3563    6418.8627    11722.231    1893.4427 
  131300    296.70396   -1165.1021    6389.4693    11562.992    1910.2893 
  131400     303.1052   -1154.8667    6359.7595     11680.27    1963.9014 
  131500    299.07338   -1162.1084    6416.6458    11643.781    1910.7858 
  131600    301.24329   -1149.8232    6469.6027     11755.38    1903.7543 
  131700    299.17154   -1162.2981    6356.5383    11585.581    1894.3612 
  131800    299.83028   -1168.5429    6378.1459    11615.017    1852.9128 
  131900    299.05228   -1165.8124    6443.0865    11666.067    1934.4247 
  132000    301.98485   -1165.2417    6488.3674    11774.569    1944.2583 
  132100    302.66257   -1166.8631    6510.1164    11809.175    1949.7334 
  132200    299.57118    -1161.844    6475.5303    11713.565    1953.7834 
  132300    299.68378   -1167.2814    6319.9582    11554.961    1928.2406 
  132400    299.51878   -1169.8378    6360.2135    11589.135    1886.9415 
  132500    297.10305   -1165.9019    6499.1843    11680.433    1942.7023 
  132600    302.24859   -1167.0195    6454.4501    11744.508    1918.2852 
  132700    298.67659   -1164.6355    6368.4515    11584.583    1907.1778 
  132800    299.57574   -1166.3488    6408.9896    11642.617    1985.8326 
  132900    300.66278   -1163.2983    6403.1566    11663.057    1979.9147 
  133000    297.59979   -1157.3333    6515.4061    11715.836    1965.0452 
  133100    301.26014   -1161.5401    6384.2153    11658.636    1955.7388 
  133200    301.11127   -1164.3694    6349.8755    11618.286    1910.2187 
  133300    297.55798   -1157.4738     6516.463    11715.859    2013.6893 
  133400    301.40277   -1164.9839    6330.9466     11604.97    1916.5493 
  133500    296.97956   -1161.5329    6422.4972    11605.477    1891.5324 
  133600    299.41328   -1158.6923    6516.2106    11754.024     1914.043 
  133700    296.92327   -1160.9123    6500.2701    11682.668    1899.2358 
  133800    305.62084   -1159.5063    6452.6584    11822.272    1920.6203 
  133900     297.3099   -1162.0894    6349.4428    11538.923     1869.148 
  134000    293.20977   -1159.7893    6447.8937    11552.081    1932.8379 
  134100    304.76269   -1162.8769    6490.6584    11838.569    1964.0108 
  134200    300.24629   -1163.6226    6471.1093    11721.788    1937.1048 
  134300    301.11638   -1159.0769    6482.6315    11756.444    1948.9904 
  134400     299.4118   -1160.7504     6335.637     11571.36    1919.2389 
  134500    298.50632   -1160.7366    6403.1634    11619.556    1957.3026 
  134600    304.42421   -1155.7749    6400.8429    11748.624    1905.5221 
  134700    300.56471   -1157.2105    6562.0033    11825.897    1911.1206 
  134800    298.40149   -1161.1836    6428.8421    11642.548    1821.9856 
  134900    303.15792    -1160.231    6367.2755    11683.548    1857.9551 
  135000    299.54033   -1162.6357    6443.7479    11680.332    2003.9907 
  135100    299.50949   -1162.6154    6469.5904    11705.536    1994.3648 
  135200    300.52786   -1166.7541    6460.5327    11714.095    1956.2012 
  135300    301.83805   -1162.3241     6507.002    11792.985    1971.2287 
  135400     295.5236   -1168.2945    6385.1592    11530.273    1917.3126 
  135500     302.7364   -1162.8566    6370.5286    11675.171    1898.3389 
  135600    298.06259   -1165.0667    6426.0923    11628.675    1944.9123 
  135700    303.75129   -1163.8268    6459.2341    11784.588    1933.7936 
  135800    301.29587   -1162.1349    6420.6563    11695.245    1875.8633 
  135900    296.82689   -1165.1898    6381.4999    11557.561    1867.1855 
  136000     305.0697   -1173.1347    6456.4044    11800.616    1924.2145 
  136100    300.99469   -1166.2499    6410.2133    11674.253    1919.2979 
  136200    296.83645   -1162.4093    6377.4794    11556.525    1884.8003 
  136300    297.54006   -1162.7784    6394.8184    11588.527     1848.765 
  136400    302.46735   -1159.5908    6506.3451    11808.505    1923.4145 
  136500    298.26687   -1169.2797    6375.0298    11577.764    1860.7661 
  136600    303.28956   -1157.8431    6570.4508    11891.924    1978.1862 
  136700     300.9612   -1157.3842    6336.8507    11609.041     1870.182 
  136800    300.04432   -1158.8486    6413.9716     11665.11    1978.2079 
  136900     299.8986   -1160.7254    6406.4325    11652.581    1975.8356 
  137000    304.18738   -1156.0608     6402.405    11744.841    1945.5474 
  137100    300.21538   -1161.5248    6493.0436     11745.16    1991.3403 
  137200    302.79264   -1158.3167    6500.6161        11811    1973.5525 
  137300    297.81125   -1164.9174    6385.5857    11582.949    1915.8802 
  137400    305.69433   -1165.9831    6452.3482    11817.055     1879.584 
  137500    296.51179   -1165.0893     6568.691    11738.121     1968.731 
  137600     299.8308   -1161.7035    6447.0304    11690.752     1936.651 
  137700    299.45365   -1164.2038    6464.2359      11697.4    1887.8027 
  137800    305.24713   -1159.0541    6433.5055    11795.588    1934.3376 
  137900    300.85061   -1159.0374    6455.4426    11723.617    1954.7012 
  138000    303.16551   -1159.1102    6425.5697    11743.125    1866.3606 
  138100    295.56871   -1166.2456    6423.9673    11572.094    1910.5453 
  138200    307.00008   -1168.1112    6429.2918    11819.766    1950.2586 
  138300    303.38323   -1166.3257    6440.1588     11755.15    1912.0238 
  138400    293.04678   -1169.0145    6484.4777    11575.958    1907.3821 
  138500    302.00057   -1167.3809    6404.4703    11688.868    1912.5052 
  138600    299.72476   -1168.1618    6448.3013    11683.299    1964.9904 
  138700    300.09431   -1165.3099    6339.4486    11585.193     1867.438 
  138800    301.78051   -1159.8341    6463.2551    11750.499    1970.2105 
  138900    300.97117   -1164.1086    6386.5962    11652.275    1962.6287 
  139000    301.69097   -1163.4936    6313.0108    11594.682    1848.0621 
  139100    299.16583   -1162.2967    6515.0997    11744.022    1942.8509 
  139200    304.88963   -1167.4552    6455.9103    11801.954    1972.0502 
  139300    298.55063   -1165.6873    6429.3519    11641.741    1947.7125 
  139400    301.72492   -1168.3436    6377.2109    11654.757    1896.0072 
  139500    297.35691   -1159.8339    6418.3313    11611.072    1923.2641 
  139600    297.51614   -1167.2551    6498.2542    11686.975    1948.3553 
  139700    298.60582   -1158.3859    6476.8639    11697.733    1934.4978 
  139800    299.86667   -1158.4044    6350.8812    11598.668    1933.0585 
  139900    300.81175   -1159.2883    6432.9314    11700.025    1969.0115 
  140000    295.73129   -1159.8278    6502.0969    11660.114    1918.3735 
  140100    297.15395   -1160.8779    6414.0973    11601.458    1912.3111 
  140200     300.6188    -1163.245      6334.49    11593.505    1911.3585 
  140300    299.41292   -1162.8114    6485.6223    11719.309    1942.1234 
  140400    298.39147   -1163.1862    6609.4967    11820.986    1957.8399 
  140500    304.83978   -1160.4239    6436.1009    11788.111    1913.0045 
  140600    297.40064   -1157.1121    6408.7284    11605.125    1896.1149 
  140700    299.51023   -1156.0765    6373.1993    11615.699    1925.2584 
  140800    301.73046   -1156.4807    6468.0029     11757.53    1976.8017 
  140900     296.1869   -1163.3584    6476.7093     11640.93    1996.1752 
  141000    296.90342   -1166.2835    6331.0838    11507.686    1836.8213 
  141100    302.60044   -1167.2664    6497.6263    11794.954    1875.1297 
  141200    298.25968   -1164.5755     6506.901    11714.186    1880.5835 
  141300    300.27531   -1163.2175    6414.3854    11666.089    1914.5655 
  141400    299.43678   -1161.8466    6414.5192     11649.68    1978.5202 
  141500    291.82327   -1163.1648    6429.4151    11500.607    1957.2769 
  141600    303.26284   -1158.3827    6359.3851    11679.748    1922.8364 
  141700    299.58168   -1158.3016    6424.2561    11666.057    1972.0965 
  141800    299.97803   -1163.4977    6379.0794    11624.152    1933.1004 
  141900    297.82578   -1166.7968      6437.27    11633.064    1941.6641 
  142000    300.80309   -1165.1737    6447.4388    11708.462    1920.4964 
  142100    299.92251   -1174.4296    6426.5461    11659.501    1906.4388 
  142200     300.7784   -1171.8619    6367.3631     11621.17     1884.464 
  142300    302.95035   -1169.1659    6441.0016    11743.905    1927.8592 
  142400    299.16771   -1164.4889    6407.0705    11633.841    1904.5791 
  142500    298.62679   -1158.2228    6390.5174    11611.998    1939.0346 
  142600    304.74236   -1164.7213    6490.6505    11836.282    1958.5271 
  142700    297.57278   -1162.5256    6341.3379    11535.998    1857.9278 
  142800     302.8726   -1163.5044    6288.7611    11595.665    1919.2399 
  142900    298.02835   -1159.1337    6585.0334    11792.818     2029.682 
  143000    305.75648   -1164.5788    6512.2769    11879.716    1900.5442 
  143100    295.97358   -1166.4394    6365.8557    11522.438    1904.3725 
  143200    301.86287   -1164.3968    6280.4312    11564.871    1886.6475 
  143300     299.7438   -1161.4124    6503.4598    11745.614     1907.306 
  143400    292.82666   -1161.0764    6449.6437     11544.36    1892.2016 
  143500     302.1152   -1155.4016    6392.4626    11691.289    1931.9388 
  143600    297.45995   -1163.6716    6346.9317    11538.036    1856.4658 
  143700      299.258   -1162.5727    6376.1434    11606.759    1900.0725 
  143800    302.67931    -1156.866    6437.2289    11746.642    1923.6107 
  143900    296.42068   -1150.9578    6398.4516    11580.067    1865.6632 
  144000    301.12771    -1156.801    6481.2196     11757.55    1871.6954 
  144100    301.37378   -1163.4387    6349.6087    11624.558    1869.8251 
  144200    298.71859   -1165.1719    6453.4128    11669.905     1916.925 
  144300    298.47769    -1166.493     6486.937    11696.962    1885.7961 
  144400    298.32442   -1166.1278    6432.9683    11640.084    1837.1038 
  144500    305.69662   -1161.6163    6471.8055    11840.928    1882.4023 
  144600    299.13609   -1160.9989    6406.7024    11636.287    1913.2601 
  144700    300.27668   -1161.9572    6402.6701    11655.664    1936.0804 
  144800    299.69589   -1160.2729    6378.3345    11620.605    1914.3457 
  144900    299.39833   -1167.4377    6439.3794    11668.128    1927.9579 
  145000    303.36778   -1163.4987    6389.5436    11707.032    1830.5748 
  145100    298.78374   -1169.6905    6333.0154    11546.381    1808.6472 
  145200    301.67906    -1168.022     6474.506    11751.394      1939.54 
  145300    298.72613   -1167.0744    6439.9608    11654.712    1901.4926 
  145400    302.47579   -1170.5014    6381.1314    11672.561    1878.1149 
  145500      299.593   -1165.3704    6373.3858     11608.36    1865.6684 
  145600    291.08873   -1162.8535    6480.1803    11535.991    1837.4205 
  145700    299.78041   -1165.3619     6461.103     11700.09    1888.5056 
  145800    298.69422   -1168.2472     6343.963    11556.859    1891.0045 
  145900     300.8716    -1170.983     6418.223      11674.9    1897.8213 
  146000    305.10374   -1165.5077    6447.4358    11800.001    1891.5188 
  146100    299.98607   -1158.9126    6472.5987    11722.428    1904.1252 
  146200    300.59441   -1163.8258    6436.2177     11694.13    1900.0184 
  146300    299.16429   -1169.6567    6399.0722    11620.602     1857.191 
  146400    296.57661   -1165.5157    6396.5563    11566.945    1853.1244 
  146500    305.85784   -1162.0737    6442.0444    11814.154    1892.9416 
  146600    299.46829   -1164.5877    6458.0116    11691.104    1901.3627 
  146700    295.60124   -1163.8116    6356.1528    11507.408    1878.6785 
  146800    300.42843   -1158.2807    6416.1725    11676.084    1907.2784 
  146900    300.38397   -1158.9765    6543.0399    11801.306    1902.5515 
  147000    301.48169   -1157.3413    6389.5842    11672.937    1894.7738 
  147100    306.98376   -1161.7896    6256.8727     11653.32    1954.6099 
  147200    297.85185   -1157.3902    6464.2907    11670.048    1931.3919 
  147300    300.23828   -1158.5336    6531.9284    11787.525    1918.0036 
  147400    291.08309    -1162.503    6409.9139    11465.954    1899.2505 
  147500    302.14399   -1161.9784    6430.0414    11722.906    1971.6638 
  147600    299.59907   -1160.7716    6460.8077     11700.51    1902.3155 
  147700    291.34333   -1162.1139    6498.5326    11560.522    1871.1332 
  147800    301.93291   -1158.8491    6470.7692    11762.253    1855.2547 
  147900    300.67582   -1158.1593    6469.7851    11735.103    1899.2972 
  148000    300.09126   -1152.3544    6328.2336    11586.869    1901.9413 
  148100    304.10698   -1161.6125    6375.2049    11710.371    1928.1968 
  148200    297.69844   -1159.6826    6401.3522     11601.54    1919.8723 
  148300    303.35817   -1158.7356    6461.0151    11783.061    1921.2162 
  148400     299.2389   -1161.4389    6512.1919    11743.533    1893.8009 
  148500    296.70012   -1165.7204    6396.0846    11568.907    1918.9179 
  148600    305.85825     -1165.95    6424.1634    11792.406     1973.681 
  148700    298.25985     -1166.59    6411.4141    11616.688    1874.2323 
  148800    295.03304   -1169.0866    6440.4977    11574.339    1860.0695 
  148900    295.95403    -1170.164    6514.8666    11667.306    1910.4953 
  149000    300.28107   -1171.0744    6454.3968    11698.367    1960.7706 
  149100    301.00887    -1163.474    6313.6632    11580.782    1903.6987 
  149200    297.82577   -1164.3764    6409.7682    11607.982    1929.6319 
  149300    301.31649   -1161.5255    6540.2191    11815.858     1906.014 
  149400    296.94117   -1163.6769    6495.9327    11675.948    1821.2439 
  149500    302.89847   -1169.3581    6327.7816    11629.385    1888.1939 
  149600    300.64638   -1167.9569    6420.3948    11675.286    2001.3515 
  149700    298.78582   -1164.9339    6437.9973    11656.164    1851.2745 
  149800    297.65131    -1168.802    6364.0429    11554.105    1830.9593 
  149900    299.94044    -1166.128    6519.8896    11761.529    1950.6649 
  150000    298.71687   -1162.4289    6334.2315     11553.43    1770.0768 
  150100    302.65204    -1163.896    6437.6963    11739.497    1853.3101 
  150200    299.84612   -1155.9304    6480.0893    11729.911    1970.6239 
  150300    297.49644   -1164.8282     6338.985    11529.712    1883.9385 
  150400    304.85943   -1166.4216    6369.7919    11716.224    1848.5106 
  150500    294.74498   -1164.9986    6593.4898    11725.265    1930.0982 
  150600    306.24662   -1167.2119    6540.5827     11915.86    1963.9291 
  150700    301.24403   -1165.0608    6241.8503    11512.406    1865.1134 
  150800    299.16963   -1164.6996    6409.9117    11636.512    1955.4269 
  150900     302.7964   -1158.5554    6577.8193    11888.044    1921.4886 
  151000    299.28461   -1162.5265    6414.3829    11645.613      1806.07 
  151100    297.90446   -1162.6073    6404.4099    11606.074    1924.7613 
  151200    303.87741   -1158.4779    6385.9439    11719.341    1973.6061 
  151300    299.20778   -1161.5762    6394.9631    11625.502    1909.2179 
  151400    300.23387   -1160.9445    6445.9586     11699.05    1943.0072 
  151500    298.41722   -1163.7272    6487.6413     11699.14     1993.596 
  151600    300.48669   -1164.5889    6322.4287    11577.277    1874.5503 
  151700    302.11311   -1168.0943    6392.6635    11678.752    1911.4483 
  151800    298.96331   -1168.3793    6478.6684    11697.181    1919.4196 
  151900    298.69031   -1164.7289    6412.8862    11629.217     1898.747 
  152000    302.54964   -1169.7308    6375.4907    11669.269    1863.7981 
  152100    298.29571   -1163.5758    6498.4004    11707.455    1911.9095 
  152200    298.78808   -1167.9145    6364.5849    11579.819    1896.3622 
  152300    299.02999   -1163.4819    6498.9004    11723.736    1943.7855 
  152400     294.1056   -1163.8014    6417.4025    11536.716    1832.6488 
  152500    302.95496   -1161.7075    6458.7775    11769.238    1906.7737 
  152600    300.68077   -1167.7786     6496.851    11752.656    1870.6392 
  152700    292.62013    -1165.709    6392.9117    11478.583    1795.2902 
  152800    297.93183   -1166.8067    6326.1266    11524.176    1861.2288 
  152900    303.41063   -1169.9413    6501.5385      11813.5    2017.5439 
  153000    297.47342   -1165.7132    6402.4617    11591.812    1940.2311 
  153100    300.95836   -1163.5315    6426.1025    11692.085    1879.4842 
  153200    300.58362   -1161.6556    6444.9012    11704.754    1876.9297 
  153300    307.39453   -1171.7204    6458.2126    11853.505      1833.87 
  153400    295.41132   -1167.7598    6343.8983    11487.148    1831.5153 
  153500    300.87971   -1165.7707    6435.0823    11697.145    1914.3176 
  153600    298.44686   -1164.9968    6441.6194    11652.482      1896.35 
  153700    306.43298   -1163.8951    6405.1314    11787.707    1908.0979 
  153800    298.18614   -1164.0058    6432.8716    11639.155     1963.022 
  153900    300.02499   -1165.3894    6391.5312    11635.715    1975.3085 
  154000    300.22239   -1167.9969    6338.8307    11584.625    1888.6679 
  154100    298.38668    -1165.149    6462.9453     11672.37    1922.3419 
  154200    301.09352    -1165.583    6435.8754    11702.694    1954.8725 
  154300    299.02646   -1167.0321    6378.4512     11599.66    1924.1621 
  154400    307.36777   -1162.0848    6367.8735    11772.229    1975.4031 
  154500     302.0929   -1160.6765     6529.305     11822.38    2038.4753 
  154600    300.36163   -1163.9838     6406.139    11658.921    1859.1771 
  154700    299.46711   -1167.6525     6451.212    11681.215     1897.707 
  154800    296.33872   -1172.7137    6368.9334    11527.042    1891.0924 
  154900    297.89427   -1165.8248    6366.7042    11564.933    1897.3176 
  155000    300.12991   -1162.6959    6419.1192    11668.238    1917.8835 
  155100    310.65485   -1168.5719    6405.3982    11873.491     1953.053 
  155200    299.02471   -1171.3331    6423.3904    11640.261    1894.6797 
  155300    296.62506   -1164.4575    6473.3411    11645.823    1869.4101 
  155400    300.15918    -1172.444    6357.5746    11597.571    1903.9809 
  155500    299.54542   -1168.7764    6386.6363    11617.188    1860.7029 
  155600    302.60338   -1170.5768    6499.1768    11793.257    1938.5861 
  155700     296.9058   -1170.8276    6359.2519    11531.361    1859.2083 
  155800    301.67537   -1168.6628    6391.5932    11667.762     1924.841 
  155900    300.94634   -1171.8422    6490.9425    11748.357     1903.963 
  156000    300.86695    -1165.213    6388.2902    11650.638    1904.5874 
  156100    299.63798   -1165.0568    6375.5513      11611.8     1870.291 
  156200     302.8968   -1171.9563    6474.4626    11773.432    1894.5186 
  156300    306.38481   -1168.2835    6418.4076    11795.565    1941.9597 
  156400    296.46796   -1163.4365    6432.8102    11602.957    1901.9717 
  156500    298.48547   -1162.9644    6492.7916    11706.511    1907.7022 
  156600    299.54508   -1162.9309    6302.9382    11539.328    1823.1696 
  156700    296.01037   -1163.9691    6423.9615      11583.8    1866.4371 
  156800    303.50965   -1164.7307    6452.8974    11772.185    1854.8525 
  156900    296.35054   -1160.8908    6386.8452    11557.029    1826.0047 
  157000    299.75671   -1168.4667    6388.3838    11623.759    1835.9927 
  157100     302.8147   -1166.8868    6446.6305    11748.915    1855.6455 
  157200    300.31066   -1165.0708    6448.2949    11698.901    1896.4325 
  157300    300.43295   -1164.9375    6382.5192    11635.871    1861.3652 
  157400    299.77682   -1164.0387    6374.4931    11614.726    1885.7524 
  157500    304.95698   -1164.6749    6504.6388    11854.902    1920.8822 
  157600    300.13069   -1159.6296    6499.2754    11751.477    1932.0852 
  157700     300.2766   -1160.3206    6348.2566    11602.885    1917.3836 
  157800    298.68384   -1165.9171    6322.0609    11537.066    1866.4804 
  157900    306.23878   -1164.4241    6468.0506    11845.948    1885.5041 
  158000     294.9826   -1166.7828       6455.7    11590.768    1838.4525 
  158100    302.87325   -1165.6182    6365.1161     11669.92    1849.3116 
  158200    298.80925   -1164.9665    6401.2836    11619.918    1894.5999 
  158300    300.14082   -1167.4947     6525.879    11770.432     1938.844 
  158400    301.52293   -1167.6909    6410.0058     11683.89    1797.2767 
  158500    300.80827   -1167.3265    6512.6942    11771.675    1892.9091 
  158600    301.07055   -1167.3359    6388.3339    11652.908     1908.587 
  158700    300.87904   -1166.5126    6431.7956    11693.102    1927.9089 
  158800    294.67096   -1166.3318    6447.0876    11575.949    1935.8801 
  158900    295.89428   -1163.5099    6482.6469    11640.464    1998.9563 
  159000    304.16853    -1160.257    6444.9867    11782.824    1973.2865 
  159100    297.91289    -1167.407     6255.356    11452.401    1858.5971 
  159200     301.1479   -1165.3321    6456.1304    11724.361    1994.0202 
  159300    300.14663   -1172.2161    6544.0353    11783.991    1931.2511 
  159400    300.77231   -1162.7701    6495.6202    11758.389    1894.4989 
  159500    296.99077   -1163.7944    6318.7192    11499.677    1932.4898 
  159600    300.67795   -1166.1213     6408.578     11665.98    1957.8262 
  159700    298.08854   -1161.5776     6527.918    11734.545    1958.0071 
  159800    299.32386    -1164.973     6358.682    11588.304    1968.5286 
  159900    300.77254   -1164.5673    6369.4339     11630.41    2001.6893 
  160000    298.13941   -1158.7152     6446.131    11656.707    1916.4619 
  160100     298.3433   -1163.3326    6463.4321    11673.746    1886.4703 
  160200    307.27105   -1163.1937    6394.7572    11795.938    1983.0734 
  160300    298.88078   -1161.5168    6447.1612    11670.774    1980.4856 
  160400    300.77544   -1163.3438    6375.9391    11638.201    1934.0435 
  160500    302.59567   -1167.6799    6401.9482    11698.761    1929.5292 
  160600    298.93193   -1162.4073    6555.3209    11779.136    1928.4372 
  160700    300.58554   -1165.8507    6418.9046    11674.603    1876.2214 
  160800     296.8873   -1163.8224    6335.1522    11513.871     1893.235 
  160900    308.40943   -1162.5525    6493.4662    11919.608     1996.082 
  161000     297.2386    -1160.423    6460.0988    11649.722    1876.4634 
  161100    300.21709    -1160.545    6434.7756    11687.908    1962.8953 
  161200     299.3019   -1163.3078    6317.6218     11548.44    1921.9252 
  161300    303.67991   -1164.1064    6519.7886    11843.338    1963.3655 
  161400    296.70127   -1162.2995    6493.6255    11669.893    2007.7947 
  161500    302.69799   -1166.8792    6349.9339    11649.733    2009.5929 
  161600    297.19843   -1167.0596    6445.4499    11627.579    1993.8063 
  161700    298.26018   -1166.5386    6466.3454    11671.678    1996.0892 
  161800    299.97365   -1166.0258    6385.2557    11627.707    1949.4254 
  161900    303.39805   -1163.7169    6357.8314    11675.748    1940.3373 
  162000    298.25228   -1168.1906    6464.6566    11668.168    1948.8979 
  162100    300.33194   -1169.3863    6501.9806    11748.725    1959.9501 
  162200    301.23321   -1169.3352     6453.132    11719.182    1891.2223 
  162300    305.79385   -1160.6506    6393.6597    11765.825    1831.9819 
  162400    297.21386   -1169.2092    6443.1742    11623.483    1908.2735 
  162500    299.69649   -1166.0773     6503.534    11740.012    2000.7756 
  162600    302.23335   -1160.9193     6383.277    11679.109     1913.652 
  162700    296.85754   -1162.9155    6380.2809    11559.271    1935.2976 
  162800    301.14929    -1165.272    6439.7114    11708.032    1941.9264 
  162900    299.87992   -1163.6825    6510.6682     11753.46    1962.6835 
  163000    297.67029   -1161.6105    6487.9572    11685.616    1939.0475 
  163100    300.08732   -1167.4172    6418.3772    11661.865     1896.334 
  163200    301.64682   -1159.6809    6311.2396     11595.78    1804.0799 
  163300    299.40462   -1167.5467    6517.1198    11745.893    1962.4389 
  163400    302.00535   -1165.4059    6519.4401    11805.915    1926.7854 
  163500    295.96291   -1166.0601    6318.8076    11475.541    1856.1374 
  163600    302.67815   -1156.2508    6410.8289    11720.832    1933.1073 
  163700    294.52372   -1161.3109    6393.7931     11524.53     1879.439 
  163800    300.37091   -1164.7581    6487.9203    11740.126    1904.2272 
  163900    300.47271   -1162.4562    6413.3135    11669.996     1886.679 
  164000    299.23502   -1165.0457    6494.5198    11722.171    2006.5901 
  164100    302.67982   -1169.4979    6399.6168    11696.409    1952.8739 
  164200    297.90528   -1162.6057    6398.9676    11600.651    1886.4433 
  164300    296.13954   -1160.9964    6373.8122    11539.383    1951.2838 
  164400    305.69176     -1158.58    6435.1217    11807.177    1930.3284 
  164500    299.32592   -1160.1856      6434.08    11668.533     1832.442 
  164600      300.436   -1162.5855    6472.7506    11728.519    1894.2579 
  164700    298.73367   -1163.9583    6330.2344    11548.262    1896.1727 
  164800    300.77859   -1162.3632    6459.7259    11723.036    1895.7975 
  164900     299.0424   -1163.2789    6580.3437    11805.647    1957.8264 
  165000    298.48546   -1163.4059    6360.5811    11573.859    1869.9109 
  165100    306.02882   -1161.3341    6295.6219    11672.124    1854.4007 
  165200    296.96382   -1158.2265    6508.4732    11694.423    1898.1092 
  165300    301.02659   -1161.3413     6507.381    11777.011    1938.0404 
  165400    298.95918   -1157.0726    6421.4836    11651.215    1905.2541 
  165500    300.45889   -1158.7486     6422.383    11682.478     1920.723 
  165600    303.16749   -1164.0341    6473.2584    11785.933    1973.0576 
  165700    297.53654   -1163.9525    6316.9057    11509.365    1850.6311 
  165800    305.08799   -1164.6974    6401.0938    11754.133    1893.8001 
  165900    295.95628   -1163.6545    6467.7333     11626.73     1943.604 
  166000    301.83934   -1160.2484    6444.3711    11732.457    1852.2878 
  166100    304.09668     -1162.48    6473.5169    11807.596    1929.7905 
  166200    297.01482   -1161.5581     6405.451    11589.159    1960.0603 
  166300    303.97578   -1163.1404    6362.8397    11693.675    1970.9021 
  166400    302.88779   -1160.4611    6345.0504    11655.322    1934.9883 
  166500    295.83529   -1164.1632    6405.5989    11561.503    1938.0498 
  166600     298.8371   -1159.9874    6519.2527    11743.461    1951.5675 
  166700    297.27856   -1164.4934    6360.4312    11546.838    1847.7372 
  166800    302.16596   -1171.8327     6378.449    11661.928    1922.2586 
  166900    299.49949   -1164.1392    6468.6638    11702.872    1896.1947 
  167000    298.70391   -1169.3125    6431.2279    11643.266    1862.5833 
  167100    295.03833   -1166.6132     6447.431    11583.859    1932.6557 
  167200    303.66453   -1168.2433    6279.8736    11598.957    1887.5567 
  167300    298.05715   -1155.9921    6424.8537    11636.395    1941.9483 
  167400    296.73304   -1166.1688    6485.9149    11658.992    1986.6384 
  167500    299.36006   -1167.5968     6298.964    11526.736    1904.8794 
  167600    300.44726   -1167.0209    6437.6842    11689.258    1947.5115 
  167700    296.88914   -1164.2069    6401.7208    11580.095    1884.7487 
  167800    300.31358   -1162.6726    6481.4294    11734.496    1975.4243 
  167900     296.4672   -1160.7063     6397.721    11570.582    1935.3181 
  168000    301.33278   -1168.7277    6381.0612    11649.846    1885.9561 
  168100    305.05373   -1164.6675    6457.4753    11809.813    1913.1828 
  168200     301.5386    -1163.777    6459.2134    11737.346    1902.9303 
  168300    298.21329   -1160.1232     6295.118    11505.864    1843.2767 
  168400    296.22138   -1161.7992    6442.3615    11608.878    1909.2993 
  168500    301.45856   -1159.7813    6504.3712     11784.79     1930.647 
  168600    297.73333   -1155.9566    6418.9499    11623.609    1889.8506 
  168700    301.48046   -1165.6611    6336.0932      11611.1     1935.009 
  168800    298.48515   -1160.3489    6428.7245    11645.053    1964.5406 
  168900    299.09098   -1155.0095    6531.4257    11766.036    1924.3953 
  169000    301.34291   -1163.4946    6480.2546    11754.489    1924.7987 
  169100    298.00437   -1157.9561    6286.9408    11495.391    1873.1093 
  169200     298.1985   -1158.3866     6383.941    11596.108    1895.1228 
  169300    297.35869   -1160.9373    6582.4813    11774.156    1952.9675 
  169400    299.57659   -1156.9588    6471.8166    11714.852    1930.7617 
  169500    300.93735   -1163.5721    6370.7938    11636.287     1937.773 
  169600    298.27122   -1165.4011    6357.4749    11564.181    1890.7875 
  169700    302.79506   -1160.5083      6646.94    11955.184    2013.0698 
  169800     295.9917   -1165.4703    6415.5527    11573.491    1934.4482 
  169900    303.56184   -1163.9647    6306.0414     11627.21     1927.359 
  170000    298.48985   -1166.4109     6377.116    11587.483    1897.4008 
  170100    306.85357   -1171.7062    6453.4948    11837.244    1927.3581 
  170200    298.59089   -1168.5973    6507.5952    11717.934    1887.8833 
  170300    299.72208   -1169.2017    6447.9262    11681.827    1905.6155 
  170400    303.72925   -1173.8421    6394.7431     11709.61    2019.8458 
  170500    297.42683   -1164.2812    6313.6715    11503.458    1918.0188 
  170600     301.9411   -1158.8341    6518.2275    11809.902    1978.2673 
  170700    300.57871    -1165.771    6353.3697    11609.002    1905.6444 
  170800    300.13412   -1170.6102    6403.1992    11644.494      1932.56 
  170900    297.39172   -1168.0321    6413.3303    11598.616     1936.314 
  171000    300.18091   -1165.9238    6408.8853    11655.866    1922.2484 
  171100    299.20088   -1173.2639    6514.0933    11732.797     1950.268 
  171200    299.68926   -1169.3559    6401.6023    11634.648    1913.3815 
  171300    299.57941   -1162.8076     6444.003     11681.25    1869.7963 
  171400    299.15645   -1163.3832    6403.4795    11631.115    1917.6074 
  171500    299.56972   -1158.1143    6327.6001    11569.333    1890.5434 
  171600    296.81576   -1164.9744    6427.3914     11603.43     1870.494 
  171700    300.46088    -1159.841    6490.7895    11749.834    1929.6068 
  171800    298.71314   -1162.9576     6471.897    11690.487    1886.7817 
  171900    302.13543   -1163.2987    6407.6629    11699.024    1833.4845 
  172000    297.27274   -1155.0738      6343.49    11539.192    1889.3696 
  172100    303.10279   -1154.6148    6405.2806    11725.992    1971.0795 
  172200    298.84586   -1158.5004    6492.7465    11718.629     1903.429 
  172300    294.55932   -1161.0135    6554.2267    11686.021    1926.7476 
  172400    303.59061   -1156.6121    6465.6739    11794.809    1887.0179 
  172500    302.01676    -1156.141    6433.4579    11729.442    1890.2881 
  172600    298.28608   -1154.6832    6497.7411    11715.482    1900.5839 
  172700    299.39631   -1163.1778    6387.1839    11620.149    1917.3139 
  172800    298.89076   -1159.9076    6380.6376    11606.073    1932.9316 
  172900    304.24053   -1163.1064    6482.1655    11818.691    1908.3049 
  173000    295.93818   -1162.3664    6454.7387    11614.638    1858.0527 
  173100    299.78075   -1163.7193      6371.22    11611.856    1887.1784 
  173200    299.50258   -1163.2783    6479.0611    11714.196    1949.4593 
  173300    298.98128   -1161.9848    6443.4878    11668.779    1849.5167 
  173400    300.98692   -1162.9587    6459.1584    11726.323    1943.1252 
  173500    298.36431   -1164.4043    6387.0864    11596.778    1938.6775 
  173600    297.33709   -1168.5308    6301.4077    11485.028    1900.0087 
  173700     303.2022   -1161.9901     6439.947    11755.407    1984.0382 
  173800    296.03748   -1174.6918    6502.9181    11652.613    1946.3485 
  173900    301.14931   -1172.2394    6451.0606    11712.414    1904.9925 
  174000    300.60988   -1173.9646    6381.3819    11629.486    1916.5636 
  174100    296.24718   -1171.6101    6411.3758    11568.632     1970.818 
  174200    302.80417    -1167.561    6448.1362    11749.522    1983.3251 
  174300     299.1457   -1168.2827    6429.5947    11652.101    1986.4451 
  174400    303.84945    -1166.631    6461.5574    11786.204     1969.933 
  174500    299.17991   -1166.8595     6493.854    11718.514    1954.7464 
  174600    301.69748    -1172.082    6294.1576    11567.379    1925.1503 
  174700    300.35302   -1168.9607    6427.7191     11675.34    1978.3191 
  174800    301.70472    -1176.087    6534.4159    11803.787    1942.1999 
  174900    302.33796   -1172.7444    6458.1352    11744.377    1957.8722 
  175000    293.93391    -1163.867    6361.4615    11477.041    1964.7979 
  175100    301.42822   -1163.5658    6439.7219    11715.708    1973.0397 
  175200    297.75845   -1159.9994    6442.0355    11643.189    1925.1643 
  175300    298.27759   -1153.7406    6290.4659    11508.968     1856.754 
  175400    299.94355     -1160.59    6483.4572    11730.701    1927.3987 
  175500    294.88273   -1158.7605    6458.3799    11599.336    1875.8993 
  175600    301.14546   -1162.7342    6370.6466    11641.423    1906.2459 
  175700    295.60927   -1165.7059    6446.0133    11595.546    1930.1067 
  175800    300.81646   -1161.4333       6391.3    11656.349    1790.9101 
  175900    305.90592   -1163.6051    6441.6304    11813.236    1848.3759 
  176000    294.85073   -1159.8643      6407.47    11546.639    1858.7672 
  176100    302.03597   -1158.5267    6283.4091    11577.418    1810.1671 
  176200    297.98602   -1162.1835    6567.6882    11771.519    1959.3652 
  176300    302.22705   -1165.1289    6473.0886    11764.577    1924.5985 
  176400    296.88679   -1163.8865    6468.5192    11647.164     1891.165 
  176500    297.62662   -1166.2326    6427.4173    11619.521    1887.2895 
  176600    306.75288   -1166.5903    6383.3026    11770.017    1929.3498 
  176700    300.86835   -1166.4402     6445.526    11706.676    1909.3637 
  176800    298.56136   -1168.8717    6418.0649    11627.499    1866.3674 
  176900    298.24537   -1167.0661    6322.7502    11527.239    1948.1919 
  177000    293.03292   -1162.0011     6374.863    11473.061    1911.6561 
  177100    306.67451   -1167.2047    6491.2563    11875.682    1937.2251 
  177200     294.0523   -1166.5487     6449.631    11565.059    1880.2024 
  177300     301.5108   -1170.2761    6290.4762    11561.516    1918.2808 
  177400    295.38895    -1171.895    6440.4489    11579.086    1914.1502 
  177500    301.05784   -1164.8147    6414.4561     11681.28    1839.2191 
  177600     300.2558   -1170.9146    6438.4411    11682.031    1863.6587 
  177700     293.8682   -1175.3359    6447.3224     11550.03    1858.9432 
  177800    294.82407   -1165.1522    6455.7819    11589.093    1935.7823 
  177900    302.07986    -1165.332    6354.4612    11642.602    1903.1496 
  178000    300.20853   -1163.3229     6404.268     11654.44    1866.5708 
  178100    302.28123   -1157.8293    6392.8052     11692.75    1881.8548 
  178200     301.9141   -1160.1981    6426.9833    11716.717     1877.608 
  178300    300.87519   -1165.3542    6439.3615    11701.744    1863.4223 
  178400    304.71699   -1164.2362    6442.2968    11787.872    1884.6181 
  178500    298.63666   -1164.8011    6458.0882    11673.201    1862.7219 
  178600    302.03124   -1163.3618    6336.4808    11625.553    1818.1282 
  178700    298.65648   -1160.5144    6465.7473     11685.57    1885.7984 
  178800    295.73099   -1158.4147     6629.214    11788.638    1868.4167 
  178900    303.43248   -1156.6159    6374.9975    11700.751    1833.1909 
  179000    298.35043   -1155.1683    6387.9291     11606.56    1908.4681 
  179100    300.00869   -1154.3344    6504.3576    11759.249    2006.1945 
  179200     301.5542    -1157.643    6356.3184    11640.918     1846.673 
  179300    298.21605   -1163.3914    6457.0363    11664.573    1957.6367 
  179400    294.60763   -1162.9219      6431.86    11562.778    1851.9955 
  179500    303.15415   -1163.7952    6383.0014    11695.629    1853.9421 
  179600     304.6576    -1168.321    6322.5042    11662.725    1908.5267 
  179700    296.24495   -1160.1053    6489.7885    11658.502    1966.5344 
  179800    302.60922   -1164.8947    6486.5456    11786.433    1916.3504 
  179900    300.56663   -1159.7135    6403.8944    11665.326    1903.1376 
  180000    304.50675   -1161.5763    6311.1677    11654.911     1905.086 
  180100    301.30184   -1165.1544    6468.0244    11739.721     1968.586 
  180200     297.6916   -1169.4565    6416.2103    11606.478     1871.261 
  180300    300.98399   -1169.7964     6473.734    11733.999    1919.5444 
  180400    300.35145   -1171.4638    6439.5348    11684.619    1929.8254 
  180500    303.30322   -1175.6495    6326.7694    11630.728    1887.5178 
  180600    300.74928   -1174.1611    6357.6908    11608.577    1896.1994 
  180700    298.25595   -1171.7606    6446.5425    11646.563    1869.9863 
  180800    295.44004   -1171.2044    6480.6387    11621.057    1909.6331 
  180900    302.58702   -1167.7002    6390.3241    11686.931     1941.157 
  181000    296.98875   -1170.3121    6334.2527     11508.65    1853.0201 
  181100    302.06716   -1166.6263    6444.7152     11731.29    1879.2327 
  181200    304.66039   -1166.3527    6413.6248    11755.874    1947.5069 
  181300    297.85927    -1171.239    6418.4785    11610.546    1914.8227 
  181400    303.43931   -1174.3026    6480.8481    11789.061    1952.2206 
  181500    297.08064   -1171.4575    6403.7666    11578.981     1920.173 
  181600    298.35048   -1164.2603    6377.8049    11587.345    1916.1144 
  181700    304.08442   -1162.3055    6421.3775    11755.369    1939.7036 
  181800    300.31545   -1160.4024     6401.875    11657.251    1927.5813 
  181900    296.79575   -1155.4719    6553.2256    11738.339    1962.0925 
  182000    299.97611   -1160.5064    6425.6512    11673.674    1903.7591 
  182100    301.61259   -1156.4762    6243.1437    11530.158    1808.6772 
  182200    301.13515   -1160.8295    6444.6889     11717.15    1887.5419 
  182300     298.5332   -1165.3733    6477.5949    11689.925    1813.1443 
  182400    301.80063    -1159.504    6519.5669     11807.57    1885.4261 
  182500    293.52168   -1165.1216    6435.6941    11541.213    1949.1726 
  182600     299.1152   -1158.6146    6356.9857    11588.508     1898.699 
  182700    303.73463   -1159.7989     6421.194    11750.219    1895.7958 
  182800    298.93471   -1155.1135    6556.9677    11788.136    1970.6126 
  182900    300.96626   -1154.9025    6355.7002     11630.48    1892.3912 
  183000    301.63779   -1156.6966    6477.9453    11765.277    1970.6491 
  183100    300.35987   -1159.3726    6481.8015    11739.157    1920.5893 
  183200    299.80637   -1161.1915    6404.1323    11647.844    1859.8676 
  183300    301.24313   -1162.2812    6414.8873    11688.203     1926.323 
  183400    298.82116   -1167.8516    6550.9817    11766.986    1977.8071 
  183500    295.68503   -1162.1865    6487.9744    11642.645    1860.2381 
  183600    299.72695   -1170.1674    6410.9255    11643.964    1948.4932 
  183700     301.5661   -1166.5188    6313.1981    11589.176    1903.2756 
  183800     295.7637   -1165.1408    6412.0274    11565.424    1888.7271 
  183900    299.32909   -1155.6321    6370.6509    11609.726    1855.8006 
  184000    298.39776   -1169.1642    6362.9692    11568.615    1869.3725 
  184100    293.87089   -1164.0744    6451.9487    11565.975    1897.0047 
  184200    300.23841   -1174.7246    6451.7197    11691.128    1950.7713 
  184300    296.66378   -1174.6768    6472.0709    11635.161     1974.957 
  184400    295.76325   -1172.6987    6375.0015    11520.831    1889.1571 
  184500    298.81622   -1163.7471    6540.2749    11760.278    1979.0232 
  184600    301.77463   -1172.0634    6497.5033    11772.392    1944.8049 
  184700    298.51116   -1169.7586    6462.9989    11670.473    1918.4611 
  184800    294.80651   -1167.9827    6367.8272    11497.933    1914.0896 
  184900    301.14844   -1165.0136    6435.3233    11703.884    1975.3574 
  185000    300.38609     -1160.32    6468.2557    11725.224    1953.7807 
  185100    297.84736   -1159.9651     6474.242    11677.329    1974.1115 
  185200    302.50849   -1165.3631    6391.9839     11689.25    1948.4911 
  185300    300.29341   -1169.5619    6347.9858    11593.732    1912.6499 
  185400      301.891   -1168.4966    6473.0262    11753.968     1941.524 
  185500    297.47383   -1166.0332    6441.1173    11630.156    1946.2535 
  185600    301.30554   -1167.5105    6370.3852    11639.805    1901.4401 
  185700    300.83355   -1162.6794     6429.476    11693.644     1937.662 
  185800    298.71122   -1164.4429    6432.6793    11649.743    1917.8394 
  185900    301.48851   -1159.3896    6407.8552    11689.305    1918.6914 
  186000    299.15449   -1165.5013    6507.9738    11733.449    1929.1725 
  186100    301.06415   -1162.4653    6331.3422     11600.65    1856.7613 
  186200     299.1837   -1162.5341     6449.021    11678.088    1887.1704 
  186300    305.32115   -1165.9104    6418.2508    11775.058    1882.2439 
  186400    301.09887   -1166.1026    6357.2825    11623.695    1883.1254 
  186500    298.55987   -1162.0246    6375.9264    11592.175    1862.8529 
  186600    305.71293   -1163.2992    6473.2271    11841.016    1949.8058 
  186700    296.76956   -1162.7276    6415.7231    11593.022    1878.6587 
  186800    303.70339   -1170.7446     6495.231    11812.643    1988.5019 
  186900    300.92959   -1168.4812    6376.0224     11636.44    1929.1713 
  187000    296.22134   -1165.8778    6272.8193    11435.256    1863.8659 
  187100    300.00233   -1166.9836    6545.4457    11787.552    1969.7132 
  187200    296.88323   -1168.9675     6429.298    11602.785    1797.5315 
  187300    303.22424   -1162.9734    6458.8016    11773.749    1930.2564 
  187400     293.5472   -1168.8678    6419.9617     11522.28     1951.591 
  187500    301.72761   -1170.6039    6399.3209    11674.664    1950.9528 
  187600    303.87691   -1171.5476    6367.1771    11687.493    1917.5611 
  187700    304.79655   -1168.6334     6350.014    11692.891    1904.4826 
  187800    297.06807   -1163.8286    6389.8863    11572.461    1828.8661 
  187900    305.15157   -1160.1098    6446.6998    11805.685    1960.2398 
  188000    300.41227   -1162.8555    6386.1158    11641.108    1950.6577 
  188100    299.79208   -1156.0001    6455.7006    11704.298     1877.513 
  188200     302.8212   -1164.1855    6526.7936    11831.918    1891.3573 
  188300    300.18358   -1171.8531    6476.3132    11717.422    1902.1612 
  188400    304.66823    -1171.568    6359.9067    11697.108    1893.0601 
  188500    298.20389   -1160.6002    6443.7497    11653.818    1931.0778 
  188600    300.18037   -1161.8604    6396.7191    11647.752    1849.3612 
  188700    299.46466   -1165.0664    6444.2371    11676.774    1886.2318 
  188800    298.87012   -1164.2477    6575.2401    11795.894    1944.7336 
  188900    305.65612   -1163.5834    6401.8973    11768.188    1926.4763 
  189000    297.09802   -1164.0663    6346.0001    11528.977    1938.0769 
  189100    301.89658    -1159.713    6541.1484    11830.993    1962.5637 
  189200     297.3321   -1159.6073    6403.0546    11595.491     1875.169 
  189300    297.89674   -1162.8959    6388.5789     11589.79    1918.2072 
  189400     303.3963   -1168.3348    6478.5352    11791.797    1889.8731 
  189500    300.94707   -1164.4708    6400.7766    11665.578    1840.0732 
  189600    302.09836   -1168.0154    6460.7755    11746.628    1950.3671 
  189700    298.39488   -1166.5775    6320.1842    11528.356    1896.8516 
  189800    301.24313   -1162.1576    6382.8571    11656.297    1902.7008 
  189900    301.99175   -1167.2495    6581.2732    11865.614    1970.9402 
  190000    299.61151   -1167.0416    6504.6396    11738.338    1942.8877 
  190100    299.16226   -1167.6661    6443.3708    11666.847    1863.8072 
  190200    307.41242   -1175.0742    6406.7261    11799.047    1918.9367 
  190300    297.83383   -1167.6988    6449.9723    11645.036    1932.6785 
  190400    296.88888   -1169.1386    6350.4247    11523.862    1870.0574 
  190500    302.06536   -1171.7936     6428.185    11709.554     1928.688 
  190600     298.7085    -1171.014    6425.5447    11635.979    1939.7821 
  190700    302.54245   -1174.4212    6410.3474    11699.282    1902.1221 
  190800     307.0053    -1168.433    6438.0183    11828.283    1879.7229 
  190900     296.8737    -1172.973    6464.1366    11633.415    1902.7367 
  191000    301.77768   -1168.9258     6365.298    11643.389    1915.3257 
  191100    297.45125   -1168.5072    6518.1094    11704.192    1921.3403 
  191200    299.90976   -1156.6671    6459.1922    11709.637    1912.3123 
  191300    302.23617   -1161.7959    6417.8988    11712.915    1932.6444 
  191400     300.7877    -1168.746    6359.2472    11616.369    1870.8096 
  191500    295.66145    -1169.517    6347.9094    11494.746     1876.285 
  191600    298.95313   -1165.7295    6557.6236    11778.569    2044.2269 
  191700     297.2202   -1166.3085    6427.1611    11610.506    1899.0371 
  191800    303.06702    -1168.756    6416.1503    11721.956    1917.8507 
  191900    297.42021   -1166.8227    6315.9853    11503.089    1913.8752 
  192000     305.2634   -1163.1136    6535.0299      11893.4    1946.5406 
  192100    297.09762   -1158.4703     6340.859    11529.423    1834.8209 
  192200    303.94226   -1163.8783    6451.5939    11780.976     2016.906 
  192300    300.52366   -1157.5855    6521.0266    11783.668    1988.2047 
  192400    304.86131   -1166.4086    6340.3391    11686.825    1949.5372 
  192500    303.90701   -1159.5658    6408.5278    11741.469    1997.5553 
  192600    298.31971   -1161.8521    6505.3846    11716.675    1938.8097 
  192700    304.72257   -1163.0886    6422.1572    11768.999    1892.5257 
  192800    298.99505   -1166.0994    6455.7644    11677.236    1942.8948 
  192900    296.95793   -1170.6172    6363.1023    11536.536    1871.3285 
  193000    300.31167   -1158.2298    6423.6253    11681.094    1840.3893 
  193100    299.87813     -1164.01     6541.247    11783.673     1871.916 
  193200    304.14607   -1159.8375     6505.773     11843.55     1964.771 
  193300    297.30332   -1167.6674    6371.6017    11555.364    1957.1534 
  193400    305.00368   -1167.7796    6370.1408    11718.297    1959.4583 
  193500     299.2466   -1165.4252    6358.8796    11586.399    1921.8554 
  193600    299.44582   -1170.1569    6424.5293    11651.573    1953.1396 
  193700    298.93452   -1167.8021    6522.8797    11741.355    1871.9381 
  193800    301.56378   -1167.1818    6370.0741     11645.34     1848.297 
  193900     299.5442   -1172.6692    6420.9549    11647.588    1938.7607 
  194000    294.61787    -1166.057    6470.6464    11598.648    1919.3101 
  194100    302.36235   -1166.0833    6383.2411    11676.666    1910.3991 
  194200    296.09868   -1158.3467    6469.6898    11637.037    1955.1701 
  194300    299.95195   -1165.1441    6429.2536    11672.123    1885.1036 
  194400    297.91206   -1170.1761    6448.0363    11642.294    1898.7492 
  194500    304.81582    -1168.304    6470.6894    11814.308    1981.3785 
  194600    298.26797   -1168.4212    6371.6997    11575.316    1872.6579 
  194700    300.08019   -1168.8665    6427.9957    11669.882    1880.6537 
  194800    300.91258   -1166.0547    6458.4571    11720.938    1909.3906 
  194900    294.22938   -1162.3097    6467.7553    11591.205    1895.9546 
  195000    298.92726   -1159.4685    6392.8807    11619.534    1924.9604 
  195100    299.37964   -1162.2961     6440.564    11674.055    1940.4003 
  195200    302.89613   -1158.7946     6432.345    11744.462    1947.2217 
  195300    299.36824   -1160.4549    6442.5663    11677.654    1886.5674 
  195400    300.35369   -1161.4438    6418.5047    11673.657    1863.9295 
  195500    301.46105   -1163.0005    6469.8765    11747.129    1956.5356 
  195600     298.9352   -1161.7318    6428.9063    11653.466    1906.2816 
  195700    302.52846   -1163.5784    6403.4488    11702.927    1878.1864 
  195800     294.1635   -1162.1847    6435.7188    11557.886    1968.7051 
  195900    301.64741   -1162.3755    6475.2853    11757.144    1955.8193 
  196000    301.00317   -1160.4414    6353.5653    11623.595    1882.8786 
  196100    298.67003   -1159.7432    6393.3676    11614.251    1906.6675 
  196200     298.7127   -1159.7852    6435.6111    11657.364    1922.0553 
  196300    299.75561    -1163.902    6439.0039    11678.921    1891.1867 
  196400    299.09244   -1167.2627    6370.5459    11592.934    1839.7404 
  196500    302.30596   -1170.0573    6458.4164    11746.662    1956.5983 
  196600    296.38845   -1166.3032    6535.8376    11701.419    1923.4333 
  196700    304.04964   -1168.9092    6440.8294    11767.474    1914.1849 
  196800    300.72713    -1168.367    6274.6815    11530.888    1846.1822 
  196900    296.77844   -1171.1059    6424.8768    11593.987     1978.985 
  197000    301.86331   -1165.9722    6470.1862     11753.06    1939.4744 
  197100    299.97132   -1165.4868     6461.659    11704.599    1950.5223 
  197200    305.17103   -1171.4526    6372.7642    11720.822    1949.2405 
  197300    301.44313   -1168.3374    6375.4791    11647.012    1949.4136 
  197400    296.57606   -1167.1049    6457.7382    11626.526    1936.8215 
  197500    299.58647   -1173.4299    6461.5846     11688.36    1972.1253 
  197600    300.12426   -1165.2286    6394.6105    11641.076    1944.1873 
  197700    297.79265   -1172.0878    6406.6999    11596.495     1936.719 
  197800    304.45122    -1169.212    6483.9686     11818.89    1960.8435 
  197900    298.25802   -1167.1458    6482.2333    11686.913    1888.3339 
  198000    297.38762   -1166.1743    6473.0018    11660.058    1906.4982 
  198100    304.94289   -1168.8526     6425.947    11771.731    1952.6874 
  198200    297.11355   -1168.3435    6265.8739    11444.905    1854.1457 
  198300    299.44475   -1161.0806    6483.4287    11719.526    1963.8464 
  198400    295.96734   -1163.0295    6433.0976    11592.956    1954.7261 
  198500    302.21642   -1160.3366    6372.7572    11668.811    1900.0913 
  198600    298.95271   -1160.2481    6503.5967    11730.014     1910.681 
  198700    298.92924   -1165.5111    6431.7112    11652.365    1880.7875 
  198800    304.95771   -1168.4974    6406.8559    11753.312    1884.0217 
  198900    300.13758    -1159.773    6393.3399    11645.546    1850.8459 
  199000    301.56656   -1161.8843    6480.5992    11761.222     1906.319 
  199100    298.63479   -1164.0976    6455.4191    11671.196    1914.7182 
  199200    295.74411   -1158.2456    6454.8862     11614.76    1932.0934 
  199300    298.60912   -1163.8599    6406.8784    11622.344    1943.5927 
  199400     304.7527    -1158.567    6397.8029     11749.81     1990.041 
  199500    292.64852   -1158.7437     6393.201    11486.444    1870.6871 
  199600    299.11189   -1164.3523    6463.4626    11689.177    1957.9666 
  199700    305.88595   -1159.3233    6406.2982    11781.759    1911.2591 
  199800    297.12976   -1165.6067    6440.1365    11622.251      1880.72 
  199900    303.90956   -1169.6794    6337.6079     11660.49    1848.3037 
  200000      301.441   -1172.4763    6412.6999    11680.048    1878.1263 
  200100    298.01323   -1164.8059    6514.5097    11716.299    1874.2375 
  200200    300.59609   -1162.6849    6362.9536    11622.043    1892.9644 
  200300    296.11044   -1160.6658    6322.4158    11487.695    1866.8486 
  200400    302.51213   -1162.3047    6434.4197    11734.823     1921.741 
  200500    303.07143   -1164.0934     6506.548    11817.111    1966.3245 
  200600    298.51683   -1174.5921    6372.7503    11575.512    1906.8431 
  200700    298.46826   -1169.8833    6465.1359    11671.569     1914.134 
  200800    303.32597   -1173.4738    6424.0262    11730.646    1895.7015 
  200900    298.64448   -1171.3257     6411.428    11620.183    1880.9333 
  201000    301.30329   -1170.5691    6495.4628    11761.776    1929.5165 
  201100    296.17579   -1166.9724    6458.0726    11618.442    1921.5184 
  201200    302.47954   -1163.6845    6374.7925    11673.119    1901.7722 
  201300    299.30364   -1161.6387    6476.5731    11709.097    1992.4561 
  201400    302.80895   -1164.4656    6322.7889    11627.372    1853.1535 
  201500    297.54773   -1163.0223    6497.0092    11690.638    1989.1085 
  201600     302.5029   -1164.8164    6420.5852    11718.279    1999.4106 
  201700     296.2079   -1169.5069    6291.6504    11450.171     1850.317 
  201800    302.30116   -1170.4171    6517.9948    11805.778    1891.4388 
  201900    298.83902   -1163.4737    6456.0251    11676.789    1862.6487 
  202000    301.01986   -1165.7033    6391.5593    11656.683    1923.3802 
  202100    299.57635    -1163.965    6392.9683    11628.992    1950.7944 
  202200    299.65274   -1162.5265    6443.0727    11682.167    1977.0059 
  202300    305.77534   -1156.4265    6382.6863    11758.681    1951.9269 
  202400     299.5961   -1161.7404    6459.3082    11697.979    1997.0142 
  202500    298.59791   -1165.8468    6411.3613    11624.601    1903.5142 
  202600    296.10634    -1167.621    6334.0655    11492.302    1852.5651 
  202700    299.43074   -1162.7234    6575.8467    11810.002    1958.0863 
  202800    299.45496   -1169.3717    6401.5676    11629.592    1848.8435 
  202900     299.8127   -1167.2766    6520.3749    11758.136    1932.8378 
  203000    297.52332   -1171.2048    6500.6704    11685.595     1915.691 
  203100     296.1584   -1163.7273    6280.7885    11444.031     1762.557 
  203200    304.72997    -1162.094    6438.0372    11786.031    1900.2945 
  203300    303.15713   -1163.3144    6408.2035    11721.376     1905.063 
  203400    297.41918   -1166.2277    6438.1403    11625.817      1898.33 
  203500    305.24929   -1167.2261    6458.1995    11812.156    1889.4265 
  203600    297.78232   -1170.6872    6513.4297    11704.405    1961.2972 
  203700     302.2396   -1167.2781    6408.2627     11697.87     1883.012 
  203800     302.6796   -1169.9263    6377.0782    11673.437    1885.3552 
  203900    296.69135   -1163.0777     6412.599    11587.877    1952.6291 
  204000    298.25226   -1171.5581    6334.0616    11534.205    1883.8335 
  204100    300.38591   -1168.6343     6424.967    11673.617    1879.7287 
  204200    299.24213   -1169.2378    6554.9496    11778.561    1939.1214 
  204300    299.40809   -1169.0991    6368.6216    11595.917    1832.7626 
  204400    297.30958   -1162.3232    6426.5385    11615.778    1907.5087 
  204500    294.63263   -1164.6509      6400.21    11529.933    1947.5863 
  204600    302.59822   -1164.8719    6302.0022    11601.677    1876.6365 
  204700    301.98835   -1161.0769    6393.4931    11683.934    1911.6432 
  204800    298.37098   -1164.3408    6526.2432    11736.141    1900.0252 
  204900    299.20043   -1167.8584    6451.8929    11675.993    1859.8884 
  205000    302.11663   -1170.5971    6415.1317    11698.793    1906.0133 
  205100     302.7771   -1167.5844    6397.2593    11698.043      1867.56 
  205200    301.15529   -1167.6649    6500.5273    11766.583    1888.0993 
  205300    299.05251   -1167.0602    6502.0212    11723.759    1819.1617 
  205400    301.09673   -1161.4444    6448.3617    11719.387    1894.9467 
  205500    300.07607   -1158.9839    6323.1044    11574.785     1873.024 
  205600    303.85189   -1163.7722    6347.4969    11675.054    1857.5678 
  205700    299.98798   -1158.5389    6516.9895    11767.233    1918.7876 
  205800    298.75791   -1156.6078    6419.2626    11645.159    1869.8726 
  205900    298.20337   -1164.3291    6428.5285    11634.857    1873.3056 
  206000    304.01712    -1168.249    6377.3267    11703.937    1912.5927 
  206100     297.0448   -1169.8958    6439.5299    11615.541    1912.5145 
  206200    297.51001   -1165.1421    6512.0912    11702.794    1899.7675 
  206300    299.05222   -1166.4326    6364.8437    11587.203    1868.5056 
  206400    303.21668   -1166.3908    6438.9352    11750.304    2004.0371 
  206500    297.60158   -1152.9817    6443.9114    11648.731    1980.6379 
  206600    301.42169   -1167.0918    6440.6797        11713    1982.2372 
  206700    304.13764     -1155.24    6485.1885    11827.383    1990.0953 
  206800    299.17865    -1170.306    6447.0759    11668.263    1912.3242 
  206900    302.75003   -1162.1767    6463.6726    11769.286    1900.0709 
  207000     300.0107   -1171.2205    6404.9456    11642.993    1889.0513 
  207100    300.96089   -1170.4883    6395.7661    11654.845    1919.6347 
  207200    298.45693   -1169.9869    6375.7277    11581.815    1856.3364 
  207300    304.35339   -1165.0256    6410.1782    11747.196    1897.9775 
  207400       301.24   -1165.6957    6494.3667    11764.201    1945.0722 
  207500    296.53436   -1166.8344    6404.6508    11572.818    1950.0488 
  207600    299.63627   -1164.4457    6318.1913    11555.015     1893.101 
  207700    297.97046   -1166.8268    6492.7489    11691.604    1987.2138 
  207800    295.38114   -1166.5509    6511.7806    11655.595    1897.5264 
  207900    298.69307   -1169.0627    6469.1378    11681.194    1866.4664 
  208000    297.91624    -1169.129    6437.7492    11633.144    1905.4997 
  208100    303.43003   -1169.3914    6460.0931    11773.019    1909.0629 
  208200    296.92761   -1163.8407    6379.2627    11558.825    1897.6524 
  208300    302.11359   -1164.4811    6370.2263    11659.939    1960.9829 
  208400    299.57287   -1162.5306    6386.9185    11624.303    1965.8154 
  208500    305.74058   -1162.1852    6466.2441    11835.737    1917.2036 
  208600     301.8386   -1160.8973    6485.8178    11773.239    1874.8927 
  208700    294.90029   -1164.9375    6458.4972    11593.652     1868.298 
  208800     296.5145   -1162.3534    6428.6091    11600.833    1859.5683 
  208900    300.75071   -1164.5778    6415.1058    11675.605    1847.2254 
  209000    302.14134   -1167.2297    6446.5103    11734.067    1898.4032 
  209100    303.43805   -1162.7331    6418.2693    11738.025    1925.9035 
  209200    300.56825   -1168.1229    6419.2314    11672.288    1862.4251 
  209300    298.24719   -1166.4558    6477.5116    11682.649    1933.4738 
  209400    295.81518   -1159.0351    6431.9392    11592.542    1913.4933 
  209500    300.62701   -1162.9938    6324.0287     11583.47    1818.5721 
  209600    298.00333    -1161.498    6379.6204    11584.506    1880.1479 
  209700     297.2089   -1161.8073    6392.1155     11579.72    1812.0823 
  209800    302.59832   -1167.0947    6518.7581    11816.212     1929.362 
  209900    298.40043   -1166.4582    6558.1673    11766.577    1931.3108 
  210000    300.96454   -1163.8704    6334.7675    11600.543    1820.0336 
  210100    297.60265   -1165.1527    6462.3064    11654.978    1866.6049 
  210200    305.42268   -1165.5589    6395.6648    11754.993    1898.0192 
  210300    294.90829   -1156.0217     6483.891    11628.133    1865.1377 
  210400    299.07327   -1161.8557    6401.4987    11628.884    1920.2702 
  210500    299.53109    -1164.869    6388.9648    11623.118    1904.7749 
  210600    297.61229   -1164.4072    6412.5538    11606.176    1936.5036 
  210700    303.22379   -1165.3387    6449.2748    11761.847    1947.3145 
  210800    297.95149   -1161.5228     6388.999    11592.753    1884.8164 
  210900    303.83641     -1169.41    6532.2986    11853.887    1931.3681 
  211000    298.37015   -1164.8173    6500.5043    11709.907    1869.5764 
  211100    301.50003   -1168.1432     6409.418     11682.36    1843.3177 
  211200     300.6614    -1160.935    6361.4093    11623.644    1850.8287 
  211300     299.6115   -1162.7217    6478.7077    11716.726     1941.109 
  211400     300.9885    -1159.961    6397.9905    11668.187    1866.5547 
  211500    298.33198   -1156.4261    6470.4654    11687.444    1886.0315 
  211600    305.05525   -1160.0056     6413.505    11770.537    1891.6297 
  211700    300.45099   -1158.6745    6481.9522    11741.952    1917.0563 
  211800    301.37172   -1161.3263    6383.9451    11660.963    1884.6377 
  211900    294.78601    -1171.362    6386.3369    11512.626    1803.6862 
  212000    300.79524   -1167.3613    6485.6378    11744.305    1855.9813 
  212100    297.47822   -1168.4702    6410.9884    11597.684    1897.5505 
  212200    300.55635   -1165.1372    6442.6957    11698.484     1915.356 
  212300    306.61271   -1162.0521    6501.1795    11889.438    1967.9232 
  212400    303.10087   -1156.1651    6428.1322    11747.252    1915.4978 
  212500    298.82676   -1161.2483    6352.8762    11575.603    1857.7038 
  212600    302.03796   -1157.6017    6317.0509    11612.027    1820.5733 
  212700    298.26948   -1154.3727    6448.3442    11666.041    1897.6133 
  212800    295.56278    -1157.172    6477.4331    11634.506    1877.6902 
  212900     307.2495   -1171.7747    6445.0105     11837.15    1891.6312 
  213000    300.91925   -1169.7747    6386.8266     11645.73    1835.8161 
  213100    300.02858    -1168.554    6500.9822    11742.078    1878.0753 
  213200    301.02469   -1166.2892    6374.0974    11638.739    1788.5639 
  213300    298.78737   -1166.0258    6437.3752    11654.483    1865.3566 
  213400    302.05527   -1157.3683    6493.6292    11789.208    1913.0396 
  213500    298.87201   -1159.0923    6443.5696    11669.419    1899.1811 
  213600    304.00691   -1158.4975    6322.6688    11658.813    1878.6144 
  213700    297.17168   -1162.1547    6330.7547    11517.217    1900.2955 
  213800     297.7596   -1165.1545    6412.9665    11608.989    1934.8816 
  213900    297.74394   -1164.6879    6409.9994    11606.154    1845.1847 
  214000    304.70604   -1167.4437    6502.6322    11844.765    1929.9333 
  214100    296.13461   -1176.1115    6299.7641    11450.114    1858.7582 
  214200     304.3553   -1171.8822     6430.532    11760.734    1884.1914 
  214300    302.47326   -1162.4668    6514.8965    11814.307    1885.0054 
  214400    296.96627   -1157.8553    6443.1259    11629.499    1900.1056 
  214500    299.00831   -1155.8317    6276.8874    11508.909    1860.4621 
  214600    299.55771   -1158.0933    6412.4304    11653.928    1951.6081 
  214700    295.57663   -1161.2526    6388.1953    11541.484    1888.3347 
  214800     298.2205   -1161.9563    6322.7853    11531.852    1875.8959 
  214900    299.93716   -1165.2427    6511.4343    11753.889    1909.6943 
  215000    299.54191   -1164.7725    6501.5677    11736.048    1886.4459 
  215100    299.07813   -1166.2985    6447.5948    11670.642    1890.4061 
  215200    301.33853   -1160.5293    6407.6005    11684.707    1887.6152 
  215300    300.40367   -1161.8531    6506.3244    11762.135    1909.6422 
  215400    300.12241   -1164.7809    6358.7805    11605.654    1872.0599 
  215500    300.75627   -1161.7259     6496.858    11760.328    1875.5556 
  215600    300.18349   -1162.3405     6460.667    11711.286    1906.0192 
  215700    295.90053   -1160.2728    6400.3463    11561.534    1893.2705 
  215800    297.48925   -1162.9703    6417.6614    11610.092    1856.8482 
  215900    304.13156   -1166.7163     6490.842     11821.43    1899.2878 
  216000    297.02846   -1168.0238    6371.0423    11548.576    1861.1535 
  216100    299.03155   -1168.5055    6347.6936    11567.538    1826.2192 
  216200    297.60761   -1166.7737    6479.6732    11670.829    1900.6074 
  216300    300.70755   -1168.9744     6409.084    11664.265     1906.211 
  216400    294.88161   -1167.3964    6397.8965    11530.193    1845.2588 
  216500    303.98016   -1162.0707    6426.8688    11758.868    1883.1588 
  216600    298.44532   -1163.2581    6461.7257    11674.294    1923.2191 
  216700    301.09353   -1164.3491    6358.4925    11626.545    1863.0604 
  216800     300.6147   -1165.4734    6351.4437    11608.142    1864.2311 
  216900    294.51076   -1170.0133    6413.1485    11534.906    1877.6557 
  217000    295.07492   -1170.9365    6385.0912    11517.978    1845.9053 
  217100    306.11635     -1168.63     6473.316    11844.392    1890.9193 
  217200    301.06926    -1172.455     6384.492     11643.92    1772.3928 
  217300    297.20675   -1168.9239    6444.3511    11624.793    1849.8529 
  217400    297.29799   -1162.4603    6504.2151     11693.07     1886.232 
  217500    304.51998   -1165.9561    6376.2099    11715.856    1880.2904 
  217600    298.01318   -1156.8039    6401.6706    11611.461    1894.9389 
  217700    303.30197   -1162.8273    6483.2525    11800.006     1982.947 
  217800    302.15768   -1159.9486    6465.3279    11760.514    1914.9227 
  217900    301.68999   -1157.9982     6416.474     11703.62    1937.7144 
  218000    293.11475   -1166.4386    6375.4061    11470.914    1900.7604 
  218100    302.90618   -1161.4929    6330.2332    11639.866    1849.6109 
  218200    300.06031   -1160.4467    6491.2696    11741.151    1889.9606 
  218300    296.73093   -1161.1008    6482.7008    11660.801    1863.8442 
  218400    305.52787   -1160.9368    6351.9044    11718.102    1816.2704 
  218500    300.61395   -1157.4042    6528.4116    11793.163    1893.2475 
  218600    297.11225   -1154.7764    6369.8337    11562.405    1808.6882 
  218700    299.74867   -1162.1943     6379.934     11621.41    1875.8393 
  218800    300.95024   -1155.8897    6464.3286    11737.779     1895.709 
  218900    294.06318   -1157.2389    6543.6529    11668.623    1887.1589 
  219000    299.09724   -1153.7129    6431.8637    11667.904    1870.4519 
  219100    302.36825   -1152.6832    6413.4298     11720.38    1930.8985 
  219200    295.25614   -1163.4674    6342.8177    11487.045     1833.612 
  219300    302.78988   -1166.1789    6382.6042    11685.067    1791.1632 
  219400    296.58555   -1162.3617    6513.0243    11686.758    1877.6084 
  219500    304.31062   -1164.7284    6379.2833    11715.684    1868.4163 
  219600    300.56802   -1165.6302    6387.8914    11643.436    1856.7998 
  219700    298.55526   -1159.0655    6449.0971    11668.207     1929.075 
  219800    301.52454   -1158.4591    6389.5855    11672.736     1845.388 
  219900    300.37761   -1167.2371    6442.6143    11692.484    1888.0154 
  220000    303.32833   -1168.4534    6369.6439    11681.335    1826.4768 
  220100    295.24978   -1165.7648    6427.7327    11569.526    1818.9813 
  220200    304.22683   -1165.8159    6448.9321    11782.456    1920.4173 
  220300    297.69856   -1168.3017    6391.9884     11583.56     1820.954 
  220400    301.39705   -1167.9716     6424.576     11695.49    1832.5719 
  220500    294.55881   -1171.6113    6454.4571    11575.643    1914.3971 
  220600    301.48489   -1166.6867     6337.135     11611.21    1862.4234 
  220700    296.64763   -1161.5706    6452.3005    11628.151     1912.298 
  220800    302.76376   -1162.7498    6368.4303    11673.764    1912.0351 
  220900    297.20039   -1164.7227    6410.0823     11594.59    1845.3171 
  221000    296.72217   -1163.1787    6399.7053     11575.54    1850.1001 
  221100     307.0122   -1166.0205    6405.7328    11798.557    1874.8628 
  221200    298.53273    -1166.867    6451.8193    11662.646    1829.9572 
  221300     300.2287    -1164.126    6429.0459    11678.845    1815.2961 
  221400    301.96069   -1166.2026    6406.9544    11691.679    1926.4232 
  221500    301.24364   -1160.9903    6453.9825      11728.6    1954.6806 
  221600    304.63052   -1158.1441    6445.8286    11795.648    1933.4193 
  221700    298.71397   -1160.1939    6384.0341    11605.406    1828.9417 
  221800    304.26848   -1157.5557    6399.3635    11742.037    1823.0984 
  221900    294.00731   -1155.8457    6447.0647    11572.234    1803.5248 
  222000    300.75373   -1156.4472    6460.0555     11728.75    1763.2516 
  222100    294.47764   -1159.7154    6448.6757    11580.023    1797.4263 
  222200     299.1857   -1160.7997    6424.7429    11655.587    1806.2268 
  222300    299.29937   -1160.0903     6424.302    11658.283    1824.2307 
  222400    301.39148   -1161.9027    6464.3372    11741.201    1819.5287 
  222500    296.32284   -1158.0699    6500.9417    11673.355    1810.4003 
  222600    303.31284   -1163.4471    6386.8741     11703.24    1820.8025 
  222700    301.90972   -1163.8432    6429.7374    11715.732    1857.0107 
  222800    300.51674   -1163.6191    6337.0568    11593.517    1838.1353 
  222900    296.49514   -1158.7683    6538.8083    11714.204    1951.1917 
  223000    298.31396    -1163.086    6466.1892    11676.123    1875.0861 
  223100    301.36116   -1161.7155    6371.9992    11648.403    1839.1375 
  223200    300.18576   -1164.7036    6458.5026    11706.807    1864.0631 
  223300    298.53314   -1163.6601    6405.6953    11619.738    1890.0968 
  223400    300.69754   -1165.9029    6334.4586    11592.497    1837.8808 
  223500    300.92053   -1170.8502    6441.6687    11699.524    1809.0684 
  223600    300.51701    -1171.217    6433.3261    11682.194    1879.7602 
  223700    299.46598   -1163.5615    6383.2627    11617.332    1861.7624 
  223800    291.27631    -1167.497    6360.5702    11415.745    1781.0098 
  223900    298.61328   -1161.4854    6347.5301    11565.459    1853.8413 
  224000    297.44002    -1164.162    6422.6228     11612.81    1835.0861 
  224100    299.94479   -1162.5306    6492.6814    11738.011    1843.4399 
  224200    295.79471   -1166.8179    6455.0913    11607.473    1855.7813 
  224300    303.94212   -1168.1349    6398.8966    11724.019    1882.4635 
  224400     298.4388   -1167.2835    6294.3871    11502.791    1842.5215 
  224500    299.22565   -1162.5419    6403.0051     11632.96    1885.3326 
  224600    297.80602   -1162.9324    6547.9865    11747.223    1910.7878 
  224700    298.82296   -1168.6149    6446.1113     11661.39     1805.682 
  224800    296.71486   -1166.2941    6391.9181    11564.482    1755.4582 
  224900    299.05304   -1163.0818    6493.6548    11719.382    1943.8466 
  225000     305.0843   -1168.8989     6434.362    11783.121    1921.3667 
  225100    298.35897   -1156.9359    6412.7479    11629.794    1898.5003 
  225200    302.14733   -1158.7245    6485.1174    11781.307    1948.9127 
  225300    301.94876   -1156.8857    6412.3572    11706.143    1924.1866 
  225400    299.27723   -1158.4825    6417.9638     11653.08     1823.898 
  225500    301.93178   -1158.7084    6543.7391     11835.34    1939.3915 
  225600    304.59054   -1166.8806    6379.1002    11719.329    1884.7284 
  225700      298.778   -1163.9648    6285.0158    11503.985    1767.8145 
  225800    298.85843    -1164.022    6541.5472    11762.177    1918.0329 
  225900    295.22465   -1161.2588    6571.2655    11717.028    1917.4649 
  226000    298.89268   -1160.5422    6351.6008    11576.442    1791.6725 
  226100    294.59462   -1160.2682    6460.1129    11593.407    1854.0688 
  226200    300.08355   -1159.3914    6349.0999    11600.533    1872.2764 
  226300    296.62031   -1159.2214    6343.5424    11521.159    1821.1663 
  226400    298.07963   -1159.9085     6411.232    11619.337    1843.7753 
  226500     297.4105   -1168.3813    6508.7023     11694.04    1918.6329 
  226600    304.85691    -1170.767    6362.5509    11704.584    1859.3639 
  226700    296.41177   -1166.7104    6415.5063    11581.179    1842.1435 
  226800     298.9276   -1167.5333     6468.148    11686.744    1920.3088 
  226900    302.17471   -1169.4954      6541.86    11827.864    1916.7464 
  227000    294.94789   -1166.9895    6364.0592    11498.179    1820.3071 
  227100    301.24659   -1159.1285    6324.0082    11600.551    1810.9125 
  227200    302.89079   -1164.2482    6536.1758    11842.724    1874.8645 
  227300    295.98805   -1168.9237    6436.8582    11591.265    1879.7082 
  227400    307.22346   -1160.6837    6364.5681    11767.242    1874.9222 
  227500     302.5578   -1167.9007    6461.1604    11756.943    1853.6587 
  227600    300.34826   -1166.4117    6442.5526    11692.621    1878.6701 
  227700    305.96319   -1169.8406    6242.2976    11608.891    1784.9491 
  227800    294.22277   -1166.3982     6527.498    11646.718    1880.4983 
  227900    298.33556    -1161.698    6479.9754    11691.759    1833.0612 
  228000    299.26141   -1167.0506    6455.0261    11681.236    1922.0224 
  228100      297.955   -1159.5814    6308.6503     11514.42    1851.3193 
  228200    299.37388   -1163.0584    6360.5734    11593.179    1886.4914 
  228300    299.30908   -1163.1265    6445.2669     11676.42    1877.8368 
  228400     303.8737   -1164.6947    6463.6976    11790.798    1809.5777 
  228500    292.02702   -1161.2636    6436.4152    11513.861    1799.8021 
  228600    303.18766   -1160.2453    6462.5799    11779.474    1875.2232 
  228700    297.63942   -1161.4706    6391.1752    11588.314    1804.4979 
  228800    299.98892   -1166.4291    6426.6818    11669.056     1783.253 
  228900    298.69128   -1161.7589    6457.2574    11676.579    1822.5535 
  229000    304.96127   -1165.4073    6408.6648    11758.287    1880.2942 
  229100    300.33235   -1164.2409    6463.8974    11715.796    1896.3211 
  229200     296.0263   -1157.7162    6310.8827    11477.314    1801.5528 
  229300     303.6101   -1162.1641    6491.8741    11815.874    1882.4751 
  229400    295.27086   -1159.6124    6518.4097    11666.806    1890.9776 
  229500     298.4543   -1158.4848    6396.1144    11613.648    1862.7268 
  229600    300.67324   -1160.6905    6397.9738    11660.706    1863.7456 
  229700     299.7883   -1153.0523    6412.8344    11664.299    1840.6828 
  229800    301.01314   -1156.3422    6373.9498    11648.291    1849.2334 
  229900    299.49091   -1165.7914    6414.0323    11646.405    1905.9299 
  230000     297.1513    -1161.136    6315.2606    11502.306    1840.3272 
  230100     298.1348   -1164.6375    6461.0093    11665.564    1858.6373 
  230200    299.47737   -1163.6264    6489.0114     11723.26    1841.4556 
  230300    303.72383    -1161.819    6490.7961    11817.571     1861.991 
  230400    302.45473   -1166.7101    6368.6786     11663.45    1853.0627 
  230500    295.64532    -1163.522    6474.5348    11627.021    1891.7074 
  230600    297.49814   -1160.9279    6428.0287    11622.692     1885.611 
  230700    299.51954   -1161.7952    6445.7676    11682.748    1879.2432 
  230800     300.7798   -1163.8621    6496.5216    11758.358    1931.2742 
  230900    299.72055   -1165.2837    6379.9448    11617.731    1820.5349 
  231000    298.03189   -1165.3567    6339.9102    11541.547    1815.5094 
  231100    301.32503   -1169.3245    6485.9547    11753.977    1917.8903 
  231200    296.61699   -1171.7882    6392.2535    11557.232    1843.8511 
  231300    301.80036   -1168.2421    6425.1261    11704.386    1830.0925 
  231400    301.10025   -1166.9412    6471.5252    11737.129    1848.1572 
  231500    300.32906   -1166.5995    6404.0574    11653.528    1831.9773 
  231600     306.1543   -1160.8032    6407.7909    11787.505    1876.1838 
  231700    295.50863   -1163.0746    6398.6981    11548.712    1866.5352 
  231800    303.03325   -1165.0313    6467.6482    11776.457    1907.6093 
  231900    297.29583   -1168.1428    6357.3391    11540.466    1887.9224 
  232000    306.87303   -1163.3191    6393.1841    11785.736    1897.6823 
  232100     297.1847   -1166.5173     6578.763    11761.141    1864.2548 
  232200    301.30817    -1167.899    6573.6488    11842.736    1887.6397 
  232300    297.74366   -1172.5528    6380.4344    11568.718    1879.8445 
  232400    303.34584    -1170.516    6357.3834    11667.386    1876.8362 
  232500    298.35552   -1170.1932    6401.7798    11605.494    1895.7548 
  232600    302.26602   -1163.1217    6474.8887    11769.217    1911.7612 
  232700    299.99014   -1158.4867    6530.1039    11780.446    1907.2713 
  232800    303.32976   -1163.4917    6372.6698    11689.353    1889.7259 
  232900    296.77592   -1164.1029    6279.3702    11455.429    1894.4772 
  233000    304.52038   -1160.2437    6440.9626    11786.329    1919.4387 
  233100    295.62477   -1161.4034    6466.9325    11621.099     1810.905 
  233200    303.53547   -1166.8392    6423.2083    11740.939    1813.3031 
  233300    296.40466   -1166.1101    6446.2412    11612.362    1889.2919 
  233400    297.43617    -1163.333    6335.3142    11526.248    1783.9937 
  233500    296.60343   -1160.7032    6547.6981    11723.472    1864.8373 
  233600    299.08474   -1164.3168    6417.9054    11643.075    1876.3536 
  233700    298.73143   -1161.7323    6307.5658    11527.772    1867.3276 
  233800    303.60033   -1163.5334    6373.8195    11696.241    1893.4216 
  233900    299.97324   -1155.3322    6520.7482    11773.884    1900.8544 
  234000    298.20444   -1164.4477    6434.0148    11640.247    1868.9345 
  234100    299.95754   -1171.0785    6394.5361     11631.59    1849.0994 
  234200    296.50199   -1160.2487    6559.1661    11733.227    1908.1654 
  234300    307.55627   -1167.4237    6429.7126    11832.757    1894.7526 
  234400    301.76486   -1164.7588    6366.9337    11648.918    1896.7424 
  234500    296.08023   -1161.0029     6364.879    11529.176     1887.146 
  234600    302.83031   -1160.7489    6548.7995    11857.556    1954.6652 
  234700     300.0413   -1160.7802    6491.7093    11740.851    1912.6737 
  234800    300.69858   -1160.2588    6396.5736    11660.279    1883.0702 
  234900    299.06524   -1166.7082    6356.5932    11578.955    1924.6626 
  235000    294.40867    -1166.514    6421.7761    11544.852    1872.6246 
  235100    304.76583   -1162.4848    6378.8483    11727.218    1844.0076 
  235200    294.56192   -1163.6186    6501.3449     11630.59     1893.255 
  235300    302.25445   -1166.9068    6428.2187    11718.514    1890.9478 
  235400    302.24607   -1164.4845    6352.6523    11645.191    1871.3391 
  235500    296.57292   -1165.8821    6365.6642    11535.607    1867.6132 
  235600    301.48523    -1166.913    6365.5589    11639.415    1848.2336 
  235700    298.28847   -1162.8318    6484.5693    11694.213    1888.0878 
  235800    305.20181   -1166.9124    6432.4214    11785.677    1881.4154 
  235900    298.91391    -1163.994    6480.2021    11702.045    1921.1933 
  236000    299.19635   -1163.1502    6292.6246    11521.345    1878.6371 
  236100     295.7739    -1164.045     6473.544    11628.255    1877.0792 
  236200    304.51619   -1158.5289    6516.1229    11863.115    1863.4267 
  236300    297.26937   -1167.4345    6468.6071    11651.877    1888.8049 
  236400    307.41367   -1164.2927    6404.9978    11808.127      1874.25 
  236500    296.96499   -1161.6358    6425.5626    11608.128    1804.7288 
  236600    301.87847     -1164.89    6457.5746    11741.855    1859.4985 
  236700    298.60997   -1161.2258     6446.906    11665.024    1858.7347 
  236800    300.48831   -1162.3934    6452.7329    11709.811    1867.8878 
  236900    296.97163   -1164.0852    6408.7612    11589.019    1875.6694 
  237000    297.50094   -1162.6545    6469.5809    11662.578    1862.0966 
  237100    301.48075   -1161.8702    6449.9489    11728.752    1839.0885 
  237200    298.63214   -1163.2818    6396.6359    11613.172    1922.0782 
  237300    300.10326   -1160.3908    6352.8828    11603.738    1923.7307 
  237400    298.62608   -1160.8672    6406.8241    11625.645    1877.1421 
  237500    299.89832   -1161.3324    6468.0094    11713.544    1938.1802 
  237600    298.98763    -1166.502    6457.0223    11677.932    1858.0426 
  237700    296.72824   -1162.5273    6464.5776    11641.194    1847.1348 
  237800    299.36288   -1162.0798    6355.2611     11588.61    1885.5368 
  237900    302.62007   -1162.2285    6380.0684    11682.853    1862.8933 
  238000    296.74585   -1158.1248    6490.4718    11671.867    1810.0022 
  238100    302.62491   -1161.5403    6455.1713    11758.748    1834.3108 
  238200    299.33283   -1162.2838    6307.6537    11540.156    1858.2217 
  238300    299.28574   -1165.0788    6365.4981      11594.2     1834.868 
  238400    304.45394   -1158.9352    6479.6146    11824.871    1884.2645 
  238500    296.75109   -1167.9651    6378.1441    11549.811    1819.2961 
  238600    301.52057   -1161.5104     6339.381    11619.395    1784.9993 
  238700    297.31648   -1158.7872    6488.0613    11680.984    1799.5204 
  238800    300.32657   -1158.0487    6469.4033    11727.371    1838.8236 
  238900    300.39862   -1162.5634    6442.2122    11697.204    1869.1929 
  239000    299.12066   -1161.3392    6365.3813    11594.296    1883.2558 
  239100    301.34455   -1162.8554    6400.4268    11675.335    1875.8998 
  239200    303.86704   -1162.2659    6518.7207    11848.108    1926.1123 
  239300    299.06125   -1164.5083    6528.8961    11753.372    1813.2713 
  239400    305.37037   -1164.2705    6364.7452    11724.244    1758.2281 
  239500    301.74804   -1162.1288    6448.7478    11733.003    1853.3269 
  239600    300.94279   -1160.4239    6431.6714    11700.428     1866.679 
  239700    302.20058   -1163.8794    6482.1238    11774.296    1811.9547 
  239800    301.55344   -1161.0413    6431.5098    11712.695    1880.6648 
  239900    300.66267   -1161.9582     6348.491    11609.729    1901.7522 
  240000    298.18271   -1163.5168    6443.4184    11650.118    1828.7707 
  240100    304.32596   -1164.6569    6464.6928    11801.493    1868.5068 
  240200    298.37292   -1162.2171    6389.9253    11601.988    1887.7914 
  240300    301.56737   -1168.0464     6455.926    11730.404    1868.3661 
  240400    299.58847   -1160.7486     6444.552    11684.051    1830.9213 
  240500    293.69763   -1158.5033    6348.7022    11464.598    1824.2649 
  240600    301.70545   -1166.3587    6487.9119    11767.027    1829.0913 
  240700    295.55032   -1167.3317    6451.4134    11598.061    1833.3283 
  240800    302.89483   -1168.8883    6376.8576    11678.853    1948.3869 
  240900    302.57044   -1163.9157    6326.9346    11626.972    1828.1785 
  241000    297.89654    -1158.575    6432.8437    11638.371     1797.825 
  241100    303.55385   -1165.7053    6361.8471    11681.104    1916.2876 
  241200     301.4527   -1164.8163    6392.8559    11668.114    1861.3209 
  241300    293.57471   -1163.7297    6371.7181    11479.762    1780.2091 
  241400    303.97373   -1161.2998    6446.3975     11779.03    1899.5608 
  241500    300.06683   -1167.5373    6441.7716    11684.702    1874.5491 
  241600    300.46309   -1162.8403     6406.933    11663.026    1768.2717 
  241700    304.52483   -1163.8886     6492.219    11834.036    1789.6169 
  241800    295.64339   -1162.3671    6499.3419    11652.942    1806.3961 
  241900    299.47919    -1159.503    6504.7441    11743.155    1791.2323 
  242000    297.67218   -1166.5978    6327.7007    11520.412    1717.2372 
  242100    302.95347    -1162.242    6442.1635    11752.058    1847.8506 
  242200    303.49254   -1160.4375    6400.7819    11723.997    1818.0352 
  242300    300.63122   -1158.8482    6483.3636     11747.04    1869.5805 
  242400    299.07052   -1157.2175    6470.3021    11702.267    1835.9227 
  242500    300.72715   -1161.3894    6401.3909    11664.576    1834.1847 
  242600      298.287   -1161.2823    6439.3833    11650.545    1816.3614 
  242700    299.42372   -1161.1615    6452.3704    11687.937     1818.598 
  242800    304.98272   -1157.4618    6462.3503    11820.376    1821.3831 
  242900    301.41838   -1159.8289    6386.0347    11665.547     1848.793 
  243000    305.72837   -1158.0218    6496.0991    11869.495    1929.8417 
  243100    299.16031   -1160.6242    6332.5058    11562.983    1824.0703 
  243200     298.8387   -1161.5991    6414.2306    11636.862    1836.1904 
  243300    304.54776    -1159.662    6504.4393    11850.973    1780.8518 
  243400    299.89101   -1160.7517    6456.4413    11702.401    1821.6565 
  243500     294.5321   -1160.0946    6352.8691    11485.001    1847.4718 
  243600    304.01914   -1152.3863    6343.2352    11685.751    1849.4576 
  243700     294.5304   -1155.3869    6475.4219    11612.225    1847.0182 
  243800    300.94547   -1166.4264    6411.7544    11674.566      1838.25 
  243900    306.65047   -1173.6225    6379.1444    11756.639    1914.6012 
  244000    300.47854   -1165.1084    6526.3768    11780.531    1930.2308 
  244100    298.76396   -1164.0626    6383.5572    11602.128    1816.5086 
  244200    304.05571   -1167.3711    6346.5965    11674.909    1873.0169 
  244300    296.62044   -1166.2939    6497.6102    11668.157    1904.0186 
  244400    298.42388    -1160.932    6448.3103    11662.747    1825.0153 
  244500    300.45633   -1162.2427    6301.1383    11557.684     1837.769 
  244600    301.88328   -1163.8284    6361.6208    11647.065    1826.5641 
  244700    303.46033   -1166.1081    6552.4503    11869.306    1890.8848 
  244800    302.84857    -1164.733    6524.5906    11829.753    1929.9849 
  244900     304.7845   -1164.9679    6425.7395    11772.025    1901.2572 
  245000    297.33245   -1170.0721    6357.9925    11539.972     1848.295 
  245100    300.12148   -1161.7388    6378.5113    11628.407    1894.4096 
  245200    301.22928   -1162.5531    6473.9521      11746.7    1854.0849 
  245300    295.62597   -1164.0716    6529.1562     11680.68    1816.8471 
  245400    304.81307   -1159.8044    6478.1774    11830.236    1877.9009 
  245500    301.54866    -1167.296    6307.4296    11582.258     1821.292 
  245600    296.71636   -1162.0607    6463.5698    11640.399    1875.2592 
  245700    298.79556    -1164.224    6377.9665    11597.051    1876.0263 
  245800    298.51139   -1164.7808    6430.5087    11642.966    1894.6989 
  245900    303.87176   -1157.6728    6478.1023    11812.183    1893.9987 
  246000    294.97979   -1158.4433    6475.6627     11619.01    1877.0616 
  246100    301.54798   -1158.5824    6453.9971    11737.525    1856.8778 
  246200    299.67603   -1159.5611    6399.5041    11642.062    1838.5757 
  246300    299.79442   -1159.3032    6385.2826    11630.627     1805.208 
  246400    303.72554   -1164.1708    6384.5934    11709.053     1787.574 
  246500    298.67506   -1164.4377     6502.981    11719.278    1842.1339 
  246600    299.83773   -1161.5029    6499.4276    11743.498    1847.2115 
  246700     305.1127   -1160.7655    6364.9328    11722.432    1888.1432 
  246800    301.87316   -1161.9182    6341.8824    11629.021    1834.3201 
  246900    299.71077   -1156.8135    6501.3834    11747.431    1956.2263 
  247000    304.13219   -1166.6062    6369.1952    11699.907    1927.0446 
  247100    299.71741   -1157.2204    6358.3695    11604.152    1908.0373 
  247200    302.66308    -1158.692    6347.8313    11655.072    1877.8819 
  247300    300.04323   -1159.9701    6465.6014    11715.594    1900.8152 
  247400    298.83626   -1162.6959    6449.2375     11670.72    1796.5206 
  247500    302.49831   -1168.2531    6459.6021    11753.761    1815.5664 
  247600    302.04552   -1171.8749    6386.5509    11667.415    1837.6665 
  247700     300.4095    -1170.219    6511.4044    11758.974    1874.7553 
  247800    296.91571   -1166.1653    6490.3173    11667.301    1837.9341 
  247900    298.91947   -1160.1854    6281.0242    11506.795    1726.0826 
  248000    301.02873   -1159.3046    6457.7906    11729.503    1919.9583 
  248100    299.50988   -1161.5764    6483.7684    11720.761    1881.0011 
  248200    302.61822   -1167.1405     6342.501    11640.334     1790.271 
  248300    304.06481   -1158.1567     6511.084    11848.806    1883.2908 
  248400     298.6234   -1164.8559    6489.0131    11703.788    1880.3234 
  248500    303.73165    -1166.997     6376.279    11698.043     1881.851 
  248600    298.87206   -1170.5242    6340.9535    11555.372    1870.8705 
  248700    302.39769   -1160.0899    6422.7252    11722.898    1916.5742 
  248800    298.41334   -1163.4516    6427.8346    11639.526     1848.765 
  248900    299.45278   -1160.0137     6515.184     11752.52    1897.6172 
  249000    303.06835   -1164.1036    6327.9979    11638.485    1844.1191 
  249100    300.68225   -1152.9085    6366.0503    11636.757    1903.7279 
  249200    300.05805   -1152.5511    6488.6689    11746.398    1935.9288 
  249300    306.29215   -1159.1265    6398.5599    11782.895    1942.7248 
  249400     299.2515   -1164.2128    6368.0249    11596.861    1927.6914 
  249500    301.37219   -1158.2084    6381.3563    11661.502    1834.8415 
  249600    300.54302   -1158.1948    6477.8053    11740.251    1860.9946 
  249700    297.96856   -1160.5394    6487.7846    11692.886     1944.104 
  249800    297.35096   -1165.1881    6367.7752    11555.034    1814.4136 
  249900    299.58624   -1160.4094     6405.033    11644.824    1828.9431 
  250000    299.21062   -1155.0281     6465.062     11702.21    1916.8825 
  250100     299.2972   -1161.9682    6477.2462    11709.303    1875.1491 
  250200    301.16998   -1160.9757    6441.1434    11714.202    1847.0807 
  250300    302.86661   -1158.3893    6419.6069    11731.498    1898.0695 
  250400    297.32995   -1165.8674    6381.4874    11567.618    1844.0713 
  250500    300.78227   -1163.5648    6433.9514    11696.138    1836.7008 
  250600    301.47536   -1163.4913    6500.4491    11777.516    1916.6859 
  250700    293.02103   -1163.3449    6530.7181    11627.318    1907.2012 
  250800    298.94852   -1161.5121    6449.5109    11674.575    1950.0969 
  250900    296.60943   -1167.1944    6334.4753    11503.886    1872.5112 
  251000    299.63217   -1166.4003    6463.4115    11698.193     1882.635 
  251100    294.98002   -1164.0048    6399.1655    11536.956    1870.5919 
  251200    301.73215   -1162.6272    6400.8991    11684.316    1911.9828 
  251300    302.35072   -1163.8972    6466.7789    11762.141    1913.8677 
  251400    296.73785   -1163.0835    6435.8718    11612.137    1867.8932 
  251500    306.58964   -1163.4699    6349.9016    11736.249    1873.1351 
  251600    300.09334   -1162.6772    6377.4988    11625.855    1904.4339 
  251700    297.50537   -1168.4137    6392.5814    11579.913    1795.1079 
  251800    305.89323   -1166.3544    6478.8223    11847.407    1851.1956 
  251900    297.81065   -1161.2954    6389.3336    11590.306    1809.3171 
  252000    303.85095   -1164.9789    6386.6101    11712.941    1861.7952 
  252100      298.485   -1162.2377     6451.516    11665.952    1960.2726 
  252200    296.55344    -1156.754    6475.8359    11654.491    1883.4093 
  252300    302.10295   -1157.5026    6362.6238    11659.087    1868.6776 
  252400    299.96127    -1161.633    6416.5297    11663.109    1864.4843 
  252500    300.21634   -1163.2595     6573.754    11824.156    1938.2975 
  252600    301.63956   -1161.9276    6465.6604    11747.799    1934.6073 
  252700    299.23479   -1159.4222    6350.0434    11583.313    1920.4198 
  252800    297.40096   -1157.9668    6487.6032    11683.152    1976.2358 
  252900      304.175   -1156.2386    6427.7743    11769.768    1948.1555 
  253000     295.9417   -1159.7917    6389.8513      11552.4    1913.2517 
  253100    300.58348   -1161.0139    6414.8583    11675.349    1966.3085 
  253200    300.79914   -1158.1255    6402.8151    11670.802    1902.4376 
  253300    299.40527   -1157.7029    6476.2399    11714.871    1885.1534 
  253400    299.58256   -1158.9608    6451.6168    11692.778    1870.7551 
  253500    302.29274   -1160.5592    6441.6462    11739.108    1949.7892 
  253600     298.5627   -1167.0331    6398.8283    11610.129    1903.6333 
  253700    302.59343   -1168.4674    6423.6673    11719.644    1868.2256 
  253800     298.8878    -1169.162    6458.2549    11674.372    1905.3319 
  253900    296.53106   -1164.8414    6532.5828    11702.673    1911.7649 
  254000    295.96651   -1158.8344    6403.8078    11567.844    1834.2722 
  254100    301.35754    -1161.878    6290.2587    11566.422    1885.4191 
  254200    299.27896   -1158.4918    6366.3791    11601.523    1899.1494 
  254300    299.75067   -1166.1986    6410.7388    11648.253    1892.1527 
  254400    296.69199   -1170.4206    6439.2746    11607.223    1927.5199 
  254500    302.63742   -1174.2248    6450.7616    11741.921    1863.5105 
  254600    298.58335   -1167.3464    6390.4846    11601.913     1827.267 
  254700    300.91623    -1166.955    6439.6995    11701.358    1915.3801 
  254800    299.86506   -1165.6971    6396.1099     11636.57    1864.7221 
  254900    302.68091   -1163.9951    6410.9954    11713.313    1931.3732 
  255000    297.38957   -1157.8784    6421.1807    11616.574    1894.6263 
  255100    299.06311   -1157.0736    6405.5979    11637.549    1924.4888 
  255200     304.1936   -1162.5783    6427.4571    11763.508    1949.6989 
  255300    298.07318   -1163.3581      6422.57    11627.088    1868.3504 
  255400    301.76039   -1160.2762    6407.4132    11693.785    1873.8311 
  255500    299.98135   -1162.3154    6424.6682    11670.994    1924.8297 
  255600    300.01779   -1157.9633    6446.4281    11697.885    1858.7919 
  255700     303.1566   -1160.9996    6389.4088    11704.885    1869.2451 
  255800    300.16767   -1165.3401    6404.7018    11651.983    1906.7351 
  255900    300.17141   -1158.7905    6397.6319    11651.543    1816.0188 
  256000    299.29499   -1157.6225    6527.4711    11763.827    1909.8226 
  256100     303.3442   -1153.3957    6396.6805    11723.768    1908.0186 
  256200     298.0788   -1156.8024    6334.7316    11545.925    1837.5418 
  256300    304.27052   -1154.8826      6306.03     11651.42    1794.9588 
  256400     298.6155   -1158.8865    6470.8932    11691.469    1826.8653 
  256500     307.3185   -1161.9973    6552.7356    11956.126    1836.3188 
  256600    303.24973   -1163.2709     6505.533    11820.727    1883.5972 
  256700    298.52408   -1163.2652    6348.1097    11562.353    1863.3266 
  256800    302.33339   -1158.8881    6504.5847    11804.586    1904.2352 
  256900    301.94499   -1156.4581     6505.545    11799.678    1870.0711 
  257000    304.12934   -1159.5805    6364.6905    11702.367    1862.7562 
  257100    299.69603   -1158.9977    6422.0838    11665.632    1889.1088 
  257200    306.80116   -1164.5535    6428.6348    11818.417    1903.6917 
  257300    295.21749   -1167.5795    6393.0232    11532.312    1852.2967 
  257400     301.8885   -1170.2498    6385.1736    11664.308    1834.9862 
  257500    299.15611   -1168.1936    6439.4241    11662.242    1805.8786 
  257600    299.10359   -1161.7149    6464.3043    11692.479    1864.4277 
  257700    303.59853   -1167.4406    6450.3785    11768.855    1942.6042 
  257800    297.83722   -1163.0535    6360.9149    11560.697    1865.8806 
  257900    300.11369   -1160.5665    6382.5223    11633.424    1920.7484 
  258000    303.57388    -1162.456     6393.534    11716.468    1965.7145 
  258100    299.38675   -1156.6751    6443.4407    11682.704    1918.7097 
  258200    300.20934   -1166.8089    6391.3206    11638.024    1881.5983 
  258300    302.62175    -1170.576    6444.0189    11738.492     1902.351 
  258400    304.79456   -1168.4316    6437.1894    11780.226    1879.5975 
  258500    297.79958   -1164.6505    6495.6835    11693.064    1922.8487 
  258600    300.55178   -1160.9455    6407.0232    11666.905    1919.1922 
  258700    307.63888   -1160.8525    6398.1337    11809.514    1916.5753 
  258800    300.69162   -1164.8919    6428.8892    11687.812    1872.9671 
  258900    301.09206   -1160.0047    6407.0581    11679.423    1874.7629 
  259000    290.92431   -1160.5708    6456.9975    11511.578    1901.7905 
  259100    301.66607   -1157.3075    6406.7074    11694.033    1868.6956 
  259200    298.56278   -1162.5527    6454.6338    11670.417    1897.6602 
  259300    297.97937   -1158.3226    6466.2216    11673.771    1876.9191 
  259400    300.51328    -1161.142    6460.7443    11719.607    1884.5183 
  259500    299.28597   -1159.4174    6413.7496    11648.118    1920.0158 
  259600    299.93421   -1166.3635    6372.9372    11614.208    1834.1567 
  259700    300.17631   -1159.4449    6529.2654    11782.627    1871.7326 
  259800    291.62178   -1169.4567    6402.7928    11463.388    1821.6686 
  259900    300.97119   -1167.9729    6377.4854      11639.3    1877.9799 
  260000    293.17792   -1165.0078    6413.0541    11511.343    1864.6601 
  260100    297.08145   -1163.8383    6338.1315    11520.983    1837.6916 
  260200    301.02623   -1165.0348    6444.7253    11710.654    1954.7688 
  260300    301.48228   -1163.0155    6497.8352    11775.526    1920.8953 
  260400    299.87554   -1168.1099    6384.6328    11622.904    1865.9012 
  260500     302.6461   -1172.8374    6303.5095    11596.242    1848.0357 
  260600    298.15512   -1167.9813    6499.7829    11701.428    1927.0721 
  260700    299.74218   -1168.9891     6400.193    11634.736    1857.7873 
  260800    301.88198   -1169.2661     6467.263    11747.242     1897.043 
  260900    298.88293   -1166.0114    6488.1648    11707.329    1924.4909 
  261000    302.99904   -1172.8601    6275.5701     11575.82    1887.4064 
  261100    299.27977   -1170.5841    6401.7683    11624.837    1909.1375 
  261200    296.27664   -1164.1302    6463.3964    11628.762    1910.6096 
  261300    301.39683   -1158.9341    6483.4075    11763.354    1865.7825 
  261400    298.25892    -1162.374    6371.9694     11581.44    1879.0728 
  261500    300.17782   -1163.7546    6393.5108    11642.595    1895.2314 
  261600    300.93077   -1171.2801    6353.6965     11611.34    1896.4673 
  261700    300.37509   -1162.7711    6423.6707    11677.952    1910.3848 
  261800    295.78321   -1162.5288    6489.4113    11645.837    1869.2819 
  261900    301.42251   -1164.7892     6473.775    11748.415    1907.5937 
  262000    299.04321   -1163.9765    6447.0918    11671.715    1923.8623 
  262100    303.59642   -1156.5219    6353.0164    11682.366    1867.0133 
  262200    298.16941   -1152.9209    6486.7346    11703.746    1948.2055 
  262300    300.05613   -1159.8921    6450.9778    11701.325    1900.1409 
  262400    302.80225   -1158.4924    6512.0219    11822.435    1906.6319 
  262500    298.38694   -1159.4648    6458.8475    11673.962    1851.6605 
  262600    297.79223   -1158.5815    6392.5979     11595.89    1869.2115 
  262700    306.84853   -1160.7677    6352.4689    11747.049    1799.4737 
  262800    298.67406   -1158.8451    6522.1833    11744.051    1851.0931 
  262900    304.25356   -1157.7348    6407.5279    11749.703    1825.0702 
  263000    299.11083   -1160.8274    6349.6082    11578.825    1837.7147 
  263100    301.58271    -1163.226    6502.8336    11782.459    1944.7105 
  263200    300.96188   -1161.8664     6401.253    11668.976    1860.6194 
  263300     299.8194   -1164.7331     6496.438    11736.886    1959.5826 
  263400    296.39288   -1164.2088    6471.8904    11639.661    1918.5095 
  263500    301.06663   -1163.1603    6423.8829    11692.549    1926.1163 
  263600    300.31042   -1171.2939    6443.3705    11687.748    1867.7111 
  263700    299.27628   -1170.5648     6303.488    11526.502    1876.0257 
  263800    298.58258   -1164.6963    6463.9818    11678.044    1964.0999 
  263900    300.08556   -1163.5548      6462.21    11709.523    1909.0546 
  264000    296.65643   -1162.9231    6410.3971    11585.083    1856.3742 
  264100    301.46008   -1162.2943    6439.1896    11717.127    1902.5218 
  264200    305.63118   -1171.2755    6338.0077    11696.073    1857.1758 
  264300    298.49728   -1165.8693    6461.6085    11672.676    1893.2742 
  264400    300.12152   -1168.7287    6407.4319    11650.339    1903.7244 
  264500    301.63821   -1165.4801    6336.6052    11615.163    1898.1735 
  264600    297.06094   -1168.5095     6399.391    11577.133    1870.1356 
  264700    304.86454   -1163.9874    6551.2562    11900.232    1870.6813 
  264800    300.39858    -1165.004     6447.968    11700.519    1832.5457 
  264900    302.54703   -1159.3532    6414.6837    11718.784     1827.463 
  265000    299.91141    -1161.828    6409.7329    11655.052    1836.9281 
  265100    299.34767   -1165.1739    6400.6696    11630.599    1849.4038 
  265200    300.26871   -1158.2951    6439.7929    11696.278    1909.1151 
  265300     294.0759   -1156.7931    6451.7303    11577.417    1889.6218 
  265400    303.33033   -1156.1897    6398.2473    11722.245    1893.0835 
  265500    299.61403   -1154.6892    6428.5904    11674.695    1955.9803 
  265600     295.3317   -1155.5241    6559.3796    11713.164    1998.6083 
  265700    301.86609   -1154.7056     6432.276    11726.476    1920.5006 
  265800    298.04261   -1156.0022    6442.8231    11654.044    1943.1608 
  265900    301.23424   -1156.0166     6365.963    11645.354    1891.8902 
  266000    296.59566   -1158.3004    6423.6875    11601.698    1891.8719 
  266100    298.99147    -1160.946    6452.8078    11679.356    1906.6476 
  266200    299.84932    -1160.964    6348.7508    11593.608    1853.9664 
  266300    302.86054   -1158.1795    6521.0804    11833.052    1929.9254 
  266400    295.45335   -1157.5111    6468.6996    11623.096    1922.4985 
  266500    300.00894   -1160.9134    6478.9287    11727.246    1912.8893 
  266600    302.80937   -1163.4234    6447.8848    11753.519    1917.8027 
  266700    297.14629   -1162.6851     6374.021     11559.41    1941.9113 
  266800    303.81363   -1163.2866    6380.1397    11707.365    1987.5614 
  266900    296.22692   -1166.4726     6453.058    11615.019    1954.7282 
  267000    299.82754   -1166.8661    6428.5589    11667.048    1874.9851 
  267100    301.87081    -1164.359    6410.8589    11695.507    1886.6426 
  267200    296.33318    -1177.737    6433.8818    11586.848    1877.7243 
  267300    291.98556   -1165.7898     6314.346     11386.38    1793.3568 
  267400     300.1713    -1171.374    6360.8086    11602.134    1894.6049 
  267500    299.56127   -1170.8718    6492.1025    11720.898    1977.9818 
  267600    300.67023   -1164.6309    6374.9722      11633.7    1906.5967 
  267700    301.78013   -1164.6147    6299.7612    11582.216    1857.1881 
  267800    297.28905   -1168.2437    6494.0886    11676.969    1977.4104 
  267900    302.26675   -1169.1345    6500.2517    11788.583    1939.6495 
  268000    295.39605   -1174.7374    6389.0613    11525.007    1911.7491 
  268100    295.91112   -1164.5543     6444.472    11601.605    1946.4915 
  268200    297.63571   -1168.1865    6449.6493    11639.993    1908.0847 
  268300    302.18674   -1167.5392    6421.5686    11709.785    1905.6955 
  268400    299.08953   -1162.0361    6392.8105    11620.363    1890.6768 
  268500    299.44768   -1159.9773    6543.6139    11780.877    1926.1109 
  268600    301.93868   -1160.2153    6479.0563    11769.298    1882.1828 
  268700    298.69166   -1158.7631    6358.0195    11580.345    1786.6498 
  268800    299.43328   -1163.3455    6474.5503    11708.137    1870.5321 
  268900     304.3794   -1161.9752    6482.0948    11822.718    1860.5087 
  269000    298.93296   -1161.1989    6347.9634    11573.009    1811.6601 
  269100    302.71759   -1158.0924    6462.0057     11771.01    1877.0976 
  269200    297.65771   -1162.8188    6490.4087     11686.59    1884.5392 
  269300    301.51554   -1162.4324    6408.4099    11687.394    1894.0775 
  269400    301.81951   -1163.2178    6408.6085    11693.301    1908.5817 
  269500    302.99089   -1158.5182    6340.7678    11655.185    1915.2907 
  269600    301.37317    -1158.982    6372.2738    11651.667    1930.4836 
  269700    299.27029   -1156.0942    6434.3722    11671.729     1941.899 
  269800    299.81894   -1159.3171    6320.8116    11566.666    1847.5134 
  269900    299.67242   -1159.0653    6359.5539     11602.53      1864.97 
  270000    299.61993   -1158.8956    6611.7136    11853.738    1972.9735 
  270100    301.46115   -1166.2573     6283.679    11557.677    1843.9654 
  270200    299.31127   -1172.1007    6473.7386    11695.964    1922.3279 
  270300    304.15914   -1170.2764    6405.9895    11733.606    1931.1271 
  270400    297.33443   -1167.0109    6419.9515    11605.034    1890.1635 
  270500    299.97233   -1166.4464    6498.8004    11740.803    1909.7274 
  270600     308.9676   -1163.3211    6318.9917    11756.289    1924.9271 
  270700    300.15889   -1162.0008    6376.5717    11627.005    1871.2701 
  270800    303.96833   -1166.5984    6475.3492    11802.568    1844.6503 
  270900     299.0376   -1168.3287     6525.398    11745.549    1862.5111 
  271000    306.07322    -1170.677    6363.5491    11731.657    1883.5061 
  271100    297.64917   -1168.9837    6372.0298    11561.864    1846.3858 
  271200    303.49359    -1170.709    6332.1355    11645.101    1832.3878 
  271300    302.30711     -1164.99     6368.368    11661.706    1857.2381 
  271400    298.35475   -1159.7115    6469.9717    11684.152    1894.2303 
  271500    301.98097    -1163.876    6416.5191    11704.003    1933.7211 
  271600    297.46009   -1159.4323    6389.5126    11584.859    1900.5775 
  271700    296.79037   -1158.4554    6461.3102    11643.326    1928.6301 
  271800    303.04297   -1163.1369    6443.9249    11754.836     1949.347 
  271900    295.33776   -1167.4784    6356.6508    11498.611    1920.8995 
  272000     302.1922   -1165.3923    6341.4365    11631.917    1886.1583 
  272100    297.41695   -1163.1731    6478.9266     11669.61     1889.587 
  272200    298.07078    -1165.725    6485.5979    11687.698    1874.2294 
  272300    305.13807   -1161.6145     6523.202    11880.394    1975.2458 
  272400    301.83467   -1164.6205    6380.6916    11664.306    1927.4452 
  272500    305.18533   -1161.0235    6326.2531    11685.046    1884.7364 
  272600    296.56544   -1156.4908    6357.6195    11536.794    1896.1356 
  272700    300.27038   -1160.3613    6390.5984    11645.053     1825.269 
  272800    300.83504   -1162.3278    6567.2638    11831.815    1940.4447 
  272900    300.17524   -1167.1236     6428.826    11674.486    1915.6315 
  273000    299.52268   -1166.5593    6399.5625    11631.846    1893.0822 
  273100     300.3372   -1168.5543     6428.419    11676.108    1874.5041 
  273200    293.09404   -1165.8269    6505.5031    11601.181    1902.1917 
  273300    301.22414   -1162.9527    6439.1396    11711.379     1896.738 
  273400     296.4783     -1162.48    6378.0143    11549.338    1875.3911 
  273500    302.75281   -1157.1202    6433.2522    11743.981    1923.1406 
  273600    298.28702   -1167.3687    6378.7689    11583.845    1908.6125 
  273700    300.07222   -1165.6551    6317.6719    11562.599    1896.8956 
  273800    303.26114   -1159.5593    6468.2442    11787.394     1924.034 
  273900    299.01602    -1165.701    6453.5157    11675.833    1873.4068 
  274000    292.13052   -1165.6933    6423.9096    11499.137    1843.8028 
  274100    301.08627   -1169.6844    6333.0021    11595.564    1875.8717 
  274200    298.91853   -1163.8385    6360.6044    11582.702    1886.5668 
  274300    297.56461   -1164.1868     6489.096    11681.921    1855.7661 
  274400    302.19735   -1160.0351    6463.8324     11759.78    1875.1384 
  274500    297.22195   -1158.8366    6430.8494    11621.704     1931.397 
  274600    301.94423   -1159.6622    6325.1826    11616.095    1957.6212 
  274700    301.50176   -1164.2664     6343.413    11620.269    1924.7068 
  274800    295.27381   -1165.1064    6501.7144     11644.68    1921.0522 
  274900    301.79219   -1157.8964    6520.0641    11809.495    1854.9418 
  275000    297.10447   -1164.3661     6353.506    11536.321    1789.7648 
  275100    303.12125   -1164.6405    6429.7818    11740.862    1833.2847 
  275200    300.59429   -1161.1693    6442.3954    11702.962    1852.7743 
  275300    294.54403   -1161.3005    6408.3917    11539.573    1871.5954 
  275400    303.68406   -1158.2635    6438.1829    11767.663    1907.8524 
  275500    299.21674   -1158.3246    6396.6133    11630.595    1909.1597 
  275600      302.464   -1158.6447    6449.2681    11752.303    1944.6587 
  275700    298.42682   -1162.4804    6419.7875    11632.738    1906.2497 
  275800    295.82106   -1163.4514    6402.4761    11558.788    1853.9011 
  275900    294.22103   -1161.8817    6465.6065    11589.306    1863.7045 
  276000    302.43851   -1164.0906    6459.9671    11757.011    1835.4944 
  276100    299.22623   -1165.8305     6443.449    11670.128    1888.3186 
  276200    300.27225   -1160.5578    6438.6866    11692.985    1890.4789 
  276300    299.91534   -1162.2546    6369.9827    11614.959    1859.8488 
  276400    299.60193    -1159.687    6414.9319     11655.78    1909.2553 
  276500     303.1276   -1160.0384     6351.579    11667.397     1940.697 
  276600    297.12194   -1161.1404    6407.8729    11594.287    1933.9503 
  276700    301.40667   -1156.7102    6453.7072    11736.088    1972.4048 
  276800    294.19132   -1163.3992    6300.3152    11421.862     1899.866 
  276900     301.5595   -1165.5794     6465.635    11742.412    1890.0191 
  277000    303.26207   -1161.7559     6452.091    11769.064    1838.9501 
  277100    300.93589   -1167.0338    6499.9291    11761.929    1916.6258 
  277200     299.3258   -1165.0587    6358.7987    11588.376    1890.3804 
  277300    304.03947   -1163.8656    6462.9605    11794.432    1971.9786 
  277400    300.12123   -1156.9761    6501.7647    11756.418    1963.1727 
  277500      296.956   -1152.8136    6388.1491    11579.345    1884.8922 
  277600    304.70303   -1159.0087    6365.1059     11715.61    1925.2527 
  277700    300.70264   -1160.9119    6439.4123    11702.551    1961.1368 
  277800    293.87736   -1163.0317    6401.5373    11516.745    1887.5461 
  277900    295.56602   -1161.4096    6383.5009    11536.406    1845.0156 
  278000    301.66724   -1167.1779    6430.3738    11707.854     1837.323 
  278100    298.76917    -1163.555    6484.5667    11703.757    1893.8305 
  278200    299.95691    -1157.051    6391.2782    11642.346    1837.7798 
  278300    300.71938   -1163.0153     6401.004    11662.397    1916.3565 
  278400    300.66033   -1163.3618    6354.4998    11614.285    1948.7538 
  278500    301.43854   -1157.6699     6462.234    11744.336    1973.9794 
  278600    298.43901   -1161.4704    6415.8919    11630.113    1885.0046 
  278700    297.98652   -1157.7241    6420.2442    11628.545    1925.2503 
  278800    302.82956   -1163.8995    6432.0965    11737.686    1880.7001 
  278900    295.64113   -1161.9082    6393.9603    11547.971    1820.1352 
  279000    299.72574   -1170.1706    6422.4132    11655.423    1918.8802 
  279100    298.43464   -1168.9522    6453.8007    11660.447    1925.9376 
  279200    305.46145   -1172.6002    6448.3908    11801.506    1896.4258 
  279300    297.75533   -1165.5616    6485.2139    11680.738    1896.4739 
  279400    302.63342   -1166.9551    6368.2197    11666.563    1932.7596 
  279500    305.77314   -1163.9215    6381.0416    11749.494    1903.2672 
  279600    305.64925   -1162.4381    6335.6586    11702.948    1886.1911 
  279700    297.66609   -1162.4388    6497.5879    11694.328    1970.4842 
  279800    302.93571   -1162.7349    6366.0001    11675.022    1927.5524 
  279900    297.24855   -1166.7409     6318.035    11501.553    1817.3437 
  280000    295.30544   -1169.2516    6445.9184    11585.414    1932.6909 
  280100    304.55337   -1166.5668    6434.1257    11773.874    1929.4971 
  280200    295.72632   -1172.4447    6371.3484    11516.643    1832.6642 
  280300    300.69601   -1158.0228    6499.9725    11765.859    1952.5143 
  280400    299.77931   -1159.7725    6489.0589    11733.611    1949.9542 
  280500    304.82717   -1170.6038    6389.2609    11730.822    1876.6821 
  280600    297.63453   -1162.0905    6302.8334    11499.248     1869.691 
  280700    301.06969   -1158.4094    6359.1486    11632.631    1903.3768 
  280800    300.34148   -1164.9651    6538.8798     11790.25    1915.1063 
  280900    297.30734   -1159.7007    6419.5799    11611.394    1835.4781 
  281000    297.06983   -1158.9433     6435.139    11622.637    1891.5275 
  281100    299.23739   -1165.6198    6388.3401    11615.468    1888.4029 
  281200    303.43951   -1168.3789    6444.5889    11758.729    1949.0229 
  281300    297.89757   -1157.3325    6378.0724    11584.864    1904.4959 
  281400    301.64692    -1157.918    6436.2337    11722.539     1877.164 
  281500    295.24981    -1163.027    6509.7912    11654.323    1992.6619 
  281600    302.13685   -1158.8781    6408.5443    11704.356    1963.9562 
  281700    299.83229   -1158.7063    6376.3213    11623.072    1941.0817 
  281800    292.28689   -1158.7887    6422.3157    11507.788    1928.6109 
  281900    302.56642   -1165.7685    6508.5074    11806.606    1949.0661 
  282000    302.29394    -1162.426    6440.1982    11735.819    1936.9584 
  282100    297.86966   -1167.0451    6334.2046    11530.688     1866.771 
  282200    304.78306   -1164.3267    6426.9256    11773.821    1866.4211 
  282300    296.60468   -1163.0348    6440.8913     11614.36    1855.3946 
  282400    298.06747   -1167.2388    6283.9985    11484.514    1872.8242 
  282500    302.01407   -1158.2038    6488.6229    11782.486    1958.5336 
  282600    300.08292   -1161.0615    6386.8556    11636.605    1835.0353 
  282700    300.34517   -1167.9063    6392.2979    11640.805    1857.9108 
  282800    303.90425   -1168.3733    6410.4379    11734.513    1911.2235 
  282900    296.81467     -1164.67    6422.1949    11598.515    1898.6994 
  283000    295.54531   -1171.7311    6437.3654    11579.506    1948.4176 
  283100     300.4606   -1166.1035    6511.0835     11763.86     1957.367 
  283200    297.13486   -1164.7702    6370.6964    11553.756    1822.0443 
  283300    299.56182   -1164.8671    6395.9976    11630.809    1870.7064 
  283400    301.07381   -1161.0947    6512.0883    11782.974     1966.496 
  283500    298.13787   -1156.8184    6461.3463    11673.786    1890.8604 
  283600     301.4849   -1161.7516    6374.6982    11653.709    1882.0854 
  283700    296.82743   -1166.1056    6478.4866    11653.644    2012.7655 
  283800    299.88493   -1156.1233    6434.9024     11685.36    1888.1881 
  283900    296.63706    -1162.607    6318.4431    11493.032    1800.4159 
  284000    299.00037    -1160.579    6376.3811    11603.486    1905.2641 
  284100     301.5815   -1153.1287    6457.4938    11747.191    1992.1405 
  284200    298.44644   -1153.6274    6472.0744    11694.297    1953.3412 
  284300    301.47168   -1154.1686    6341.1142    11627.426    1954.8454 
  284400    299.50337   -1158.1245    6492.7293    11733.035    1976.5079 
  284500    304.29292   -1155.8447     6484.339    11829.246    1944.0287 
  284600    298.88406   -1157.8238    6415.0192    11642.395    1950.3254 
  284700    301.67997   -1162.7243     6326.548    11608.753    2006.6727 
  284800    301.45047   -1163.4483    6462.8205    11739.399    1990.9959 
  284900    301.50262   -1157.7643    6423.7894    11707.166    1867.1843 
  285000    300.92068   -1158.6862    6445.3789    11715.401    1967.8783 
  285100    301.60576   -1160.9645    6382.9056    11665.285    1910.9872 
  285200    299.39866   -1156.1193    6429.9275    11670.001    1862.1076 
  285300    297.60709   -1159.3393    6375.6907     11574.27    1926.0812 
  285400    305.84078   -1164.5451    6499.7989    11869.073    1994.6232 
  285500    296.78936   -1166.5691    6460.8568    11634.737    1897.9405 
  285600    302.52396   -1166.4395    6435.9299    11732.451     1887.048 
  285700    297.33344    -1164.945    6504.1741    11691.302    1971.3704 
  285800    300.88459   -1166.8419    6399.5032    11660.599    1911.5831 
  285900    300.67098   -1169.0107    6330.3671    11584.731    1937.6505 
  286000    298.23313   -1161.8016    6482.0407    11691.532    2000.4328 
  286100    301.58266   -1162.6966    6376.5832    11656.737    1890.7183 
  286200    300.40756   -1161.7296    6508.1567    11764.174    1989.0996 
  286300    301.63505   -1167.6231    6334.4799    11610.827    1895.6751 
  286400    296.51308   -1169.4629     6520.045    11685.129    1914.6969 
  286500    299.35208    -1166.743    6416.4522    11644.907    1865.2001 
  286600    300.98898   -1170.9656    6385.3071    11644.509    1885.8753 
  286700    298.16302   -1172.3692    6378.8924    11576.319    1898.2522 
  286800    297.50369   -1164.2339    6376.8942     11568.37    1875.8021 
  286900    302.63692    -1165.622    6353.2244    11652.976     1893.328 
  287000    301.10369   -1158.7731    6525.7098    11799.555    1952.5672 
  287100    300.66428   -1156.9058    6501.2116    11767.537    1925.0453 
  287200    302.61181   -1156.3247    6338.8324    11647.345    1848.2693 
  287300    297.92815   -1159.2715    6386.2396    11591.746    1875.9518 
  287400    300.98706   -1168.5397    6424.7358    11686.323    1916.7521 
  287500    297.80482   -1164.9863    6452.9415    11650.098    1894.7028 
  287600    302.60758   -1159.6572    6480.4815    11785.571    1894.7929 
  287700    302.48545   -1163.3994    6374.8908    11673.629    1901.3615 
  287800    298.29005    -1161.294    6475.9185    11687.134    1940.7095 
  287900    301.20869    -1155.573    6485.0589    11764.347    1912.7262 
  288000    305.23317   -1151.5672    6411.9512    11781.222    1974.3383 
  288100    303.20221   -1160.3362    6353.5158     11670.63    1995.1254 
  288200    294.90643   -1161.5701    6419.0056    11557.659    1949.5922 
  288300     302.6862   -1157.4308    6446.1523    11755.148    1877.6574 
  288400    294.43695   -1163.2747    6435.1402    11562.059    1874.4752 
  288500     301.0605   -1165.8808    6475.3969    11741.212    1896.9696 
  288600    307.26229   -1165.5552    6455.5298    11854.162    1877.2678 
  288700    298.68065   -1165.6072    6498.1233     11713.37    1889.8076 
  288800    305.42314   -1163.9087    6451.6105    11812.598    1913.6484 
  288900    293.13407   -1161.0963     6298.927     11400.19    1849.0203 
  289000    297.96553   -1161.7211    6403.6238    11607.479    1889.9108 
  289100    296.81872   -1157.2878    6388.9557    11572.744    1926.0551 
  289200    299.79363    -1166.744    6434.6199    11672.507    1931.8489 
  289300    300.61368   -1162.6884     6461.427    11720.889    1873.1965 
  289400    301.77033   -1160.1433    6438.2827    11724.999    1913.2235 
  289500    297.56231    -1159.603    6425.7164    11623.076    1852.8176 
  289600    306.90235   -1165.9782    6330.0199     11720.54    1908.9207 
  289700     300.4877   -1163.7243    6405.0221    11660.756    1877.0278 
  289800    298.95046   -1161.9001    6578.4634    11803.181    1946.1765 
  289900    301.80541   -1163.4358    6445.1319    11729.306    1834.1655 
  290000    299.32261   -1162.9477    6347.6834    11579.304    1859.9026 
  290100    303.48889   -1157.1339    6457.7682    11784.209    1946.4976 
  290200     296.6269   -1159.7609    6477.7663    11654.984    1927.6685 
  290300    302.84127   -1159.0393    6345.6461    11656.346    1879.2993 
  290400    301.91992   -1159.1767    6376.7428    11667.622    1988.5631 
  290500    296.84776   -1157.5627    6401.3857     11585.52    1969.1061 
  290600    301.14162   -1158.0033    6402.5876    11678.013    1890.1005 
  290700    303.05487   -1163.0635    6396.1357    11707.374    1932.3456 
  290800    297.87569   -1164.2497    6428.5298    11627.937    1991.6118 
  290900    301.73925   -1159.9746     6464.602    11750.824    1851.9302 
  291000    295.47481   -1163.5498    6481.0078    11629.824    1857.4354 
  291100    299.28942   -1169.0897    6318.8644    11543.634    1938.2499 
  291200    303.06369   -1167.8398    6400.5034    11707.154    1912.4223 
  291300    296.78854   -1155.1536    6503.5824    11688.861    1881.7991 
  291400    301.26267    -1156.639    6509.5077    11788.883    1947.2813 
  291500    297.18714    -1166.468    6324.2315    11506.711    1799.6815 
  291600    303.28549   -1166.4221    6376.5229     11689.33    1862.1332 
  291700    302.25995   -1168.4393    6420.5767    11709.457    1959.1176 
  291800    294.60321    -1162.441    6478.5652     11609.87    1886.1429 
  291900    302.04087   -1167.3608    6361.3175    11646.597    1838.3589 
  292000    299.71617   -1166.6487    6382.1905    11618.518    1912.0474 
  292100    299.37837   -1168.8456    6517.7147    11744.629    1924.4614 
  292200    295.89102   -1166.5159    6408.6446    11563.386     1806.085 
  292300    301.01634   -1166.8208    6421.1413    11685.073    1916.0129 
  292400    292.63888   -1161.4473    6462.1628    11552.496    1909.7315 
  292500    298.82898   -1166.6326    6379.3526    11596.743     1885.115 
  292600    297.24828   -1163.8161    6357.1506    11543.588     1957.692 
  292700    301.08101     -1161.95    6360.6464     11630.83    1894.3206 
  292800    300.35245   -1162.6768     6530.364    11784.256    1933.4818 
  292900    302.25947   -1161.2957    6407.7142    11703.728    1857.3923 
  293000    294.57303   -1154.5496    6432.3799    11570.931     1952.375 
  293100    294.99668   -1161.7602    6425.1828    11565.574    1955.5532 
  293200    303.17483   -1159.6045    6424.0464    11741.307    1908.8075 
  293300    295.43452    -1161.306    6398.1392    11548.339     1916.492 
  293400     302.1696   -1161.5803    6437.6843    11731.494    1954.7181 
  293500    303.79541   -1161.0973    6382.3287    11711.354    1885.1772 
  293600    296.58783   -1162.3538    6405.4027    11579.193    1914.8002 
  293700     305.8939   -1159.6036    6389.9041    11765.254    1940.8544 
  293800    299.32926   -1158.8182    6422.2599    11658.152    1910.8261 
  293900    295.69273   -1149.8841    6431.6549    11598.792    1818.8086 
  294000    303.19802   -1158.4594    6432.8078    11751.709    1862.6647 
  294100    301.95354   -1159.6958    6350.0059    11641.084    1858.0126 
  294200      304.365   -1161.9137    6465.1023     11805.48     1896.641 
  294300    297.90337   -1161.9959    6459.7423    11661.995     1829.376 
  294400    297.54827   -1162.2749    6470.9196    11665.307    1833.7529 
  294500    304.14917   -1157.1636    6471.6407    11812.157    1836.2632 
  294600    301.14421   -1164.2554    6334.4124    11603.641    1865.4607 
  294700    295.09153   -1156.9138    6473.4833    11620.747    1944.2784 
  294800    300.21292   -1160.0663    6429.4931    11683.015    1839.5531 
  294900    295.77563   -1164.8143    6444.4503    11598.429    1890.1115 
  295000    298.00363   -1168.6529    6402.8671    11600.604    1839.2697 
  295100    299.39021   -1165.2154    6465.5883    11696.385    1851.6527 
  295200     297.7655   -1163.3565    6468.6014    11666.548    1824.6643 
  295300    297.25363   -1168.5341    6518.8203    11700.654    1851.2793 
  295400    301.28107   -1166.4779    6457.0299     11726.96     1938.152 
  295500    301.45334   -1162.4498    6315.0076    11592.646    1908.8937 
  295600    298.66253   -1158.8815    6335.1905    11556.776    1902.2236 
  295700    303.76198   -1165.4482    6500.1503    11824.111     1968.904 
  295800    298.57356   -1163.3764    6319.0194    11534.209    1861.4168 
  295900    298.35686   -1164.3068    6345.0164    11554.646    1884.7481 
  296000    300.19601    -1162.273    6539.1717    11790.126    1962.3009 
  296100    302.81986   -1171.0221    6434.7851    11733.045    1916.0619 
  296200    299.79515   -1165.1196    6387.2528    11626.797    1898.1711 
  296300    306.14602   -1167.3503    6543.3275    11916.317    1916.4734 
  296400    299.37005    -1164.311    6364.9059    11596.177    1873.9072 
  296500      297.572   -1159.1508    6364.1441    11562.162     1866.883 
  296600    301.66064   -1161.0494    6488.3941    11771.861    1930.2486 
  296700    294.82363   -1160.5749    6438.1695    11576.049    1960.2559 
  296800     301.2923   -1159.0282    6357.2056    11634.825     1943.355 
  296900    301.83706   -1162.9151    6432.1741    11717.545     1896.209 
  297000    297.88144   -1161.4528     6479.906    11682.233    1857.9265 
  297100    302.03412   -1163.4899    6504.3868    11793.392    1919.8273 
  297200    297.83634   -1161.0986    6540.3564    11742.074    1861.8324 
  297300    298.42545   -1162.1127    6413.0219    11626.311    1838.8542 
  297400    296.95702   -1163.2342     6436.097    11616.894    1936.0313 
  297500    303.43264   -1158.1848    6448.4887    11772.677    1940.7186 
  297600    294.37317   -1162.5343    6370.7654    11497.062    1911.4778 
  297700    302.08235   -1159.9664    6330.9718    11624.531    1932.0807 
  297800    301.67625   -1153.1148    6517.3297    11809.065    1953.4783 
  297900    299.37871   -1160.3621    6500.6733    11736.078    1946.7085 
  298000    300.88437   -1160.0592    6325.2881    11593.162    1862.4297 
  298100    301.59438   -1167.0333    6405.2567    11681.325    1908.4309 
  298200    303.34572   -1163.1047    6503.4277    11820.839    1969.5914 
  298300    301.23269   -1164.4714    6370.4829    11641.386    1901.1903 
  298400    301.00809   -1167.3312    6377.3001    11640.545    1863.9004 
  298500    298.81776   -1163.9135    6466.9065    11686.776    1905.7254 
  298600    298.94189   -1167.0929    6419.5244    11638.866    1906.3023 
  298700    300.13106   -1170.0104    6386.4912     11628.32    2004.2278 
  298800    302.13337   -1165.6819    6449.5792    11738.513    1921.7853 
  298900    300.95993   -1158.1969    6487.1461    11758.496    1915.4503 
  299000    300.60788   -1165.7268    6307.0288    11563.328    1878.9883 
  299100    297.37753   -1158.1767    6348.3609    11543.199    1886.7136 
  299200    301.11745   -1170.5554    6538.3901    11800.747    1892.7136 
  299300    304.53836   -1166.2417    6477.1869     11816.94    1898.2337 
  299400    298.22091   -1166.6681    6423.2501    11627.614     1872.567 
  299500    296.63724   -1168.4045    6384.5603    11553.355     1870.293 
  299600    300.87936   -1163.3797    6425.6012    11690.047    1924.8077 
  299700     297.8104   -1158.7478    6404.6702    11608.185    1954.1247 
  299800    299.29335   -1154.3605    6377.3484    11616.931    1968.6372 
  299900    302.67324   -1157.0114     6401.567    11710.705    1893.3898 
  300000    298.75536   -1159.1122    6454.3453    11677.683    1936.5468 
Loop time of 284.833 on 8 procs for 300000 steps with 7168 atoms

Pair  time (%) = 138.208 (48.5225)
Bond  time (%) = 81.0337 (28.4496)
Neigh time (%) = 19.5783 (6.8736)
Comm  time (%) = 31.1579 (10.939)
Outpt time (%) = 0.465557 (0.163449)
Other time (%) = 14.3893 (5.05186)

Nlocal:    896 ave 902 max 891 min
Histogram: 2 0 1 0 1 2 0 1 0 1
Nghost:    2846.38 ave 2850 max 2840 min
Histogram: 1 0 0 1 1 0 1 0 1 3
Neighs:    23594.6 ave 23971 max 23334 min
Histogram: 2 1 1 1 1 0 0 0 0 2

Total # of neighbors = 188757
Ave neighs/atom = 26.3333
Ave special neighs/atom = 157.056
Neighbor list builds = 3051
Dangerous builds = 0
unfix           NVT
# −−−−−−−−−−−−−−− Equilibration in nve −−−−−−−−−−−−−−−−−
fix             NVE all nve
run             300000
Memory usage per processor = 11.5453 Mbytes
Step Temp E_pair E_mol TotEng Press 
  300000    298.75536   -1159.1122    6454.3453    11677.683    1936.5468 
  300100     298.5244   -1161.9045    6461.9851    11677.596    1960.8598 
  300200    299.55016   -1162.6063    6440.6866     11677.51      1910.95 
  300300    298.07957   -1157.5808    6467.0612    11677.493    1844.0043 
  300400    300.40462   -1162.2699    6422.1031    11677.517     1858.455 
  300500    298.42128   -1161.6182    6463.9226    11677.617    1887.5984 
  300600    303.41815    -1151.692    6347.2104    11677.582    1849.5345 
  300700    299.49762   -1157.2556    6436.6005    11677.652     1988.719 
  300800    298.01539   -1155.4532    6466.4515     11677.64      1947.62 
  300900    301.60001    -1156.323    6390.6503    11677.549    1879.3499 
  301000    301.26088   -1154.8839    6396.4963    11677.589    1915.3303 
  301100    298.70013    -1161.261    6457.5682    11677.577    1908.9449 
  301200    297.71766   -1160.4973    6477.8477    11677.631    1926.9856 
  301300    301.21449   -1159.9123    6402.6321    11677.705    1875.4922 
  301400    297.63431   -1160.5812    6479.7732    11677.693     1907.243 
  301500    299.23473   -1159.1195    6444.1062    11677.678    1973.1466 
  301600    302.75337   -1162.3832    6372.2709    11677.749     1956.782 
  301700    298.04831   -1160.9873    6471.3972    11677.755     1895.851 
  301800    299.93532   -1165.0283    6435.1051    11677.735    1919.2237 
  301900    300.43362   -1159.9207    6419.4341    11677.817    1889.8116 
  302000    300.39494   -1167.4119    6427.7652     11677.83    1908.7462 
  302100    300.69806   -1162.9074    6416.6741     11677.72    1877.2322 
  302200    299.59788   -1163.2758    6440.6039    11677.777    1937.4668 
  302300    298.63387   -1161.9072    6459.8239    11677.771    1985.2249 
  302400    300.50255   -1162.8492    6420.8343    11677.761    1932.2662 
  302500    302.34597   -1166.4557    6385.1458    11677.848    1881.9589 
  302600    298.69784   -1167.0389    6463.6494    11677.832    1951.9659 
  302700    299.50513    -1162.422    6441.7366    11677.782    1927.1773 
  302800    303.07636   -1160.9686    6363.9863    11677.779    1849.7104 
  302900    299.74064   -1165.2026    6439.4657    11677.762    1821.2758 
  303000    299.53227   -1160.7884    6439.5045    11677.763    1898.5575 
  303100    298.94623   -1161.1529    6452.4176    11677.792     1908.043 
  303200    300.49999   -1167.4388    6425.4168    11677.699    1921.1722 
  303300    297.92463   -1166.3944    6479.5647    11677.873    1900.0286 
  303400    300.69613    -1165.357    6419.2967    11677.851    1880.1037 
  303500    301.91011   -1163.8527    6391.7917    11677.785    1941.6192 
  303600    302.02786   -1162.5538    6387.8778    11677.686    1877.8951 
  303700    298.87249   -1161.7862    6454.5349    11677.701     1886.167 
  303800    304.82312   -1162.8783    6328.5355    11677.736    1885.3348 
  303900    296.12494   -1160.8783    6512.3083    11677.685    1982.7561 
  304000    304.07258   -1161.1235    6342.8736    11677.794    1909.3961 
  304100    300.78234   -1161.2581    6413.2161    11677.711    1955.5334 
  304200    300.85542   -1161.8448    6412.2189    11677.688    2003.7631 
  304300     301.0996   -1158.7667    6403.9379    11677.702    1976.9276 
  304400     296.4956   -1163.8534    6507.3752    11677.695    1939.3067 
  304500    300.22528   -1164.6604    6428.5008    11677.693    1960.5501 
  304600    300.67989   -1162.3352    6416.4668    11677.696    1980.7905 
  304700    297.99419   -1163.7931    6475.3583    11677.754    1941.0679 
  304800    302.47857   -1159.7209    6375.5172    11677.787    1865.9702 
  304900    296.65391   -1164.3557    6504.5982    11677.798      1937.04 
  305000    301.51572   -1163.4968    6399.9106    11677.835    1869.6409 
  305100    301.15445   -1164.3988    6408.4962      11677.8    1864.0967 
  305200    300.03621   -1170.2964    6438.2308    11677.748    1906.4856 
  305300    300.65767   -1170.5905    6425.3284    11677.828    1928.6721 
  305400    296.06948   -1168.4916    6521.2969    11677.876    1928.9819 
  305500     303.7501    -1169.307    6358.0111    11677.859    1866.0599 
  305600    300.26649   -1166.7052    6429.8039    11677.832     1922.861 
  305700    301.42155   -1161.9537    6400.2791    11677.734    1848.2498 
  305800    302.04485   -1167.4796    6392.4765    11677.722    1839.7135 
  305900    301.46785   -1157.6373    6395.0506    11677.811    1914.0913 
  306000    300.73285   -1155.1826    6408.2535    11677.767    1878.4423 
  306100    297.49939   -1156.6644    6478.7716    11677.725    1890.6104 
  306200    301.70174   -1164.4652    6396.8438    11677.773    1925.1501 
  306300    299.87633    -1165.785    6437.1241    11677.737    1919.9575 
  306400    301.17647   -1167.5667     6411.169    11677.775    1829.3052 
  306500    305.04921   -1165.6311    6326.4733    11677.751    1876.1907 
  306600    298.08566   -1161.0636    6470.6156    11677.695    1909.9311 
  306700    296.66165   -1160.3637    6500.2739    11677.631    1875.4888 
  306800    303.28639   -1159.6732    6357.9798    11677.555     1916.744 
  306900    300.38669   -1154.7578    6414.8991    11677.442    1916.0553 
  307000    297.35513   -1156.2214    6481.1829    11677.498    1872.3415 
  307100    297.87698   -1151.7689    6465.6485    11677.564    1885.3956 
  307200    300.78407   -1154.6843    6406.4669    11677.573    1948.7316 
  307300    300.64027   -1161.5221    6416.3841     11677.58    1952.1626 
  307400    303.33277    -1158.693    6356.0893    11677.636    1899.0184 
  307500    297.43561     -1166.61    6490.0523    11677.698    1898.2524 
  307600    296.66433   -1160.7028    6500.6138    11677.689    1920.1955 
  307700    304.31612   -1157.3528    6333.6882    11677.582    1941.8944 
  307800     303.1304   -1157.3621    6359.0442    11677.598    1955.3107 
  307900    294.22282   -1151.0937    6543.0525    11677.578     1951.335 
  308000    299.36874   -1153.2883    6435.3889    11677.654    1945.6649 
  308100    302.43216   -1162.0027    6378.6058    11677.602    1885.2651 
  308200    300.46064   -1164.6056    6423.3911    11677.666    1919.5775 
  308300    300.90832   -1164.8843    6414.2104    11677.771    1972.7496 
  308400     295.8588   -1169.9315     6527.148    11677.786    2007.0452 
  308500    299.72396   -1167.2361    6441.8366    11677.743    1895.0677 
  308600    298.89598   -1164.8302    6457.0966     11677.72    1939.0642 
  308700    298.17943   -1168.9518    6476.5185    11677.713    2003.0763 
  308800    303.10438   -1164.0352    6366.3571    11677.682     1913.029 
  308900    299.11841   -1167.8165    6455.3077    11677.697    1934.6862 
  309000    304.27289   -1165.0879    6342.6053    11677.841     1998.714 
  309100    298.74117   -1165.8784    6461.5551    11677.823     1980.759 
  309200    301.36338   -1166.5006    6406.1904    11677.856    1920.9451 
  309300    301.23602   -1166.6611    6409.0436    11677.828    1987.3376 
  309400    298.99957   -1169.4222    6459.7047    11677.949    1957.6658 
  309500    301.28637   -1171.4427    6412.7944    11677.873    1896.0671 
  309600    302.23971   -1168.7928    6389.7314    11677.826    1903.7769 
  309700    298.92447   -1172.3916    6464.1254    11677.797    1947.3973 
  309800     297.2439   -1160.9779    6488.6727    11677.855    1939.9838 
  309900    301.99988   -1164.3766    6390.4156    11677.803    1968.8068 
  310000    297.94388   -1164.0017    6476.6759    11677.788    1991.0667 
  310100    302.05817   -1164.6217    6389.4139    11677.801    1916.2324 
  310200    301.82977   -1163.9359    6393.5499    11677.744     1983.725 
  310300    297.35031   -1162.1125    6487.4014    11677.722    1954.5062 
  310400    301.25554   -1165.2916    6407.1739    11677.745    1907.0779 
  310500    296.93189   -1161.4468    6495.7084    11677.756    1963.4883 
  310600    299.13459   -1161.4023    6448.6219    11677.771    1914.7944 
  310700    304.53087   -1163.3095    6335.1535    11677.679     1855.232 
  310800    297.16708    -1161.708    6490.8769    11677.688    1926.9734 
  310900    299.16468   -1167.3266     6453.794    11677.662    1895.2242 
  311000    303.23255    -1166.486    6366.1017    11677.714    1892.1398 
  311100    300.96858   -1165.5089    6413.4856    11677.709    1920.9356 
  311200    300.36227   -1162.3425    6423.2435     11677.68    1858.8425 
  311300     298.0212   -1158.1583    6469.1894    11677.797    1897.1792 
  311400    303.30775   -1165.6395    6363.7247     11677.79    1937.9051 
  311500    301.54318   -1165.5876    6401.3976    11677.817     1894.924 
  311600    297.59631   -1157.6265    6477.7245    11677.786    1849.6211 
  311700    299.33677   -1164.1948    6447.2101    11677.886    1893.4778 
  311800    300.57799   -1172.1993    6428.6672    11677.855     1871.178 
  311900    299.33469   -1169.7006     6452.713    11677.839     1897.217 
  312000    300.97162   -1165.0883    6413.1393    11677.848     1929.859 
  312100    299.42063   -1166.5202    6447.7655    11677.908    1974.8245 
  312200    299.85636   -1166.1802    6438.0536    11677.844    1914.2989 
  312300    301.36185   -1161.4175    6401.0613    11677.777      1951.73 
  312400    300.12045   -1163.1447    6429.3541    11677.822    1949.4043 
  312500    301.52167   -1165.3947    6401.6529    11677.806    1859.2663 
  312600    301.78767   -1169.0966    6399.6746    11677.808    1934.0118 
  312700    303.00422   -1171.0607    6375.5939    11677.753    1904.8476 
  312800    300.63783   -1172.2214    6427.3691    11677.814    1866.4843 
  312900    298.93043   -1164.3384    6455.9298    11677.781    1878.0392 
  313000    302.51552   -1169.6876    6384.6561    11677.748    1959.3393 
  313100    297.71981   -1169.3926       6486.8    11677.734    1965.9547 
  313200    300.54143   -1159.4629    6416.5714    11677.715    1944.7035 
  313300    300.94598   -1162.0335    6410.5317    11677.747    1961.6781 
  313400    301.22768   -1157.2416    6399.6643     11677.69    1936.0886 
  313500    297.78134   -1160.5754    6476.5439     11677.61    1887.7538 
  313600    302.88788   -1161.1736    6368.0716    11677.633    1872.5855 
  313700    300.68116   -1166.2635    6420.3947    11677.723    1951.2558 
  313800    302.42052   -1167.0978    6384.0051    11677.658    1871.9396 
  313900    296.31563   -1162.6554    6509.9925    11677.666    1848.3146 
  314000    297.91501   -1164.8914    6478.1495    11677.755    1927.0489 
  314100    302.60834   -1162.0876     6374.976    11677.651    1961.9662 
  314200    297.68803   -1163.3786    6481.2658    11677.535    1900.1551 
  314300    298.32681   -1161.4058    6465.6965    11677.585    1906.3973 
  314400    302.24193   -1162.4104    6383.1042    11677.629     1929.322 
  314500    297.79317   -1160.5223    6476.3128    11677.684    1898.4324 
  314600    299.62656   -1157.0664    6433.7853    11677.781      1881.71 
  314700    300.63218   -1167.7446    6422.9193     11677.72    1859.7065 
  314800    300.03388   -1168.8489     6436.844    11677.759    1907.7748 
  314900    300.50136   -1164.3014    6422.2776    11677.727    1931.2294 
  315000    298.14995   -1165.5567    6473.8954    11677.855    1948.2505 
  315100    301.21536   -1169.5727    6412.2923    11677.724    1917.6419 
  315200    301.91651   -1163.7641    6391.6113     11677.83    1894.7547 
  315300    299.43044   -1163.8232    6444.7406    11677.789    1888.4648 
  315400    300.40238   -1167.3059    6427.5025    11677.833    1982.9168 
  315500    302.44332   -1165.7356    6382.2504    11677.752    2025.5062 
  315600    301.17826    -1151.996     6395.536    11677.751    1986.9611 
  315700    298.49742   -1159.4011    6460.3091    11677.847    1878.2916 
  315800    301.89123   -1172.8097    6401.2884    11677.922    1895.5402 
  315900    302.58547   -1164.0557     6377.679    11677.898    1953.5211 
  316000    299.71338   -1164.0677    6438.8701    11677.719    1908.3964 
  316100     298.5698   -1167.3272    6466.6771    11677.836      2000.56 
  316200    300.89091   -1165.7185     6415.261    11677.615    1946.1769 
  316300    297.76664    -1158.698     6475.033    11677.662    1928.0742 
  316400    297.44468   -1158.0403     6481.318    11677.727    1955.2227 
  316500    298.34053   -1159.4232    6463.5141    11677.679    1951.1818 
  316600    302.59122   -1161.9808    6375.2145    11677.631    1939.1013 
  316700    298.46904   -1160.8313    6462.0943    11677.596    1962.7832 
  316800     301.3395   -1162.0073    6401.9666    11677.615    1889.6057 
  316900    297.76313   -1164.1693    6480.5932    11677.676    1929.6951 
  317000    298.09981   -1159.2725    6468.5344    11677.707    1861.6017 
  317100    300.67484   -1159.0723    6413.2544    11677.639    1861.8968 
  317200    301.72931   -1159.0543    6390.6173    11677.547    1843.1842 
  317300    296.90804   -1151.8543    6486.4981    11677.628    1952.0334 
  317400    300.75598   -1152.5708    6404.9655    11677.585     1887.774 
  317500    303.05629   -1158.6045    6361.7729    11677.501    1944.9189 
  317600    300.37031   -1164.9466    6425.6563     11677.66    1932.6595 
  317700    297.58879   -1161.7641    6481.9159     11677.68    1851.7931 
  317800    302.60749   -1156.0592    6369.0018    11677.687    1830.8343 
  317900    301.01715   -1172.1452    6419.1742    11677.799    1935.6974 
  318000    299.57184   -1169.0076    6446.8954    11677.781    1961.2695 
  318100    300.56624   -1163.8512    6420.4384    11677.724    1921.6736 
  318200    299.35697   -1159.6477     6442.149    11677.804    1967.2699 
  318300    301.20186   -1158.4385    6401.4979    11677.775    1983.0888 
  318400    302.26867   -1158.8325     6379.131    11677.805    1869.2857 
  318500    297.94427    -1161.075    6473.7219    11677.769    1917.2557 
  318600    299.80671   -1159.0853    6432.0173    11677.842    1937.9756 
  318700    299.63439   -1167.0534    6443.7783    11677.954    1905.7024 
  318800    303.28762   -1175.0498    6373.7299    11677.955    1923.5543 
  318900     300.9341   -1172.1743    6421.0893     11677.91    1918.5872 
  319000    297.14612   -1169.9545     6499.842    11677.958    1880.1393 
  319100    303.25044   -1169.7013    6369.0448    11677.824    1885.9898 
  319200    300.81948   -1166.0095    6417.2611    11677.798    1980.5322 
  319300    300.11473   -1162.8434    6429.1481    11677.795    1995.4628 
  319400    301.85907   -1163.3336    6392.3808    11677.803    1928.6933 
  319500    297.37866   -1165.8033    6490.6456    11677.881    1911.2735 
  319600    300.03124   -1162.1416    6430.1447     11677.71    1963.4288 
  319700    300.66744   -1168.0033    6422.4637    11677.759    1937.9117 
  319800    298.42508   -1167.6312    6470.0315    11677.794    1919.1206 
  319900    301.50558   -1160.9778    6397.5874    11677.814    1889.0896 
  320000    300.46377   -1166.1114    6424.8734     11677.71    1900.1487 
  320100    297.45502   -1160.6617    6483.7032    11677.712     1925.635 
  320200    303.99357    -1160.502    6343.7801    11677.634    1939.8692 
  320300    300.22284   -1162.5505    6426.4075    11677.657    1951.0409 
  320400    301.14074   -1154.9503    6399.1307     11677.59    1939.1693 
  320500    298.76274   -1159.1213    6454.1304    11677.617    1969.2728 
  320600    300.38953   -1158.6942     6418.927    11677.594      1946.63 
  320700    300.93296    -1159.253    6407.8595    11677.577    1964.4307 
  320800    296.76956   -1156.7532    6494.3515    11677.625    1941.1481 
  320900    303.07596   -1160.7523    6363.5651    11677.566    1866.6172 
  321000    299.23655   -1158.9702    6443.8088    11677.568    1890.0635 
  321100    297.58516   -1161.9599    6482.1222    11677.613    1964.1994 
  321200    301.78565   -1161.0857    6391.4293    11677.531    1945.5477 
  321300    299.04758   -1155.6112    6444.4672    11677.549    1969.1945 
  321400    299.82602   -1155.4154    6427.7128     11677.62    1987.3362 
  321500    298.99225   -1154.7667    6444.9381    11677.682    1914.2199 
  321600    301.35124   -1158.4114    6398.1892    11677.685     1902.905 
  321700    298.55547    -1162.085    6461.5563    11677.651     1933.579 
  321800    301.22475   -1163.2073    6405.7299    11677.727    1940.2629 
  321900    299.64482   -1158.3921    6434.7194    11677.779    1926.0823 
  322000    297.75287   -1160.7063    6477.4706    11677.798    1947.8307 
  322100    300.00433    -1164.974    6433.6009    11677.759    1901.4034 
  322200    302.24919   -1163.1343    6383.8185    11677.774    1931.9701 
  322300    301.57451   -1163.5856    6398.6296    11677.721    2012.8164 
  322400    299.68796   -1163.3994    6438.7764     11677.75    1986.1757 
  322500    301.19945   -1158.7046    6401.7682    11677.728    1921.5426 
  322600    298.20826   -1156.6167    6463.8281    11677.973     1941.006 
  322700    298.50679   -1167.1813    6467.9918     11677.95    1938.3366 
  322800    303.87992   -1164.1174    6350.0761    11677.887    1867.9621 
  322900    298.01682   -1170.6854    6481.9225    11677.909    1890.3771 
  323000     296.4134   -1167.1849    6512.7231    11677.956    1891.9204 
  323100    301.08449   -1164.0021    6409.6991    11677.905    1903.5243 
  323200     298.5465   -1164.1235    6463.9194    11677.784    1941.8581 
  323300    302.19497   -1160.8883    6382.7809    11677.824    1934.8524 
  323400     298.1732   -1156.7247    6464.6114      11677.9    1928.6922 
  323500    299.43887   -1160.6253    6441.3818    11677.808    1927.1385 
  323600    301.97555   -1158.7037    6385.2139    11677.754    1922.9347 
  323700    298.43943   -1160.8171    6462.9417    11677.825    1920.5987 
  323800    304.31858   -1166.2618    6342.7904    11677.828    1869.3827 
  323900    296.38721   -1160.0023    6505.8123    11677.668    1871.5149 
  324000    302.23616   -1163.0696    6383.8988    11677.641     1808.638 
  324100    299.84778   -1168.0806    6439.9881    11677.695    1875.8645 
  324200     299.3218   -1161.2831    6444.4427    11677.711    1871.1167 
  324300    297.78005   -1157.6414    6473.5896    11677.562    1853.1104 
  324400    302.37174   -1151.9694    6369.8062    11677.545      1909.55 
  324500     300.2119   -1150.1361    6414.1062    11677.537    1967.4111 
  324600    297.72929   -1158.7609     6475.762    11677.531    1869.9657 
  324700     305.0472   -1160.8961    6321.5499    11677.519     1787.727 
  324800     299.2247   -1162.7847    6447.9451    11677.637    1876.0551 
  324900    297.40343   -1163.8296    6487.9802    11677.719    1874.8223 
  325000     301.0805   -1166.9821     6412.532    11677.673    1892.8674 
  325100    297.38187   -1163.4575    6488.0328    11677.683     1960.679 
  325200    302.64182   -1161.0294    6373.2355    11677.684    1934.8607 
  325300    298.78647   -1160.2636    6454.7799    11677.631    1930.6414 
  325400    300.19048   -1156.0554    6420.5895    11677.643    1916.5709 
  325500    299.12219   -1162.7655    6450.1374    11677.659    1953.8491 
  325600    303.75439   -1162.9393     6351.462    11677.769    1897.8299 
  325700     302.7381   -1164.5471    6374.8226     11677.81    1790.7721 
  325800    297.85615    -1167.832    6482.4871    11677.895    1891.5043 
  325900    303.95265   -1166.2916     6350.654    11677.844    1859.1949 
  326000     297.4837   -1171.9747     6494.617    11677.925    1855.1316 
  326100    299.99139   -1168.6742    6437.7853    11677.967    1892.7381 
  326200    300.08436   -1162.6843    6429.6646    11677.822    1923.8525 
  326300    301.33292     -1151.13    6391.4425    11677.828       1862.6 
  326400    298.65114   -1165.0126    6462.6926    11677.903    1917.9428 
  326500    303.33904   -1161.4765    6359.0255    11677.922    1981.6263 
  326600    300.93524   -1161.1455    6409.9361     11677.81    1898.6553 
  326700    296.94178   -1161.3585    6495.5018    11677.849      1856.15 
  326800    299.20266   -1172.0602    6457.9963    11677.942    1848.2054 
  326900    300.26296   -1170.7219    6433.9202    11677.856    1854.1383 
  327000    304.79858   -1164.8136    6331.0569    11677.797    1904.7581 
  327100    298.43349   -1160.5539    6462.8421    11677.862    1981.5942 
  327200    297.36986   -1155.1494    6479.9708    11677.672     1879.851 
  327300    300.58659   -1159.9729    6416.0246    11677.623    1883.3175 
  327400    299.15771   -1156.9047     6443.447    11677.588    1940.9454 
  327500    298.40037   -1157.3993    6460.1801    11677.647    1956.3451 
  327600    304.23231     -1157.49    6335.5924    11677.559    1896.8598 
  327700    298.57901   -1160.6662    6459.7055    11677.722    1952.1323 
  327800    298.74615   -1161.0509    6456.4426    11677.645    1974.7595 
  327900     300.3622   -1160.1474    6420.9901     11677.62    1942.6673 
  328000    297.42702   -1156.9345    6480.5278    11677.665    1967.6313 
  328100    299.92701    -1156.498    6426.6271    11677.609    1962.1295 
  328200    301.58145   -1161.1349    6395.8955    11677.586    1864.3562 
  328300    294.99449   -1158.0693    6533.5597    11677.595     1973.613 
  328400    304.99726    -1157.995    6319.7975    11677.601     1966.522 
  328500    296.68245   -1156.7524    6496.1624    11677.575    1912.3972 
  328600    301.54736   -1159.7054    6395.1737    11677.565    1875.5005 
  328700    297.76134   -1156.0359     6472.465    11677.643    1951.9568 
  328800    301.27613   -1160.5054    6401.9103    11677.707    1897.0314 
  328900     300.6459   -1164.7193    6419.6428    11677.762    1917.8148 
  329000    299.32884   -1162.1259    6445.1935    11677.769    1998.0611 
  329100    299.23491   -1166.2128    6451.3124    11677.794    1942.7043 
  329200    303.10652   -1165.8376    6368.2147    11677.783    1897.5296 
  329300    299.12798   -1167.5032    6454.9195    11677.827    1922.3026 
  329400    299.63868    -1159.738    6436.2741    11677.857    1919.3174 
  329500    301.84808   -1162.6662     6392.001    11677.856    1924.0647 
  329600    303.05111   -1163.4874    6367.0542    11677.789    1968.2042 
  329700    302.90246   -1166.7493    6373.5079    11677.805    1920.8791 
  329800    296.81217   -1164.9152    6501.9017    11677.923    1863.7175 
  329900    296.05808     -1168.18    6521.2486    11677.895    1909.9902 
  330000    301.36692   -1170.0826    6409.7672    11677.926    1868.4345 
  330100    302.53906   -1169.2109    6383.8186     11677.89    1864.0567 
  330200    298.57806    -1170.305    6469.4317    11677.789    1973.9608 
  330300    300.39549    -1159.754    6420.0773    11677.812    1903.0825 
  330400    295.80084   -1165.0671    6523.5696    11677.834    1929.6531 
  330500    301.91847   -1170.8373    6398.5586    11677.746     1896.438 
  330600     298.8923   -1159.8895     6452.264     11677.75    1880.8982 
  330700    301.79981   -1164.2859    6394.5007    11677.705    1858.7847 
  330800    300.43328   -1172.3193    6431.7002    11677.677     1926.141 
  330900    302.73772   -1165.6567    6375.8104    11677.681    1849.6451 
  331000    297.29183   -1162.5684    6489.0819    11677.697    1897.9432 
  331100    302.79879   -1162.0894    6371.0269    11677.769    1950.7863 
  331200    297.39192   -1163.3982    6487.8064     11677.73    1926.0898 
  331300    298.83247   -1163.0674     6456.663    11677.693    1975.9006 
  331400    299.21228   -1160.9025    6446.3235    11677.632     1936.421 
  331500    300.04579   -1156.2335    6423.8101    11677.594    1901.4707 
  331600     299.9089   -1161.9896    6432.3628    11677.467    1939.0436 
  331700    299.76727   -1155.6019    6429.0156    11677.481    1926.6141 
  331800    298.95832   -1153.8023    6444.4842    11677.468    1867.7937 
  331900    302.98329   -1158.8319    6363.6611    11677.602    1869.9176 
  332000    301.08604   -1153.8945    6399.3283    11677.675    1944.5082 
  332100    302.18279   -1162.8812    6384.8339    11677.624     1878.386 
  332200    301.05631    -1156.311     6402.232    11677.527    1900.7942 
  332300    300.35864   -1157.5072    6418.3954     11677.59    1913.3398 
  332400    298.69381   -1160.9029    6457.4705    11677.703    1952.3735 
  332500    301.73458   -1158.6643    6390.1429    11677.575    1935.2942 
  332600    300.15172   -1157.1618    6422.5035    11677.623    1936.3664 
  332700    296.09984   -1154.8945    6506.8046    11677.629    1847.5613 
  332800    299.95408   -1157.3375    6426.9109    11677.632    1880.1748 
  332900    299.59071   -1152.4955    6429.8509    11677.651    1934.1449 
  333000     303.7296   -1161.1304    6350.1315    11677.718     1875.146 
  333100    298.85734   -1160.9919    6454.0992    11677.736    1915.5842 
  333200    298.72586   -1167.7761    6463.8461    11677.889     1926.274 
  333300    300.04705   -1167.4888    6435.2469    11677.803    1854.8747 
  333400    301.17078   -1170.1424    6413.9469    11677.856    1894.7793 
  333500     300.2478   -1165.6204    6429.1475    11677.861    1896.3215 
  333600    303.05368   -1170.5868    6374.0795     11677.77    1871.9296 
  333700    298.82966   -1158.0736    6451.8192    11677.783    2006.1634 
  333800    300.57123    -1161.299    6417.8588    11677.803    1974.2861 
  333900    300.65958   -1162.5802     6417.215    11677.766    1894.8531 
  334000    298.77084   -1169.9713     6464.993    11677.802    1879.9884 
  334100    300.75704   -1169.0157    6421.6396    11677.836    1880.6859 
  334200    298.10418   -1168.5466    6477.8514    11677.843    1833.2041 
  334300    301.37799   -1166.2287    6405.6239    11677.874    1870.1357 
  334400    300.87618   -1166.0551    6416.1094    11677.812    1929.5464 
  334500    295.88461   -1158.5738    6515.2073    11677.754     1918.597 
  334600    302.84155   -1163.5669    6371.4899    11677.668    1869.9289 
  334700    303.46015   -1165.5443     6360.304     11677.72     1956.667 
  334800    297.66543   -1162.4063    6481.0222    11677.781     1971.741 
  334900    301.76646   -1161.6943    6392.5015    11677.585     1954.659 
  335000    299.92677   -1163.6769    6433.8905    11677.689    1962.0659 
  335100    303.25008   -1164.4729    6363.6264    11677.626    1873.0954 
  335200    297.08828   -1163.4709    6494.2836    11677.648    1917.6507 
  335300    298.69506   -1159.4926    6455.9083    11677.577    1890.3171 
  335400    301.58001   -1158.2021    6393.0809    11677.673    1899.1442 
  335500    300.66316   -1159.5825    6414.0159     11677.64    1866.4771 
  335600     296.8507   -1157.0895    6492.9486    11677.619    1905.6183 
  335700    299.19268   -1160.6426    6446.4694    11677.619    1925.8097 
  335800       302.58   -1157.7983    6371.1456    11677.505    1837.9698 
  335900    296.40657    -1153.285    6498.5685    11677.555     1882.286 
  336000    302.42254   -1154.3395    6371.1135    11677.567    1934.6211 
  336100    297.52628   -1162.2358    6483.7226    11677.679    1981.3466 
  336200    303.18068    -1164.874     6365.551    11677.667    1847.5964 
  336300    296.13633   -1163.0373    6514.2637    11677.725    1917.2946 
  336400    298.36068   -1164.1514    6467.9085    11677.775    1984.7494 
  336500    302.37594   -1162.9823     6380.911    11677.727     1936.025 
  336600    301.00165   -1162.8756     6410.096    11677.659     1887.788 
  336700    298.64906   -1159.3634    6456.9023    11677.718    1931.1578 
  336800    304.74063   -1165.9668    6333.3808     11677.73     1895.726 
  336900    299.18526   -1161.0279    6447.1645    11677.771    1922.7131 
  337000     303.4467   -1162.3881     6357.485     11677.77    1915.1505 
  337100     300.2684   -1167.0563    6430.1354    11677.853    1986.3419 
  337200    296.76789   -1163.7318      6501.62    11677.879    1919.9429 
  337300    300.83436   -1164.0558    6415.0804    11677.889    1884.3737 
  337400    305.70355   -1166.2857    6313.2528    11677.854    1837.5765 
  337500    297.70426   -1168.8209    6486.6731    11677.847    1919.5044 
  337600    301.38498   -1166.8833    6406.1093    11677.854    1949.1798 
  337700    301.82902   -1167.0986    6396.7162    11677.732     1968.478 
  337800    298.91323    -1157.946    6449.9097    11677.786    2018.8724 
  337900    302.59348   -1163.5421    6376.8752    11677.778    1899.9958 
  338000    298.79315   -1164.2615     6458.765    11677.761    1943.4351 
  338100    298.80665   -1166.3595    6460.6113    11677.798    1939.7727 
  338200    301.86635    -1168.652    6397.5155    11677.775    1885.8321 
  338300    297.04391    -1160.909    6492.8221    11677.801    1942.4632 
  338400    299.15909   -1164.9642    6451.6083    11677.719    1968.7085 
  338500    297.47386   -1155.7362    6478.3365    11677.673    1945.5874 
  338600    301.05675   -1159.9362     6405.965    11677.644    1922.1864 
  338700    297.04371     -1157.57    6489.3662    11677.679    1937.2141 
  338800    297.56048   -1154.9429     6475.618    11677.598    1903.3012 
  338900    305.75196   -1162.7685    6308.4396    11677.593    1852.7583 
  339000    297.92513   -1165.1123    6478.0509    11677.652    1930.4254 
  339100    299.65753   -1158.9142     6434.836    11677.645     1868.136 
  339200     299.4783   -1162.0343    6441.7921    11677.652    1887.8576 
  339300      299.601   -1157.2361    6434.3467    11677.626    1956.1017 
  339400    299.61491   -1161.3536    6438.1714    11677.631    1966.1197 
  339500     299.9793   -1156.3661     6425.404    11677.635    1923.5374 
  339600    302.47574   -1161.4457    6377.1564    11677.641    1900.4073 
  339700    297.39067   -1155.4772    6479.8469    11677.665     1924.582 
  339800    300.64884   -1158.4743    6413.2505    11677.677    1891.4787 
  339900    299.99089   -1163.9514    6432.7777    11677.671    1924.5837 
  340000     302.8354   -1163.2463    6371.3101    11677.677    1932.6329 
  340100    300.33468   -1160.8095    6422.3095     11677.69     1864.859 
  340200    298.90214   -1160.2558    6452.4162    11677.746    1866.3986 
  340300    300.74396   -1165.3485    6418.1529    11677.738    1921.7227 
  340400    297.08277    -1163.862     6494.879    11677.735    1956.6982 
  340500     303.3174   -1159.5646    6357.4166    11677.763    1875.9988 
  340600    300.65296   -1159.6869    6414.4181    11677.721    1948.2482 
  340700     297.0269   -1155.3897    6487.6541    11677.788    1977.1835 
  340800    302.93579    -1156.165    6362.1718    11677.765     1884.275 
  340900    300.03885   -1162.9408    6430.8985    11677.827     1911.184 
  341000     299.0418   -1163.8417    6453.1324     11677.86    1906.2901 
  341100    302.66767   -1162.5725    6374.3301    11677.788    1862.8115 
  341200     301.2257   -1161.9245    6404.5662    11677.866    1896.5632 
  341300    301.81476   -1157.9721    6387.8682    11677.705     1956.349 
  341400     300.5556   -1162.6275     6419.496    11677.778    1903.0976 
  341500    299.22108    -1155.992    6441.2889    11677.696    1863.2078 
  341600    297.01868   -1157.5416    6489.7919    11677.599    2004.2559 
  341700     302.8401   -1158.7102    6366.6262     11677.63    1904.0437 
  341800    297.77514   -1157.4605    6473.5758    11677.624    1915.7968 
  341900    302.52816   -1162.7309     6377.261     11677.58    1906.4095 
  342000    294.97788   -1158.3991    6534.1837    11677.535    1915.3826 
  342100    299.73478   -1165.4543    6439.5977    11677.517     1857.877 
  342200    301.23757   -1164.9624    6407.0282    11677.544    1890.9504 
  342300    300.45406   -1157.0015    6415.8497    11677.588    1902.7116 
  342400    299.97477   -1159.2949    6428.2892    11677.495     1857.536 
  342500    299.00387    -1158.713    6448.4487    11677.495    1918.4168 
  342600    303.60994   -1154.1477    6345.4941    11677.507    1921.2924 
  342700    299.74673    -1158.113     6431.969    11677.485     1933.531 
  342800    298.96367   -1163.6609     6454.419    11677.658    1948.2714 
  342900    301.27239   -1161.4482    6402.9362     11677.71    1885.9232 
  343000    298.44919    -1165.084    6466.9566    11677.782    1910.0952 
  343100    300.49224   -1169.0827    6427.3108    11677.784    1942.9266 
  343200    302.42871   -1171.4867    6388.3207    11677.759      1953.13 
  343300    296.46578   -1166.7487    6511.0114    11677.799    1889.9847 
  343400    302.57596   -1169.6153    6383.3617    11677.818     1885.428 
  343500    303.40888   -1161.0696    6357.0446     11677.84    1905.2168 
  343600    301.18611    -1161.188    6404.6573    11677.848    1913.8883 
  343700    300.28352   -1166.5596    6429.3162    11677.853    1951.1097 
  343800    300.39124   -1162.1074    6422.5144    11677.805    1932.1711 
  343900    300.27012   -1164.5544    6427.5683    11677.824    1867.0448 
  344000     302.6194   -1173.6362    6386.5883    11677.951    1876.8151 
  344100    301.75907   -1172.3926    6403.8039    11678.031    1918.7211 
  344200    299.10041   -1172.3825    6460.4586    11677.897    1939.8632 
  344300    299.87691   -1172.6966    6444.2376    11677.951    1913.8621 
  344400     299.0476   -1165.2319    6454.4631    11677.924    1919.4205 
  344500    300.84148   -1159.7953     6410.567    11677.788    1917.3938 
  344600    300.02713   -1164.1712     6432.333    11677.781    1891.5143 
  344700    300.27741    -1161.287     6424.104    11677.783    1868.9097 
  344800    298.72398   -1169.5707    6465.5226    11677.731    1915.5325 
  344900    299.68427   -1168.3006    6443.7377    11677.732    1909.1384 
  345000    301.40114   -1164.0306    6402.7035    11677.646    1884.1549 
  345100    297.65334   -1164.0077    6482.7845    11677.684    1895.7547 
  345200    297.22539   -1167.7534     6495.698    11677.709    1911.2153 
  345300    300.24287   -1166.3427    6429.8429    11677.728    1959.8522 
  345400    298.03918   -1159.9212    6470.4116     11677.64    1894.6025 
  345500    298.96459   -1157.7077    6448.4937    11677.706    1932.4603 
  345600    300.20126   -1156.6694    6420.9368    11677.607    1941.8133 
  345700    302.99011   -1160.2055    6364.9475    11677.661    1898.4456 
  345800     298.2036     -1161.97    6468.9412    11677.633    1916.4482 
  345900    297.54224   -1165.3192    6486.4442    11677.658    1913.8523 
  346000     300.1292   -1156.7912    6422.6925    11677.701    1903.0129 
  346100    298.23327    -1165.708    6472.0423     11677.63    1989.1095 
  346200    299.24048   -1159.2314    6444.1014    11677.684    1966.3505 
  346300    304.56751   -1163.3546    6334.3408    11677.604    1928.3041 
  346400    297.58353   -1163.7069    6483.9616     11677.67    1940.6291 
  346500    299.72768   -1163.6141    6438.1181    11677.726    1948.6209 
  346600    301.41234   -1166.0078    6404.4742    11677.679    1943.7276 
  346700    298.70232     -1163.03    6459.4037     11677.69    1957.1246 
  346800    300.92854   -1158.0696    6406.9762    11677.783    1911.8856 
  346900    300.74425   -1163.7518    6416.6313    11677.819    1885.9417 
  347000    296.79425   -1163.7127    6501.0165    11677.857    1951.2961 
  347100    300.00129   -1171.2363    6440.0559    11677.887    1922.5182 
  347200    300.83427   -1163.9168     6414.924     11677.87    1883.1102 
  347300    300.27974   -1162.0264    6424.9147    11677.904    1864.2533 
  347400    299.76333   -1164.1829    6438.0336    11677.834    1871.2238 
  347500    304.94267   -1167.9865    6331.2216    11677.867    1925.1204 
  347600    301.77967   -1162.8475    6393.6652    11677.877    1936.7553 
  347700    303.21105   -1159.1494    6359.3499    11677.839    1864.9142 
  347800    297.24114   -1163.6578    6491.3771     11677.82    1944.5393 
  347900    302.03904   -1162.8443    6388.1004    11677.857    1940.0943 
  348000    298.33178   -1161.5816    6465.9463    11677.765    1970.2196 
  348100     299.8445   -1163.7955    6435.8306    11677.753    1957.3181 
  348200    300.88966   -1161.6198    6411.3246    11677.751    1921.1272 
  348300    302.20048   -1168.6119    6390.3924     11677.83    1863.4012 
  348400    297.79737   -1162.4748    6478.2734    11677.783    1816.3775 
  348500    300.82398    -1163.151    6414.1759    11677.668    1905.3952 
  348600    301.99465   -1155.1373    6381.1557    11677.671    1925.4216 
  348700    299.93215   -1148.7641    6418.7825    11677.609    1922.8263 
  348800    300.27437   -1160.5773    6423.3105    11677.634    1960.1074 
  348900    299.07424   -1157.9799    6446.3476     11677.63    1931.9327 
  349000    300.66264   -1159.6687     6414.083     11677.61    1935.3052 
  349100    300.56118   -1159.9513    6416.6276    11677.705    1952.5484 
  349200    300.43139   -1159.8859    6419.2717    11677.641    1867.6588 
  349300    299.20678   -1154.7377    6440.2313    11677.587    1830.5703 
  349400    300.64421   -1156.1521    6410.9792    11677.629    1850.9845 
  349500    301.61342   -1156.7079    6390.8326    11677.633    1899.7483 
  349600    301.83174   -1159.3056    6388.7323    11677.599    1825.8729 
  349700    297.33674   -1156.7905    6482.3681    11677.721    1926.1788 
  349800    304.18313   -1158.9821     6338.246     11677.67    1855.5982 
  349900    296.89975   -1154.5197    6489.4781    11677.766    1944.3725 
  350000    299.41174   -1162.4694     6443.731    11677.734    1938.2564 
  350100     298.9724   -1151.7176    6442.3314      11677.7     1902.756 
  350200    303.71136   -1158.4583    6347.7954    11677.664    1848.3948 
  350300    298.94715   -1161.3124    6452.5389    11677.774    1917.7965 
  350400    300.13788    -1166.607    6432.3658    11677.744    1882.2761 
  350500    300.53321   -1165.6024    6423.0013     11677.83    1905.9085 
  350600    300.92822   -1162.0434     6410.948    11677.774    1887.5086 
  350700    301.12717   -1163.4998    6408.1898     11677.81    1891.0727 
  350800    300.38762   -1164.5976    6425.0557    11677.779    1892.0083 
  350900     299.1406   -1163.1997    6450.3386    11677.819    1946.5271 
  351000    303.83089   -1169.3093    6356.1934    11677.765    1855.3143 
  351100    296.75625   -1159.9874    6498.0644    11677.819     1937.521 
  351200    302.26155   -1163.5108    6384.0265     11677.87    1901.4454 
  351300    302.25461    -1167.311    6387.9778    11677.873    1867.7629 
  351400    299.03282   -1163.8364    6453.3745    11677.915    1857.7352 
  351500    297.99692   -1166.0016    6477.5592    11677.805    1859.2674 
  351600    301.39059   -1169.8201    6408.8705    11677.798    1804.1847 
  351700     298.6441   -1167.5172    6465.3131    11677.869    1884.1014 
  351800    299.54208   -1165.6125    6444.2292    11677.874    1908.0951 
  351900    302.34076     -1170.94     6389.638    11677.744     1849.237 
  352000    299.08346   -1160.8004     6449.066    11677.725    1881.2405 
  352100    305.41454   -1165.1667    6318.1373    11677.684    1898.3887 
  352200     292.9066   -1165.2211    6585.4611     11677.74     1960.858 
  352300    302.06732   -1167.3968    6391.8834    11677.691    1846.5979 
  352400    302.03248   -1160.6014     6385.789    11677.648    1905.3265 
  352500    301.13101   -1166.6578      6411.07    11677.614    1926.8018 
  352600    301.66744   -1162.6183    6395.6358    11677.679    1845.6267 
  352700    298.64641    -1155.852    6453.3267    11677.597    1856.5242 
  352800    300.90865   -1161.6159     6410.739    11677.575    1879.1731 
  352900     298.7833   -1162.1671     6456.694    11677.574    1905.0188 
  353000    301.41697   -1165.0495    6403.2777    11677.539    1896.6461 
  353100    302.14099   -1161.1001    6383.8468    11677.525    1924.9187 
  353200    299.05616   -1164.7296    6453.2638     11677.41    1893.8486 
  353300    297.38017   -1156.3834    6480.8457    11677.533    1808.3876 
  353400    301.55355   -1161.2313    6396.6006    11677.598    1836.5945 
  353500    302.82675   -1159.3488    6367.4977    11677.578    1917.1927 
  353600    302.09224   -1160.8066    6384.6903    11677.621    1850.7401 
  353700    296.72714   -1154.6921    6493.2284    11677.656    1876.3833 
  353800    301.75735   -1157.2474    6388.3544     11677.69    1907.3969 
  353900    299.73475   -1164.0264    6438.3795    11677.726    1876.2981 
  354000    300.34608   -1159.5129    6420.7113    11677.631    1863.0668 
  354100    299.49142   -1160.9636     6440.374    11677.585    1848.9428 
  354200    298.98399   -1158.2888    6448.5401    11677.585    1883.6826 
  354300    301.65927   -1162.6006    6395.7457    11677.633     1869.154 
  354400    297.69592   -1159.6309    6477.4968    11677.682    1931.5898 
  354500    302.89962   -1161.0876    6367.7694    11677.667    1904.0513 
  354600    300.13485   -1161.3731    6427.0938    11677.641    1870.5382 
  354700    303.44292   -1165.5241    6360.5735    11677.642     1882.938 
  354800    299.88294    -1166.413    6437.5454    11677.671    1894.4729 
  354900    302.04931   -1162.5272    6387.4447    11677.738    1829.8977 
  355000    296.50539   -1160.5159    6503.8426    11677.709    1872.2036 
  355100    301.41648   -1163.9867    6402.3633    11677.677    1897.1047 
  355200    301.29801   -1155.8226    6396.7208    11677.668    1923.7462 
  355300    299.49645   -1160.5178    6440.0254     11677.79    1925.3119 
  355400    302.26954   -1165.7074    6386.0031    11677.821    1899.7072 
  355500    296.17113   -1170.3226    6520.9187    11677.838    1873.6301 
  355600    300.55425   -1165.3377    6422.2454    11677.788    1825.4712 
  355700    302.58614   -1166.3275    6379.8783    11677.839    1906.7438 
  355800    300.55314   -1170.6616    6427.6271    11677.822    1855.7535 
  355900    297.79089   -1165.5429    6481.4908    11677.793    1907.8414 
  356000     298.5967   -1163.6374    6462.4276     11677.85    1943.3084 
  356100    306.91872   -1164.8638    6285.7517    11677.735    1870.3294 
  356200    297.90384   -1161.1651    6474.6759    11677.769    1924.3295 
  356300    297.54603   -1170.1652    6491.3646    11677.814    1934.2605 
  356400    299.38807   -1157.6699    6439.4819    11677.779    1848.5281 
  356500    299.43614    -1166.636    6447.4177    11677.775    1925.0254 
  356600     299.5355   -1170.8744    6449.6006    11677.843    1901.4595 
  356700     299.5956   -1168.6705    6446.0393    11677.769    1778.1792 
  356800    300.90684   -1168.4758    6417.8595    11677.797    1812.1949 
  356900    301.27339   -1167.3856    6408.8549    11677.713    1820.1145 
  357000    297.56112   -1158.2928    6479.0432    11677.687    1848.8006 
  357100    300.92413   -1160.5308    6409.3901    11677.641    1820.6055 
  357200    303.12762   -1160.5518    6362.3544    11677.659    1886.1516 
  357300    298.54213   -1160.6056    6460.3907     11677.68     1974.858 
  357400    300.99161   -1157.6408     6405.044    11677.627    1876.9523 
  357500    300.42132   -1157.7859    6417.4305    11677.685     1914.522 
  357600    300.95093   -1162.8539    6411.1932    11677.694    1906.4568 
  357700     299.7908   -1161.6813    6434.8294    11677.719    1827.7751 
  357800    296.81525   -1162.9974    6499.7692    11677.774    1910.7763 
  357900    302.15947   -1161.3153    6383.8166    11677.675    1837.8842 
  358000    300.48699   -1158.7056    6416.8782    11677.616    1816.6251 
  358100     302.9952   -1161.3065    6365.8502    11677.571    1861.9953 
  358200    299.45573   -1154.9066    6435.1741     11677.68    1944.1253 
  358300    301.64341   -1156.7106    6390.1502    11677.588     1852.823 
  358400    300.39619   -1161.0706     6421.169    11677.602    1890.8538 
  358500    300.98707    -1167.745    6415.2296    11677.612    1891.8866 
  358600    298.44449   -1160.8648    6462.6799    11677.624     1918.468 
  358700    299.73712   -1160.8399    6435.0728    11677.657    1853.8652 
  358800    299.90807   -1167.3854    6438.1074    11677.798    1883.7566 
  358900    299.70752   -1163.2508    6438.2064    11677.747    1853.6808 
  359000    296.10126    -1163.241    6515.2547    11677.763     1832.307 
  359100    301.13818    -1164.471    6408.9011    11677.785    1878.8236 
  359200    299.08239   -1161.5656    6449.8689     11677.74    1859.7934 
  359300    302.00636   -1162.4648    6388.3205    11677.758    1853.4003 
  359400    297.79826   -1160.2548    6475.9886    11677.737    1894.7539 
  359500    298.46145   -1163.8705    6465.4995      11677.8    1871.7101 
  359600    299.20616   -1159.0308    6444.7515    11677.801    1872.4596 
  359700    305.44418   -1166.6366    6319.0617    11677.771    1813.3508 
  359800    299.03405     -1158.67    6447.9788    11677.712     1919.057 
  359900    302.69129   -1167.9132    6379.1577    11677.779    1832.8266 
  360000    297.88784   -1164.8884    6478.7596    11677.788    1827.6162 
  360100    301.31444   -1164.0676    6404.7721    11677.825    1875.1323 
  360200    297.16623   -1163.0085    6492.2358    11677.728    1907.6701 
  360300    304.99874   -1163.5642     6325.505    11677.771    1891.3322 
  360400    299.24188   -1160.7644    6445.6612     11677.74    2000.3728 
  360500    300.39151   -1161.4628    6421.8558    11677.797    1974.1624 
  360600    298.02338   -1162.9763    6473.9361    11677.772    1876.9409 
  360700    299.18562   -1169.1623    6455.3359    11677.815    1904.2032 
  360800    297.75959   -1162.8727    6479.4874    11677.792    1936.8359 
  360900      300.858   -1161.8964    6412.3741    11677.847    1891.0661 
  361000    299.03736   -1164.1518    6453.4777      11677.8    1892.8176 
  361100     300.5014   -1164.9983    6423.1589    11677.912    1922.8743 
  361200    299.97147   -1162.7315    6432.0706    11677.769    1845.2769 
  361300    302.49815   -1160.9989    6376.3929    11677.803    1888.6277 
  361400    299.83105   -1163.0784    6435.4388    11677.791    1976.3594 
  361500    300.35648   -1159.7283    6420.7745    11677.701    1886.8801 
  361600     298.7719    -1157.643    6452.5826    11677.743    1892.9723 
  361700    302.17028   -1161.4919     6383.757    11677.669    1939.0621 
  361800    298.83495   -1170.8092    6464.4555    11677.796    1929.9927 
  361900    301.49661   -1168.8707    6405.5669    11677.709    1877.4886 
  362000    298.36035   -1167.9583    6471.7291    11677.782    1931.7527 
  362100     300.6181   -1169.2043     6424.823    11677.863    1924.1968 
  362200    302.11727    -1170.741    6394.3266    11677.857    1855.1948 
  362300    300.44576   -1167.6001    6426.8323    11677.795    1872.1524 
  362400    297.83366   -1163.4278    6478.4613    11677.793    1902.0143 
  362500    298.91863   -1165.0833    6456.9248    11677.779    1891.1314 
  362600    300.71066    -1164.188    6417.7501    11677.784    1913.7318 
  362700    301.15746   -1163.4878    6407.4717    11677.751    1930.8109 
  362800    301.46283   -1163.1462    6400.7091    11677.854    1922.8517 
  362900    299.89145    -1170.091    6441.2421    11677.872    1887.6257 
  363000    301.37954   -1165.0131    6404.3528    11677.851    1881.3479 
  363100    298.73217   -1167.8981    6463.8607    11677.917     1936.069 
  363200    300.30026   -1168.7349    6431.2005     11677.92    1957.4122 
  363300    301.61522   -1168.6877    6402.9741    11677.833    1865.0211 
  363400    296.90014   -1165.3506    6500.3954    11677.861    1922.4925 
  363500    302.22596   -1168.0219    6389.2855    11677.857    1995.9224 
  363600    299.54932   -1165.0406    6443.4463    11677.817    1945.3536 
  363700    298.92982   -1160.6233    6452.2961     11677.85    1931.6743 
  363800    298.02917   -1160.7474    6471.5802    11677.769    1943.7828 
  363900    300.10921   -1162.2054    6428.6424     11677.81    1892.3098 
  364000    302.73741    -1174.007    6384.2652    11677.778    1881.0792 
  364100    301.52955    -1170.144    6406.1872    11677.759    1916.7741 
  364200    293.72333   -1161.5975    6564.3989     11677.75    1937.8329 
  364300    299.70749   -1164.5926    6439.5199    11677.718    1942.2608 
  364400    299.31149   -1162.9259    6446.4029    11677.808     1938.493 
  364500     303.4109   -1163.4992    6359.3181    11677.727    1880.2081 
  364600    302.83949   -1160.0394    6367.9612    11677.623    1928.2668 
  364700    302.83269   -1163.5999    6371.7805    11677.736    1914.9102 
  364800    299.09376   -1164.0695    6452.1593    11677.769    1985.6996 
  364900    299.95904   -1162.7531    6432.2754    11677.687    1888.9872 
  365000    299.08529   -1167.7753    6455.9587    11677.682    1904.7812 
  365100    302.82014   -1169.5646    6378.0366     11677.76    1892.3126 
  365200    297.14655   -1165.7667    6495.4692    11677.783    1961.9629 
  365300    300.93119   -1163.7089    6412.5312    11677.755    1864.1637 
  365400    300.70525   -1167.8017    6421.4977    11677.802    1853.7544 
  365500    298.21035   -1166.4452      6473.49    11677.851    1908.0318 
  365600     298.2003   -1164.8765    6472.0919    11677.807    1917.9401 
  365700    299.41396   -1166.9201    6448.1588    11677.759    1866.4875 
  365800    301.88022   -1164.9372    6393.5544    11677.825    1959.5884 
  365900    299.15791   -1165.4358    6452.2417    11677.856    1960.8999 
  366000    299.26373   -1164.2682     6448.779    11677.821    1903.9427 
  366100    300.77348    -1169.824    6422.0747    11677.815    1944.0435 
  366200    298.79245   -1167.2792    6461.9127    11677.876    2028.6548 
  366300    303.48237    -1163.325     6357.752    11677.862    1912.1485 
  366400    298.68101   -1168.7595    6465.6929    11677.795    1910.4712 
  366500    299.27991   -1163.4198    6447.6362    11677.873    1940.0513 
  366600      300.167   -1170.2941    6435.4796    11677.793    1904.7571 
  366700    299.53855   -1170.9523    6449.4967    11677.726    1881.8255 
  366800    299.43519   -1166.1062    6446.9132     11677.78    1858.4265 
  366900    299.94399   -1166.1617    6436.0847    11677.766    1857.3318 
  367000     302.6493   -1158.7822    6370.8553    11677.711    1906.6073 
  367100    301.69745   -1159.9288    6392.2814    11677.656    1916.3527 
  367200    296.35274   -1165.3452    6511.9071    11677.684    1905.1743 
  367300    302.33578   -1166.2336    6384.9288    11677.635    1880.7105 
  367400    297.87784   -1167.5049    6481.4951    11677.693    1968.8691 
  367500    299.62641   -1169.1912    6445.8515    11677.719    1882.1507 
  367600    299.50935   -1168.4795    6447.6398    11677.718    1883.1294 
  367700    303.24912   -1163.8323    6363.1153    11677.735    1885.5919 
  367800    298.86852   -1165.1957    6458.0454    11677.717    1928.9534 
  367900    299.08033   -1161.0003    6449.3174    11677.709    1960.8786 
  368000    303.00517   -1159.3508    6363.7866    11677.676    1894.6082 
  368100    300.53068   -1163.9935    6421.3339    11677.717    1954.5193 
  368200    295.79052   -1162.6223    6521.3517     11677.84    1962.1949 
  368300    302.08366   -1162.9047    6387.0841    11677.733    1881.7167 
  368400    294.41344   -1163.5163     6551.639    11677.814    1944.0135 
  368500    300.26593   -1161.9094    6425.0311    11677.843     1926.285 
  368600    300.94528   -1162.7307    6411.3639    11677.867    1910.9454 
  368700    298.86765   -1169.3104    6462.3451    11677.883    1897.1143 
  368800    299.53914   -1170.8327    6449.4603    11677.822    1903.7338 
  368900    301.12792   -1169.2604    6413.9966    11677.872    1901.5962 
  369000     299.3378   -1166.0298    6448.9802    11677.843    1947.0642 
  369100    298.44623   -1161.7129    6463.7802    11677.913    1969.7959 
  369200    301.52768   -1166.8621    6403.0785    11677.893    1957.8094 
  369300    300.41093   -1164.4866    6424.6289    11677.961    1924.9597 
  369400    297.99868   -1166.5082    6478.1056    11677.882    1901.6833 
  369500    299.73635    -1166.095    6440.5204    11677.833    1927.7019 
  369600    300.82637   -1165.5421    6416.7363    11677.888    1942.5186 
  369700    301.94894   -1168.7859    6395.9771    11677.867    1911.8263 
  369800    302.13815   -1168.0994    6391.2956    11677.914      1810.04 
  369900    296.94018   -1168.7654    6502.8952    11677.801    1888.2988 
  370000    302.04227   -1166.0323    6391.0456    11677.683    1898.7793 
  370100    299.65261    -1166.304    6442.4914    11677.806    1895.0323 
  370200    298.13468   -1168.4113    6477.0128    11677.792     1949.827 
  370300    305.14915   -1165.7347    6324.3441    11677.653    1870.0068 
  370400     295.8284   -1160.9008    6518.7066    11677.726    1869.8433 
  370500    302.06063   -1168.4594    6393.1449    11677.747    1912.9299 
  370600    299.72125   -1164.1631    6438.8049    11677.726    1889.4121 
  370700    300.36627   -1166.7382    6427.5322    11677.659    1853.5879 
  370800    298.22292   -1163.3942    6469.9351    11677.616     1911.097 
  370900    302.95293   -1162.2243    6367.7672    11677.667    1883.7368 
  371000    296.38265   -1162.3847    6508.2722    11677.648    1882.9443 
  371100    299.23321   -1160.7742    6445.8196    11677.704     1881.596 
  371200    300.92854   -1162.8491     6411.631    11677.658    1860.8189 
  371300    300.07831   -1163.9776    6430.9292    11677.664    1894.5899 
  371400    302.09567    -1168.007    6391.8805    11677.684    1897.2818 
  371500    299.33686   -1167.8622    6450.5964    11677.607    1940.5883 
  371600    301.41258    -1162.066    6400.5398    11677.691    1989.4316 
  371700    301.11353   -1167.1671    6412.0093    11677.671    1996.9455 
  371800    297.99054   -1163.0033    6474.5396    11677.647    1982.3887 
  371900       298.58   -1163.3489    6462.3257     11677.68    2018.2751 
  372000    304.88141   -1159.2599    6323.7157    11677.779    1937.3988 
  372100     296.9963   -1161.6727    6494.5325     11677.73    1884.0586 
  372200    300.44651   -1165.3287    6424.4543    11677.704    1877.4641 
  372300    299.76264   -1159.7451     6433.507    11677.731    1839.7313 
  372400     301.9987   -1169.4737    6395.4859    11677.751    1840.9973 
  372500    298.20468   -1171.1277    6478.2181    11677.776     1909.344 
  372600    300.94669   -1163.8769    6412.4413    11677.829    1873.6661 
  372700    300.36082   -1165.9822    6427.0243     11677.79    1830.8019 
  372800    299.35469   -1161.1241     6443.643    11677.773    1809.3498 
  372900    300.80948   -1164.3152    6415.7813    11677.799    1836.2793 
  373000    300.11934   -1161.8409    6427.9908    11677.739    1865.1133 
  373100    299.50496   -1165.9757    6445.3203    11677.809    1851.7027 
  373200    302.18946   -1167.2349    6389.1754    11677.755    1856.5726 
  373300    300.55406    -1166.262    6423.1719    11677.786    1870.1826 
  373400    299.21547   -1163.0219    6448.4544    11677.712    1849.3707 
  373500    300.75987   -1175.9942    6428.4421    11677.721    1863.7331 
  373600    303.56544    -1170.104    6362.6781    11677.784    1943.0533 
  373700    296.54043   -1156.6605    6499.3612    11677.832     1933.998 
  373800    306.10373   -1165.2413    6303.4948     11677.69    1841.8458 
  373900    298.63026    -1165.461    6463.4918    11677.808    1957.5997 
  374000    302.01608   -1161.2298    6386.8771    11677.757     1905.338 
  374100    300.04927   -1162.7794    6430.4739    11677.787    1957.7005 
  374200    301.46486   -1165.0277    6402.4995    11677.806    1921.3825 
  374300    300.33152   -1169.7886    6431.4787    11677.812    1891.8176 
  374400    297.50594   -1166.7194    6488.7562    11677.795     1899.426 
  374500    296.97929   -1164.8516    6498.0772    11677.733    1899.4085 
  374600    300.53652   -1163.3561    6420.5659    11677.711    1894.1652 
  374700     302.5197   -1167.5822    6382.4986    11677.786    1916.6486 
  374800    297.88027   -1161.4393    6475.4442     11677.76    1915.3117 
  374900    300.65385   -1163.9216    6418.6361    11677.723    1902.5757 
  375000    302.59845   -1163.2898    6376.5346    11677.796    1872.2249 
  375100    298.62848   -1164.5422     6462.608    11677.805    1884.0501 
  375200    301.61673   -1167.9414    6402.1134    11677.751    1946.7944 
  375300    300.35459    -1168.902    6430.0869      11677.8    1898.5181 
  375400    300.40766   -1165.8473    6425.9129    11677.814    1801.4233 
  375500    300.15342   -1166.7498    6432.2126     11677.78    1799.2136 
  375600    299.25969   -1166.8666     6451.388    11677.745    1892.2028 
  375700    299.85631    -1162.406    6434.2076    11677.771    1892.4856 
  375800    299.23475    -1159.082    6444.1793    11677.789     1913.363 
  375900    304.87633   -1160.5989    6325.0896    11677.706    1824.4989 
  376000    299.69925   -1158.1502    6433.2777    11677.742    1849.8117 
  376100    301.73053   -1162.0193    6393.7676    11677.758    1862.4057 
  376200    299.21131   -1165.2446    6450.8259    11677.772    1914.9594 
  376300    296.75241   -1163.0951    6501.1158    11677.681    1921.9928 
  376400    303.93419   -1164.1049    6348.7885    11677.771    1879.6171 
  376500    294.82041   -1159.2079    6538.5512    11677.729    1913.0009 
  376600    303.82785   -1162.8182    6349.6917    11677.689    1874.0388 
  376700    298.83938   -1161.3853    6454.7794    11677.639    1920.7338 
  376800    298.30884     -1156.27    6460.9554    11677.596    1873.4412 
  376900    301.15197   -1160.8265    6404.7756    11677.599    1834.9012 
  377000    297.82331    -1160.112    6475.2838     11677.71    1933.0839 
  377100    303.80511   -1165.4872    6352.8241    11677.667    1803.2423 
  377200    300.58441   -1162.2445    6418.4235    11677.704    1796.0666 
  377300     296.9329   -1161.5026    6495.7082    11677.721    1885.8031 
  377400      299.549   -1165.5843    6443.8558    11677.676    1961.2456 
  377500    301.99953   -1163.5414    6389.4668    11677.682    1898.4592 
  377600    299.18221    -1167.401    6453.5511    11677.719    1932.6481 
  377700    299.09633   -1164.8024    6452.9133    11677.845    1948.2642 
  377800    303.68777   -1163.8179    6353.7939    11677.799     1907.982 
  377900    301.76856   -1157.7091    6388.5438    11677.657    1876.4324 
  378000     301.4872   -1163.0736    6400.0588    11677.797    1945.3036 
  378100    301.10259    -1163.493    6408.7214    11677.823    1909.2012 
  378200    301.96822   -1168.7884    6395.5371    11677.836    1825.3685 
  378300    300.09641   -1161.7259    6428.4078    11677.781    1837.7368 
  378400    298.10025   -1164.7991    6474.2091    11677.864    1854.9401 
  378500    301.80602   -1171.4917    6401.6532    11677.784    1822.4344 
  378600    298.67251   -1165.2988    6462.3842    11677.765    1832.8482 
  378700    301.29896   -1166.0182    6407.0818    11677.853    1874.1105 
  378800    300.66822   -1163.1521    6417.6291    11677.792    1784.0717 
  378900    297.60486   -1160.6874    6480.4681    11677.652    1864.8884 
  379000    300.45135   -1156.4384    6415.4083    11677.652    1950.0421 
  379100    304.37748      -1157.9    6333.0197    11677.677    1892.1533 
  379200     301.7254   -1163.0181    6394.8221    11677.704    1863.1686 
  379300    297.55662   -1160.5799     6481.409     11677.67    1890.3997 
  379400    301.78294    -1161.105    6391.6328    11677.657    1784.6603 
  379500    298.49811   -1165.6583    6466.3931    11677.689    1860.9193 
  379600     300.5896   -1164.3984     6420.468    11677.705    1927.6751 
  379700    299.19994   -1156.9536    6442.5611    11677.555    1913.6242 
  379800    299.03819   -1157.3042    6446.3514    11677.539    1939.7874 
  379900    301.04407   -1157.4328    6403.6584     11677.57    1903.2763 
  380000    302.46781   -1164.2324    6380.0856    11677.614     1906.219 
  380100     300.7494   -1160.6612    6413.2315     11677.62    1930.8932 
  380200    298.56257   -1156.9816    6456.1992    11677.549     1918.147 
  380300    299.14666    -1160.401    6447.2007    11677.609    1921.0477 
  380400    302.95816   -1165.9734    6371.4138    11677.677    1869.0868 
  380500    300.66978   -1167.9175    6422.2401    11677.671     1902.094 
  380600    301.70953   -1165.3037    6397.4244    11677.682    1842.8643 
  380700    299.03821   -1154.9494    6444.2277    11677.771    1807.7452 
  380800    298.30441   -1158.6291    6463.5868    11677.774    1835.5048 
  380900    299.69895    -1163.801    6438.9634    11677.771    1897.3861 
  381000    301.23144   -1165.9512    6408.4596    11677.856    1911.1572 
  381100    304.54885   -1170.1992    6341.8278    11677.847    1837.2091 
  381200      297.226   -1165.7506    6493.8574    11677.884     1841.529 
  381300    300.58301   -1168.3485    6424.7768    11677.923    1874.9776 
  381400    295.35848    -1166.341    6534.2854    11677.825    1886.6743 
  381500    302.47418   -1171.6157    6387.5566    11677.838    1840.5134 
  381600    300.18579   -1171.2611    6436.1131    11677.861    1960.4854 
  381700    298.05511   -1163.8266    6474.1227    11677.786    1905.9685 
  381800    300.75451   -1162.9513    6415.5612    11677.768     1857.755 
  381900    302.74886   -1166.5389    6376.5388    11677.765    1862.3528 
  382000    297.70302   -1162.6901     6480.507    11677.785    1881.9078 
  382100    301.75784    -1161.519    6392.6814    11677.756    1821.7041 
  382200    300.57679     -1170.19    6426.5511    11677.723    1797.2232 
  382300    297.69315   -1167.8052    6485.8336    11677.786    1806.6118 
  382400    298.17244   -1163.1712    6470.8902    11677.716    1840.8984 
  382500    301.84504   -1167.7625    6396.9478    11677.641    1863.0391 
  382600       301.61    -1163.222    6397.4528    11677.666    1882.8402 
  382700    300.25082    -1157.724    6420.9996    11677.674    1821.6641 
  382800    299.87667   -1158.9628    6430.1412    11677.583    1831.0909 
  382900    299.63347   -1161.5367    6437.9755    11677.648    1855.7206 
  383000    301.20239   -1161.8219    6404.7137    11677.619     1812.139 
  383100    301.91029   -1161.9786    6389.8055    11677.677    1887.5586 
  383200    301.48541    -1162.903    6399.8897     11677.76    1884.3341 
  383300    297.45498   -1159.1915    6482.2535    11677.731    1836.7014 
  383400    301.91633   -1153.9301    6381.5587    11677.608    1908.5275 
  383500    299.14668   -1161.2414    6448.2023    11677.771    1965.6259 
  383600    300.46968    -1157.708    6416.4435    11677.809    1813.7065 
  383700    299.87516    -1162.177    6433.5403    11677.736    1856.5127 
  383800    302.36082   -1160.9035    6379.1881     11677.76    1918.4146 
  383900    302.95653   -1164.3948    6369.9438     11677.75    1877.3065 
  384000    298.33637   -1159.7166    6463.9255    11677.708    1837.3869 
  384100    297.24628   -1162.1439     6489.765    11677.832     1845.822 
  384200    303.37985   -1166.9136    6363.3761    11677.707    1853.0697 
  384300    301.81661   -1166.6406    6396.5763    11677.784    1847.4364 
  384400    296.59774    -1166.352    6507.8273    11677.831    1921.1497 
  384500    300.39529   -1158.9361    6419.3078    11677.856    1887.0186 
  384600    305.10052   -1160.6299    6320.4395    11677.814    1806.7687 
  384700    298.96398   -1161.4878    6452.3609     11677.78    1877.4269 
  384800    300.84148    -1168.825    6419.5782     11677.77      1888.52 
  384900    298.00071   -1161.0846    6472.5836    11677.827     1894.114 
  385000    299.18054   -1168.4844    6454.7578    11677.806    1829.8403 
  385100    303.07311    -1173.422    6376.5419    11677.812    1833.1637 
  385200     298.9037   -1165.6701    6457.8959    11677.845     1885.404 
  385300    301.20876   -1168.0178    6410.9865    11677.832    1847.4801 
  385400    298.94293   -1161.5529    6452.9514    11677.856    1892.7236 
  385500    301.23683   -1161.5138    6403.9094    11677.858    1910.3713 
  385600     300.5068   -1160.5846    6418.5222    11677.804    1887.9006 
  385700    303.39984   -1163.6302    6359.6928    11677.735    1883.5952 
  385800    297.78727   -1161.2837    6477.2418    11677.726    1957.3954 
  385900     301.5985   -1163.6561    6398.2294    11677.763    1849.6384 
  386000    299.67881   -1164.3167    6439.8872    11677.748      1885.99 
  386100    296.91823   -1163.5228    6498.0779    11677.757    1900.7033 
  386200    301.62531    -1164.929    6398.8769     11677.71    1835.3603 
  386300    299.07477   -1162.9644    6451.3317    11677.641    1847.1287 
  386400    300.76775    -1161.545    6413.8971    11677.794    1878.8492 
  386500    300.85604   -1163.7477    6414.1897     11677.77    1886.4885 
  386600    302.37597   -1158.8348    6376.7075    11677.671    1898.7938 
  386700    299.51431   -1161.4667    6440.5633     11677.76    1852.7069 
  386800    302.32661   -1161.6996    6380.7751     11677.82    1859.5453 
  386900    301.29765   -1159.8403    6400.8741    11677.796    1859.0145 
  387000    299.43269   -1164.7718    6445.6272    11677.775    1849.9152 
  387100    298.45394   -1162.7859     6464.638    11677.863     1846.071 
  387200    302.72283   -1167.1604    6377.6792    11677.728     1823.736 
  387300    298.25403   -1162.8531    6468.9257    11677.812    1814.7365 
  387400      298.465   -1158.8504    6460.4982    11677.895    1867.2061 
  387500    304.74795   -1165.5844    6332.9137    11677.802    1768.6432 
  387600    296.72354   -1162.6964    6501.4919    11677.839    1788.1291 
  387700    303.74655   -1166.1819    6354.9424     11677.84    1807.4748 
  387800    297.65672     -1167.71    6486.6293    11677.898    1877.3445 
  387900    299.99489     -1167.67    6436.5806    11677.841    1822.8032 
  388000    303.29513   -1163.0435    6361.3555    11677.747    1866.3766 
  388100    302.84961   -1165.8846    6373.8136    11677.846    1854.1771 
  388200    297.12571   -1164.7261    6494.9329    11677.842    1874.7986 
  388300    300.34581     -1161.64    6423.0174    11677.805    1799.5614 
  388400    303.06661   -1163.3685    6366.6255     11677.81    1845.5971 
  388500    303.21001   -1159.9174    6360.1466    11677.846      1884.85 
  388600    299.41012     -1166.66    6448.1074    11677.885    1912.8102 
  388700    301.04722   -1160.6602    6407.0323    11677.784    1843.7318 
  388800    297.48747   -1162.8073    6485.1662    11677.722     1823.713 
  388900    300.44749   -1161.6002    6420.6794    11677.679    1828.6588 
  389000    299.33873   -1163.2419    6446.1376    11677.808    1807.1025 
  389100    297.69095   -1164.7908    6482.8749    11677.795       1864.6 
  389200     301.8548   -1163.4388    6392.6052    11677.831    1874.5938 
  389300    297.24645   -1163.7129     6491.336    11677.837    1872.0185 
  389400    299.37306   -1166.7223    6448.8237    11677.748    1863.1419 
  389500    302.70039    -1166.159    6377.1996     11677.77    1891.4531 
  389600    299.50894   -1156.4692    6435.6793    11677.759    1924.4556 
  389700    300.99142   -1154.4988    6401.9967    11677.718    1900.0746 
  389800    297.00794   -1160.0304    6492.6783    11677.767    1879.8217 
  389900    300.95453   -1160.8016    6409.0933    11677.723    1894.8499 
  390000    300.37343   -1157.8905    6418.6179    11677.745    1889.4242 
  390100    302.06271   -1165.3098    6389.9509    11677.747     1891.925 
  390200    297.18755   -1167.4728    6496.3607    11677.844    1826.0735 
  390300    297.32771   -1165.5347    6491.3958    11677.811    1847.3636 
  390400    303.94034   -1164.1002    6348.6744    11677.793    1836.5359 
  390500    302.05718   -1162.8886    6387.6997    11677.799    1857.5496 
  390600    299.36386   -1157.2435    6439.5319    11677.738    1826.5107 
  390700    302.34051   -1162.0036    6380.7011    11677.738    1849.0949 
  390800    301.40125   -1157.8278    6396.5755    11677.723     1804.852 
  390900    299.10408   -1166.9678    6454.8179     11677.75    1829.9123 
  391000    300.95066   -1162.7414    6411.0814    11677.689    1884.0671 
  391100    298.93956   -1160.7834    6452.2205    11677.822    1856.8415 
  391200    300.20404   -1170.6892    6435.0792    11677.789    1789.1109 
  391300     299.6453   -1168.2473    6444.5628    11677.778    1851.3318 
  391400    298.43655   -1161.9164     6464.029    11677.752    1797.6905 
  391500    301.94212    -1162.571    6389.8027    11677.762    1845.3614 
  391600    301.29402   -1164.4036    6405.4353    11677.716    1933.0582 
  391700    301.08353   -1164.6297    6410.1722     11677.73    1881.5895 
  391800    298.63559   -1161.7697    6459.6133    11677.735    1851.6411 
  391900    301.17363   -1164.1445    6407.8298    11677.798    1938.5577 
  392000     299.5058   -1167.9432    6447.2417     11677.78     1847.143 
  392100    298.65183   -1160.1287    6457.6118    11677.721    1834.9544 
  392200    300.44782   -1164.7672    6423.9332    11677.773    1862.9898 
  392300    300.33924   -1162.3967    6423.9635    11677.854    1904.1262 
  392400    300.93052   -1163.2977    6412.2243    11677.845    1857.4323 
  392500    301.39764   -1162.9445     6401.879    11677.833    1873.5621 
  392600    297.19376    -1167.351    6496.0552    11677.793    1896.7747 
  392700    298.10871   -1165.8521    6474.8856    11677.669    1865.9104 
  392800    302.88715   -1168.5765    6375.5501    11677.693    1873.9641 
  392900    300.34443   -1170.8067    6432.1457    11677.737     1884.339 
  393000    298.97883   -1157.8302    6448.3491    11677.743    1831.3322 
  393100    301.86745   -1162.1303    6390.8777    11677.682    1813.6006 
  393200    295.78776   -1156.3141    6514.9528     11677.69    1874.0664 
  393300    301.46687   -1160.3974    6397.7218    11677.701    1856.2729 
  393400     301.7884   -1162.9555    6393.3778    11677.668    1835.6941 
  393500    297.72802   -1167.4084    6484.6727    11677.767    1866.6449 
  393600    298.32098   -1165.6158    6470.2028    11677.757    1903.3607 
  393700    300.49228   -1163.2773    6421.4005     11677.68    1851.5973 
  393800    300.12131    -1167.502    6433.5449    11677.674     1868.155 
  393900    299.49328   -1164.9501     6444.445    11677.709    1935.5419 
  394000     299.5786   -1161.1431    6438.7078    11677.602    1904.4072 
  394100    298.57817   -1163.6282     6462.589    11677.625    1872.3638 
  394200    298.46149    -1156.056    6457.5202    11677.636    1914.0825 
  394300    298.67718   -1165.9021    6462.7822     11677.66    1842.7783 
  394400    300.81454   -1161.2434    6412.3839    11677.582    1838.0019 
  394500    298.68053   -1166.9339    6463.6969    11677.614    1840.9519 
  394600    299.21711    -1163.191     6448.503    11677.626    1863.5913 
  394700     301.3427   -1153.0615    6393.0389    11677.702    1897.0004 
  394800     302.1749   -1164.4361    6386.5351    11677.602    1876.6667 
  394900    296.30436   -1160.8173    6508.3902    11677.661    1919.6847 
  395000    300.50968   -1158.8995    6416.6233    11677.652    1894.4778 
  395100    303.24967   -1164.0713    6363.2374     11677.63    1851.8716 
  395200    297.47925   -1163.3215    6485.8398    11677.706    1880.2857 
  395300    300.74804   -1164.9987     6417.704    11677.726    1871.3806 
  395400    299.45844   -1165.3376    6445.6737    11677.806     1890.507 
  395500    298.04949   -1163.2995    6473.7113    11677.782    1892.0595 
  395600    303.13719   -1166.4325     6368.168    11677.796    1840.6028 
  395700    299.99228   -1169.5042    6438.4757    11677.846    1907.8869 
  395800    295.87739   -1167.6081    6524.4854    11677.844    1909.6514 
  395900    298.88834   -1162.0827    6454.6159    11677.824    1904.6491 
  396000     302.1561   -1166.1434    6388.8619     11677.82     1872.141 
  396100    298.02607   -1166.1908    6477.2011     11677.88    1945.9474 
  396200    302.39471   -1164.1643    6381.7637    11677.799    1829.8999 
  396300    298.05074   -1162.5741    6472.9559    11677.779    1910.5298 
  396400    302.06563   -1160.1791    6384.9171    11677.907    1919.9684 
  396500    300.81693   -1166.6152    6417.9879    11677.865    1922.8194 
  396600    303.76688   -1167.8117    6356.2047    11677.906    1915.9511 
  396700    297.29061   -1162.7541    6489.4527    11677.856    1848.0791 
  396800    301.30536   -1166.5709    6407.5509    11677.907    1845.7199 
  396900    299.36057   -1166.6591    6449.0867    11677.807    1893.4418 
  397000    302.97014   -1167.1826    6372.5382    11677.848    1931.3315 
  397100    297.92022   -1161.5783    6474.7592    11677.789    1965.2442 
  397200    300.62902   -1167.7043    6423.0712    11677.845    1916.4098 
  397300    301.10412   -1164.1701    6409.3701    11677.828    1899.6884 
  397400    297.55815   -1165.9595    6486.8764     11677.79    1901.2835 
  397500     300.1948   -1160.2951    6424.7974    11677.704    1882.1835 
  397600    300.76053   -1164.9074    6417.3701     11677.75    1938.3075 
  397700    299.90359   -1164.8191     6435.657    11677.818    1917.6967 
  397800     298.4116   -1159.4785    6462.1402    11677.768    1871.1938 
  397900    303.30179    -1167.459    6365.5887    11677.707    1905.1821 
  398000    297.22417   -1159.0093    6486.9893    11677.718    1900.2545 
  398100    299.94906   -1166.7765     6436.546    11677.721    1891.8975 
  398200    299.75815   -1163.3663    6437.2195    11677.726    1887.6258 
  398300    297.07654   -1158.9947     6490.165    11677.755    1956.6091 
  398400    301.73565   -1162.4085    6394.0039    11677.715    1879.5983 
  398500    300.35716   -1166.2861    6427.3326    11677.716    1850.4182 
  398600    300.34146   -1161.8966    6423.2583    11677.696    1941.7934 
  398700    298.94013   -1156.5743     6447.822    11677.645    1886.9267 
  398800    297.30556   -1161.9558    6488.2005    11677.722     1875.012 
  398900    302.66286   -1161.7728    6373.6339    11677.789    1876.8609 
  399000    299.45456   -1161.2973    6441.6337    11677.723    1866.7917 
  399100    300.43505   -1164.5309    6423.8875     11677.69    1813.5337 
  399200    300.48464   -1164.4277     6422.828    11677.794    1912.2598 
  399300    297.75771   -1168.8924    6485.5431    11677.787    1875.9924 
  399400    300.23569    -1165.987    6429.7127    11677.801    1849.3746 
  399500    304.59685   -1162.4641    6332.9975    11677.778    1849.3852 
  399600    300.89457   -1162.7267    6412.4724    11677.896    1926.6803 
  399700    299.27745   -1164.8767    6449.0777    11677.805     1955.923 
  399800    298.76354   -1161.8044    6456.9888    11677.809    1961.4376 
  399900    301.84423   -1159.9474    6389.3903    11677.882     1958.198 
  400000     301.5596   -1168.4837    6403.9722    11677.847    1900.8297 
  400100    300.61188   -1162.7088    6418.4601    11677.863    1881.5735 
  400200    301.11735   -1167.7058    6412.6129    11677.817    1937.3781 
  400300     297.8226   -1165.0473     6480.316    11677.792    1896.6599 
  400400    303.24463   -1166.0444    6365.5602    11677.872     1839.771 
  400500    299.82114   -1167.5373    6440.1211    11677.802    1895.4352 
  400600    301.54998   -1163.8276    6399.3995    11677.725    1922.8324 
  400700     301.6734   -1161.1448      6394.13    11677.775    1929.3142 
  400800    299.82744   -1167.9341    6440.3664    11677.785    1922.6285 
  400900    301.08032   -1164.6661    6410.3142    11677.767    1854.8567 
  401000    304.14963   -1161.9583    6342.0197    11677.752    1842.3813 
  401100    297.32306   -1162.6966     6488.587    11677.741     1873.689 
  401200    300.62498    -1156.509    6411.8333    11677.716    1918.7464 
  401300    298.82737   -1163.3723    6457.0816    11677.697    1926.3049 
  401400    298.77657   -1159.6375    6454.4427    11677.708    1889.8887 
  401500    300.16371    -1159.207    6424.4723    11677.802    1845.0571 
  401600    297.73016   -1163.7502     6480.937    11677.735    1892.1137 
  401700    301.64227   -1161.3707    6394.9536    11677.707    1863.4922 
  401800    301.24968   -1158.2392    6400.1697    11677.668    1811.7154 
  401900    299.99952   -1160.6057    6429.2738    11677.698     1889.755 
  402000    300.70007   -1157.3808    6411.0458    11677.661    1945.4461 
  402100    301.92459   -1160.6079    6388.1011    11677.649    1915.1813 
  402200    300.44441   -1161.9807    6421.0249    11677.578    1911.4825 
  402300    294.73222   -1159.6931    6540.9099    11677.719    1932.6011 
  402400    297.13514   -1164.2264    6494.0561    11677.666    1941.4617 
  402500    304.35484   -1163.9215    6339.4361    11677.589    1892.4873 
  402600    301.85637   -1162.0116    6390.9524    11677.639    1855.1109 
  402700    298.44718   -1170.6239    6472.5438    11677.786     1855.367 
  402800    300.67673   -1160.0298    6414.3178    11677.785    1838.1487 
  402900    299.94046   -1165.9571    6436.0055    11677.816    1851.4135 
  403000    298.63484   -1168.2004    6466.0659    11677.741    1865.8199 
  403100    304.73463    -1166.508    6334.1765    11677.856    1919.0751 
  403200    296.97408   -1167.8653    6501.3112    11677.841    1981.1139 
  403300     300.9601   -1163.3978    6411.6484    11677.801    1863.0633 
  403400    298.02377   -1171.3862    6482.4646    11677.899    1858.6684 
  403500    304.77055   -1168.9013    6335.8586    11677.912    1902.6388 
  403600    298.83028   -1167.0711    6460.9116    11677.891    1953.5006 
  403700    301.01887    -1163.253    6410.3161    11677.869    1948.0558 
  403800    300.17132   -1168.8215    6434.0119     11677.89    1890.9326 
  403900    300.19358   -1168.8611    6433.5424    11677.857    1878.8578 
  404000    300.28579   -1171.2337    6433.9977    11677.909    1866.6768 
  404100    299.63506   -1167.5955    6444.1256    11677.773    1972.0764 
  404200    300.81036   -1162.2086    6413.6247    11677.768    1968.8289 
  404300    299.97528   -1160.2101     6429.457    11677.759    1922.4249 
  404400    299.37768   -1155.2774    6437.2494    11677.717    1894.3321 
  404500    296.10757   -1162.5829    6514.3525    11677.654    1908.5703 
  404600    302.65712   -1163.4747    6375.2189    11677.549    1853.7304 
  404700    300.75728   -1158.4687    6410.9237    11677.673    1853.4745 
  404800     298.9805   -1160.0916    6450.4499    11677.618     1898.162 
  404900    304.35032   -1159.8332    6335.2805    11677.425    1823.1349 
  405000    299.07758   -1154.7801    6442.8915    11677.445    1882.2394 
  405100    300.54175   -1153.1763    6410.0114    11677.449     1871.913 
  405200    299.17369   -1153.0728    6439.1343    11677.448    1921.8991 
  405300    301.18984    -1154.834     6397.847    11677.472    1883.5105 
  405400    299.43557   -1160.2729    6440.7877    11677.496    1838.7858 
  405500    298.69031   -1155.8229    6452.3004    11677.538    1860.3487 
  405600    299.22368   -1157.2302    6442.3254     11677.55    1865.4827 
  405700    299.48342   -1154.8137    6434.3872    11677.577    1895.3633 
  405800      300.545   -1154.5024    6411.4328    11677.613    1850.2741 
  405900     300.5826   -1157.9528    6414.0988    11677.632    1903.5746 
  406000    297.56843   -1158.2666    6478.8852    11677.711    1904.9712 
  406100    300.36832   -1163.3724    6424.2136    11677.749    1872.9366 
  406200    301.28728   -1162.7717    6403.9199    11677.689    1932.7839 
  406300     302.1049   -1164.3675    6388.1173    11677.758    1923.4447 
  406400    300.91906   -1155.8825    6404.9659    11677.757    1885.4003 
  406500    300.96524   -1164.7522    6412.9219     11677.83    1903.9778 
  406600    300.28493   -1170.2585    6432.9797    11677.848    1942.3922 
  406700    299.11552   -1169.4545    6457.1771    11677.867     1900.076 
  406800    298.91373    -1173.508    6465.5884    11677.914    1911.1482 
  406900    303.13736   -1174.7003    6376.5572    11677.922    1854.1765 
  407000     299.0837   -1170.3293    6458.8138    11677.949    1908.0505 
  407100     300.7406   -1167.2867    6420.2872    11677.862    1900.3775 
  407200    300.85879   -1166.3389    6416.7875    11677.835    1924.9971 
  407300    300.44693   -1164.6195    6423.8607    11677.829    1948.0241 
  407400    301.72844   -1164.5294    6396.3592    11677.795    1864.4101 
  407500    304.41967   -1164.3086    6338.6431    11677.794    1819.5248 
  407600    295.18292   -1167.1033    6538.9143    11677.941    1940.1645 
  407700    303.03509    -1167.402    6371.2768    11677.755    1851.8336 
  407800    299.09152   -1166.2081    6454.3254    11677.749    1838.4214 
  407900    301.80307   -1166.1404    6396.3278    11677.747    1855.0247 
  408000    298.25896   -1164.5008    6470.3904    11677.735    1934.1191 
  408100    300.74216   -1156.9246    6409.6858    11677.656    1865.6275 
  408200    297.88587    -1153.823    6467.5417    11677.593    1907.1906 
  408300    300.80809   -1157.4441    6408.6258    11677.485     1950.707 
  408400    300.88118   -1154.6158    6404.2369    11677.486    1903.8751 
  408500    300.03225   -1153.3445    6421.0197    11677.404    1860.9756 
  408600    298.93148   -1155.2564    6446.5518    11677.508    1885.7229 
  408700    298.74189   -1157.0495    6452.4847    11677.597    1815.2268 
  408800    299.46967   -1163.9679    6443.8917    11677.634    1827.1825 
  408900    299.29422   -1157.7837    6441.3244    11677.502    1986.2508 
  409000    299.38498   -1153.7831    6435.3611    11677.479    1898.5852 
  409100    300.31651   -1150.7193    6412.5164    11677.599    1836.4791 
  409200    297.79094   -1154.5602     6470.292    11677.578    1878.9304 
  409300    300.47505    -1155.179    6413.5819    11677.591     1955.106 
  409400    300.39108   -1155.0384     6415.299    11677.655    1877.1057 
  409500    298.86258   -1164.9703    6457.9062    11677.676    1805.2721 
  409600    299.85853   -1163.9906    6435.6896    11677.716    1874.0139 
  409700    298.28738   -1163.6781    6468.9315    11677.705    1903.3898 
  409800    302.35081    -1166.102    6384.5836    11677.743    1877.9998 
  409900    298.26568   -1166.6929    6472.6022    11677.898    1922.8361 
  410000    300.42616   -1166.4377    6426.1142    11677.821    1838.7595 
  410100    299.73138   -1164.7727    6439.2769    11677.805    1824.7329 
  410200    300.63715   -1166.8871    6422.0611    11677.825    1888.6733 
  410300    301.16941   -1170.5316    6414.3186    11677.809    1880.1423 
  410400    298.92285   -1168.0145    6459.8321    11677.845    1832.6184 
  410500    302.36015   -1163.3061    6381.6753     11677.83    1927.9472 
  410600    299.01328   -1168.6131    6458.4716    11677.818    2007.5281 
  410700    298.68016   -1164.5854    6461.5548    11677.813    1913.9414 
  410800    300.41559   -1172.9885    6432.8679    11677.797    1842.8808 
  410900    300.93512   -1172.1003    6420.9634     11677.88    1902.3779 
  411000    302.53303   -1167.4467    6382.0118    11677.719    1860.7351 
  411100    299.78046   -1161.9966    6435.3933    11677.746    1814.9566 
  411200    299.65396   -1166.4707    6442.5032     11677.68    1844.3634 
  411300    301.67302   -1159.5292    6392.4373    11677.689    1845.1974 
  411400    301.64794   -1159.2565    6392.7386    11677.727    1853.8561 
  411500    299.09222   -1158.3383    6446.3389    11677.647    1901.5881 
  411600    300.89594    -1157.564    6406.9767    11677.593    1902.1916 
  411700    300.72351   -1160.5637    6413.7947    11677.727    1846.8471 
  411800     299.1084   -1161.4918    6449.2056    11677.706    1837.0915 
  411900    299.65649   -1158.9828    6434.9374    11677.656    1917.0115 
  412000    300.39903   -1159.2889    6419.4189    11677.694    1820.2395 
  412100    303.43879   -1160.6508    6355.7625    11677.616    1813.4402 
  412200    299.43532    -1160.399    6441.0178    11677.595      1878.48 
  412300    297.59303   -1155.9796    6475.9034    11677.542    1843.4329 
  412400    302.63722    -1158.666     6370.852    11677.566    1923.2866 
  412500    301.97869   -1156.4801    6382.7477    11677.579    1872.6088 
  412600     297.3175   -1151.8505    6477.7381     11677.62     1833.729 
  412700     302.5051   -1157.3908    6372.4843    11677.651    1817.8831 
  412800    297.45679   -1165.1919    6488.1282    11677.644     1897.129 
  412900    300.56105   -1162.2144    6418.7991     11677.61    1939.9048 
  413000    302.05049   -1163.5689    6388.4323    11677.709    1895.9933 
  413100     300.2595   -1164.3351    6427.4768    11677.725    1964.0253 
  413200    299.98369   -1164.6296    6433.6595    11677.721    1969.1226 
  413300    302.80301   -1156.0494    6364.7888    11677.661    1872.2037 
  413400    298.74676   -1159.1067    6454.5664    11677.726     1870.302 
  413500    299.84206   -1165.7997    6437.9309    11677.797    1869.2701 
  413600    297.25009   -1161.8492    6489.3036    11677.746    1877.3736 
  413700    305.43716   -1160.9911    6313.6192    11677.824    1811.7451 
  413800    297.80455   -1172.0988    6487.8072    11677.846    1881.1134 
  413900    299.11218   -1170.2144    6457.9661    11677.825    1889.2305 
  414000    300.57194   -1171.1151    6427.6588    11677.802    1872.9187 
  414100    298.96782   -1164.9035    6455.7503    11677.835    1870.5469 
  414200    301.61881   -1161.2579    6395.4291    11677.794    1851.7008 
  414300    301.03319    -1161.272    6407.9886    11677.829    1896.3549 
  414400    301.54688   -1158.3533    6393.9391    11677.672    1907.7426 
  414500    295.57435   -1164.8019    6527.9842    11677.675    1923.9619 
  414600    304.66426   -1163.1989    6332.2873    11677.773     1881.082 
  414700    300.81837   -1164.2958    6415.4052    11677.632     1846.255 
  414800    300.23306   -1162.8689    6426.5124    11677.662    1907.8377 
  414900    300.31249   -1164.0199    6426.0799    11677.776    1876.7675 
  415000    299.55693   -1165.0089    6443.1105    11677.676    1866.8834 
  415100    301.26854   -1166.7205    6408.2284    11677.648    1924.6439 
  415200    299.84501   -1162.8394    6434.7187    11677.608    1890.1229 
  415300    297.95718   -1153.9634    6466.1153     11677.55    1834.5636 
  415400    300.99132   -1157.2564    6404.6064    11677.568     1897.177 
  415500    299.96569   -1159.8256     6429.065    11677.546    1895.9569 
  415600    298.78279   -1163.1557    6457.6895     11677.57    1874.1006 
  415700    300.21627   -1159.9555    6423.8268    11677.531    1914.3272 
  415800    299.04735   -1163.1037    6451.9887    11677.573    1924.6287 
  415900    301.59325   -1160.3843     6394.898    11677.591     1925.648 
  416000    303.89963   -1161.8605    6347.0933    11677.582     1861.652 
  416100    298.25959   -1156.6888    6462.3722    11677.542    1895.7832 
  416200    296.19419   -1157.7585    6507.5951    11677.571    1869.7707 
  416300    302.52687   -1161.5847    6376.2047    11677.642    1888.8208 
  416400    302.25493   -1163.0034    6383.3681    11677.577    1883.0936 
  416500    299.42094   -1164.6853    6445.5597    11677.543    1855.0937 
  416600    299.60893    -1164.322    6441.3534    11677.716    1845.9439 
  416700    299.95304   -1159.1938    6428.8601    11677.703    1808.1818 
  416800    296.29561   -1160.8736    6508.6695    11677.697     1870.884 
  416900    301.54909   -1164.6573    6400.2046    11677.681    1906.9446 
  417000    298.09734   -1165.3235    6474.6682    11677.737    1953.9582 
  417100    301.19479   -1165.6457    6408.7536    11677.672    1906.8644 
  417200    300.62461   -1161.1712    6416.4571    11677.669    1888.5167 
  417300     299.3981   -1164.4662    6445.9753     11677.69    1867.4777 
  417400    301.16755   -1161.5736    6405.3264    11677.735    1874.9171 
  417500    301.07689    -1163.885    6409.5835    11677.744    1920.7369 
  417600    302.22242    -1162.612    6383.7936      11677.7    1892.8646 
  417700    300.48555   -1163.9219    6422.2321    11677.723    1879.9729 
  417800    296.67428   -1166.1078    6505.9522    11677.835    1872.1424 
  417900    301.15359   -1168.5885    6412.6363    11677.732    1837.9902 
  418000    300.99827   -1164.6234    6412.0071     11677.75    1842.7702 
  418100    297.81109    -1166.489     6482.008    11677.796    1899.9482 
  418200    304.56444   -1165.2156    6336.3591    11677.696    1852.7955 
  418300    300.89102   -1158.4174    6408.0262    11677.684    1882.9384 
  418400    297.76517   -1157.8613    6474.2493    11677.684    1948.1817 
  418500    303.44251   -1152.9541    6348.0542    11677.684    1974.4731 
  418600     298.6918   -1159.2283    6455.7649    11677.629    1945.8695 
  418700    299.79461    -1153.922     6426.866    11677.596    1885.7808 
  418800    300.13629   -1161.0974    6426.7926    11677.647    1901.2982 
  418900    299.66126   -1159.8921     6435.715    11677.626    1891.6199 
  419000    305.61478   -1164.5742    6313.1842    11677.601    1769.7273 
  419100    297.17654   -1164.4556    6493.3534    11677.619    1923.5589 
  419200    299.98883   -1165.2994    6434.1853    11677.687    1914.7195 
  419300     301.3577   -1159.1245    6398.7111    11677.631    1903.7821 
  419400    296.65382    -1157.608    6497.6909    11677.636    1922.7443 
  419500    299.11193   -1159.2934    6446.8301    11677.604    1953.3548 
  419600    301.40137   -1156.8085    6395.4461    11677.615    1901.6895 
  419700     298.7261   -1153.8306     6449.669    11677.663    1934.3359 
  419800    298.92415   -1161.4216    6453.0602    11677.694    1992.0461 
  419900    301.05988   -1163.5467    6409.6576    11677.793    1995.7908 
  420000    297.76607    -1159.192     6475.609    11677.732    1908.0143 
  420100    304.08489    -1161.707     6343.176    11677.776     1864.531 
  420200    300.20602   -1163.8114    6428.1764    11677.806    1903.6215 
  420300    301.44623   -1163.2801    6401.2032    11677.859    1851.3109 
  420400    300.33527   -1170.3345     6431.991    11677.859    1864.1823 
  420500     302.6897   -1161.7607    6373.0574    11677.798    1885.4357 
  420600    301.47907   -1168.9591    6406.1986    11677.877    1988.1191 
  420700    297.77641    -1165.899    6482.2185    11677.856    2003.6779 
  420800    300.79025   -1167.9101    6419.8728    11677.885    1967.8027 
  420900    301.22243   -1170.8155     6413.547    11677.886    1924.4393 
  421000    299.71764   -1168.3173    6443.2363    11677.927    1912.8721 
  421100     297.1127   -1174.6085    6505.2475    11677.996    1981.4819 
  421200     299.3465   -1170.4042    6453.2137    11677.888    1931.2513 
  421300    301.59205   -1168.4082    6403.1799    11677.823    1916.1336 
  421400    298.79155   -1170.8417     6465.565    11677.946    1936.5898 
  421500    303.50122   -1167.2798    6361.2969    11677.855    1921.7872 
  421600    297.62742   -1155.9511    6475.5217    11677.924    1913.5118 
  421700    300.41571   -1166.7948     6426.657    11677.783    1852.8193 
  421800    299.39846   -1159.9478    6441.4896    11677.731    1895.5528 
  421900    300.18809   -1162.7518    6427.4402    11677.746    1852.6316 
  422000      300.294   -1164.2047    6426.6831    11677.799    1891.9785 
  422100    300.57475   -1160.8337    6417.2714    11677.756    1935.5028 
  422200    301.21288    -1169.424    6412.1598    11677.687    1866.3901 
  422300    297.38181     -1165.27    6489.7827    11677.619    1893.5073 
  422400    301.27005   -1168.9174    6410.3912    11677.646    1952.3475 
  422500    302.67059   -1161.0628    6372.5786    11677.609    1936.9186 
  422600    296.01705   -1159.7215    6513.3456    11677.574    1887.8157 
  422700    300.11851    -1160.924    6426.9759    11677.623    1919.1347 
  422800    302.61691   -1154.6878    6367.3579    11677.616     1881.212 
  422900    294.90532   -1161.8055    6539.1967    11677.591    1884.6895 
  423000    303.24033   -1159.9788    6359.2388    11677.524    1879.7462 
  423100    300.96272   -1158.9229    6406.8978    11677.582    1875.1046 
  423200    298.08456   -1161.5055    6470.9894    11677.603    1898.4649 
  423300    301.39435   -1164.4584    6403.2459    11677.615    1876.9757 
  423400    299.40336    -1158.994    6440.4396    11677.739    1907.9637 
  423500    298.43475   -1162.4844    6464.5574    11677.674    1878.3941 
  423600    304.00859   -1167.5774    6350.5097    11677.609    1911.5535 
  423700    301.48427   -1161.1254    6398.0172    11677.641    1923.1984 
  423800    298.26873   -1155.7154    6461.3447    11677.683    1931.3528 
  423900     298.5616   -1162.1308    6461.4954    11677.675    1956.5004 
  424000    302.88297   -1161.1236    6368.1493    11677.655    1925.1035 
  424100    296.88551    -1166.395    6501.6043    11677.713    1914.9696 
  424200    301.11456   -1168.7154    6413.6701    11677.805    1910.9672 
  424300    296.88644   -1168.0815    6503.3089    11677.751    1844.6038 
  424400     297.9809   -1165.2455    6477.0913    11677.751    1841.6575 
  424500     300.4817   -1164.1229    6422.6269    11677.834    1934.6614 
  424600    303.01236   -1157.6127    6361.9898    11677.771    1865.1936 
  424700    299.24153   -1157.4001    6442.4024    11677.838     1871.846 
  424800    299.92979    -1164.092    6434.3503    11677.798    1865.2097 
  424900    299.43519      -1163.1      6443.93    11677.803    1879.3176 
  425000    300.61251   -1164.0318    6419.6834    11677.777    1879.8281 
  425100    302.52628   -1157.7919    6372.5548    11677.773    1855.1848 
  425200    297.01805   -1160.5451    6493.0008    11677.791    1832.7818 
  425300    304.04865   -1169.1776    6351.3911    11677.746    1841.3929 
  425400    301.18854    -1160.764    6404.1478    11677.815    1908.6128 
  425500    298.79277   -1161.8067    6456.2349    11677.677    1920.1952 
  425600    298.79635   -1156.6183    6450.9449    11677.652     1927.429 
  425700    301.12518    -1157.319    6401.8452    11677.604    1832.1574 
  425800    297.92214   -1158.6894     6471.648    11677.608     1915.342 
  425900    298.75966   -1158.8639    6454.0239    11677.702    1883.1686 
  426000     302.3898   -1162.1145    6379.6571    11677.637    1850.9911 
  426100    298.47895   -1165.3413    6466.4478    11677.651    1887.2035 
  426200    301.53951   -1162.1493    6397.9311    11677.711    1878.0506 
  426300    300.67955   -1165.3166     6419.569     11677.81     1839.553 
  426400    297.84467    -1164.209    6478.9943     11677.78    1840.5071 
  426500    299.72531   -1165.7802    6440.4609    11677.852    1876.3294 
  426600    303.36642   -1163.5793    6360.4034    11677.782    1872.8315 
  426700     298.4229   -1156.5732    6459.0675    11677.842    1954.2302 
  426800    302.62498   -1161.2093    6373.9969    11677.906    1924.0568 
  426900    297.10011   -1157.5574    6488.3327    11677.863    1916.0923 
  427000    299.28324   -1165.6268    6449.6592     11677.76    1836.5983 
  427100    301.94033   -1170.3083    6397.6326    11677.816    1891.6365 
  427200    299.24283   -1165.2617    6450.2117    11677.814    1897.2835 
  427300    302.59515   -1169.9261    6383.2627    11677.818    1839.0091 
  427400    296.34791   -1167.8394    6514.6431    11677.822    1876.3672 
  427500    301.78255   -1166.1224    6396.7856    11677.784    1881.3136 
  427600    305.42617   -1169.1882    6322.0258    11677.799    1905.4964 
  427700    296.19468   -1165.4508    6515.4738    11677.768    1988.1623 
  427800     301.9414   -1165.4469    6392.7939    11677.862    1927.1451 
  427900    299.94694   -1163.3256     6433.218    11677.799    1911.9984 
  428000    302.52317   -1167.9595     6382.818    11677.802    1915.3081 
  428100    297.15684   -1166.4962    6495.9953    11677.799    1888.0287 
  428200    297.46588   -1166.3024    6489.2457    11677.846    1899.3588 
  428300    302.14233   -1161.4402    6384.3956    11677.763     1971.374 
  428400    299.06549   -1158.4658    6447.0571    11677.667    1934.8131 
  428500    297.03152   -1161.1413     6493.261    11677.742    1982.6083 
  428600     305.1047   -1163.4493    6323.1546    11677.799    1961.5711 
  428700    298.94248   -1161.0938    6452.4387    11677.792     1939.838 
  428800      297.207   -1161.6225    6489.9516    11677.701    1896.3092 
  428900    303.81263   -1164.9668    6352.2462     11677.77    1916.1838 
  429000    298.97601   -1162.0701    6452.5838    11677.677    1955.6218 
  429100    302.34204   -1161.6085    6380.1576    11677.623    1890.4825 
  429200    295.93557   -1164.1677    6519.6389    11677.681    1941.2595 
  429300    297.32555   -1161.9828    6487.8362    11677.757     1927.403 
  429400    301.80255    -1160.142    6390.2729    11677.679    1898.8414 
  429500    297.72971   -1154.9704     6472.078    11677.646    1937.5181 
  429600    299.12792   -1164.9037    6452.1464    11677.652     1973.695 
  429700    302.45674   -1161.9464      6378.18    11677.758     1943.516 
  429800    300.20851   -1165.1066    6429.3559    11677.744    1948.4175 
  429900    299.69535   -1166.7121    6441.9012     11677.72    1945.3406 
  430000     297.2713   -1163.7344    6490.8933    11677.904    1969.1742 
  430100    301.60501   -1171.1989    6405.6461    11677.776    1900.7418 
  430200    299.37495   -1167.5653    6449.6599    11677.781    1865.8031 
  430300    296.17666   -1163.2961    6513.8058     11677.87    1891.9121 
  430400    301.48414   -1167.0591    6404.1723    11677.859    1914.5964 
  430500    302.50575   -1168.0492    6383.3443    11677.866    1960.7918 
  430600    299.01093    -1163.882    6453.8131    11677.841    1954.0942 
  430700    299.84138   -1166.1379    6438.3571     11677.87    1959.6609 
  430800     299.5324    -1165.234    6444.0376    11677.854     1969.502 
  430900    300.94049   -1169.0366     6417.757    11677.852      1975.31 
  431000    297.78056   -1172.6728    6488.9049    11677.857    1982.6901 
  431100     299.1612   -1168.4648    6455.2516    11677.907    1884.2849 
  431200    297.61581   -1171.4954    6491.2161    11677.826     1861.553 
  431300    302.38917   -1170.5187    6388.2038    11677.766    1880.5551 
  431400    298.99314    -1161.684    6451.9612    11677.807    1954.5099 
  431500    301.35542   -1157.6055    6397.3223    11677.713    1960.4864 
  431600    301.73274   -1160.9418    6392.6731    11677.788    1918.6431 
  431700    299.24081   -1160.7221    6445.6191    11677.718     1911.684 
  431800    301.27158   -1170.3025    6411.8535    11677.756    1946.7664 
  431900    298.94854   -1166.2394    6457.4309    11677.768    1918.0457 
  432000    299.46008   -1172.1109    6452.3365    11677.731    1889.1254 
  432100    300.21896   -1170.2934    6434.2952    11677.719    1888.0229 
  432200    300.80911   -1166.0306    6417.4801    11677.775    1913.3965 
  432300     297.8716   -1165.1573    6479.3754    11677.788    1907.1246 
  432400    302.92783   -1158.3795    6364.5386    11677.747    1957.7119 
  432500     302.1612   -1155.0223    6377.5278    11677.716    1977.4684 
  432600    300.07562   -1157.9067    6425.0592    11677.808    1894.8515 
  432700    298.26573   -1161.1311    6466.8453    11677.704     1851.007 
  432800    300.78898   -1161.8834    6413.6983     11677.71    1894.2118 
  432900    299.39448   -1159.9511    6441.5801    11677.733    1904.0743 
  433000    300.51603   -1168.8051    6426.5617     11677.82    1886.3875 
  433100    303.37865   -1168.7872    6365.3713    11677.803    1870.0508 
  433200    299.98986   -1168.4838    6437.4571    11677.796    1839.3722 
  433300    297.52604   -1167.6202    6489.2617    11677.829    1862.1851 
  433400     300.1475   -1165.9963     6431.577    11677.771    1921.5324 
  433500    299.53449   -1166.3522    6445.0415    11677.784    2004.2486 
  433600    297.85443   -1159.2886    6473.8934    11677.808    1953.2581 
  433700    302.12886   -1161.3687    6384.6791     11677.83    1914.5012 
  433800    300.30779   -1166.0963    6428.2951    11677.814    1940.4553 
  433900    300.55257   -1167.0561    6424.0859    11677.874    1874.6357 
  434000    296.45794   -1168.8008    6513.3459    11677.914    1937.7902 
  434100    302.11743   -1171.0386    6394.6273    11677.864    1898.9026 
  434200    301.15641   -1168.3202    6412.4559     11677.88    1918.9746 
  434300    297.62181   -1161.2778    6480.9294    11677.885    1837.2555 
  434400    300.93448   -1170.4772     6419.324     11677.85    1865.9424 
  434500    300.57637   -1165.7405    6422.2086    11677.821    1898.7365 
  434600    302.04499   -1163.2862     6388.404    11677.846    1912.7807 
  434700    303.24726   -1162.7973    6362.2021    11677.817    1955.1695 
  434800    297.90128   -1160.1969    6473.7129     11677.72    1953.2578 
  434900    297.98135   -1159.9357    6471.8541    11677.833    1893.4699 
  435000    301.73652   -1167.7848     6399.356    11677.709     1886.078 
  435100    303.23247   -1169.2303    6368.9186    11677.785    1846.1184 
  435200    296.92704    -1169.355    6503.8064    11677.842    1901.7879 
  435300    302.45748    -1168.313    6384.5342    11677.761    1885.5694 
  435400    301.08479   -1166.0643    6411.5149    11677.665    1872.5404 
  435500    299.99833   -1164.6472    6433.3264    11677.683    1921.8044 
  435600    300.44227   -1159.3468     6418.471    11677.612    1903.0372 
  435700    302.88107   -1156.1612    6363.1585    11677.587    1892.9041 
  435800    300.98944   -1157.3994    6404.7626    11677.541    1913.8475 
  435900    298.06581   -1159.0734    6468.9703    11677.616    1877.2207 
  436000    297.69078   -1167.4816    6485.4065    11677.632    1843.2248 
  436100    298.50851   -1160.3927     6460.804    11677.588    1847.8388 
  436200    306.35869    -1168.817     6301.653    11677.719    1816.9938 
  436300    296.18761   -1168.8014    6518.8878     11677.68    1886.4675 
  436400    305.51216   -1164.7526     6315.621    11677.667    1854.9385 
  436500    296.64323    -1161.982    6502.3007    11677.646    1951.2349 
  436600    303.34053    -1158.996    6356.1863    11677.595    1882.3241 
  436700    298.73206   -1159.3427    6455.0508     11677.66    1900.3121 
  436800     301.9084   -1165.5576    6393.3582     11677.61    1865.0719 
  436900    297.32048    -1163.069    6488.9794    11677.706    1897.8413 
  437000    303.66811   -1167.8042    6358.1983    11677.797    1806.9704 
  437100    299.40749   -1173.2966     6454.798    11677.883    1936.2801 
  437200     299.5916   -1169.2397    6446.7775    11677.853    1883.8848 
  437300    302.59243   -1161.9431     6375.279    11677.759    1896.2356 
  437400    304.87438   -1168.1603    6332.8095    11677.823    1935.4607 
  437500    298.95484   -1162.5832    6453.8224    11677.951    1891.4839 
  437600    299.37497   -1166.5133    6448.7382    11677.912    1827.6625 
  437700    297.35612   -1164.3025    6489.5657     11677.82    1935.6977 
  437800    301.75747   -1161.1223    6392.3997    11677.863    1908.3635 
  437900    300.21503   -1167.7417    6432.0329    11677.925    1846.8629 
  438000      302.364   -1167.2396    6385.5702    11677.873    1795.9666 
  438100    299.32114    -1166.302    6449.6426    11677.877    1915.9613 
  438200    298.95286   -1172.3832    6463.6006    11677.887    1834.7544 
  438300    303.31861   -1161.3487    6359.2417     11677.83    1770.7647 
  438400    300.14447   -1163.3584    6429.1265    11677.894    1912.9959 
  438500     298.9438   -1160.7105    6452.0914    11677.857    1855.0924 
  438600    300.72801    -1163.318    6416.5006    11677.775    1898.1765 
  438700    300.28718    -1163.336    6425.9423    11677.781    1932.8015 
  438800    300.25607   -1163.0558    6426.2254     11677.68    1932.8121 
  438900    301.21382   -1162.0551    6404.7654    11677.681    1826.4102 
  439000    300.69596   -1163.4424    6417.2192    11677.685    1873.8338 
  439100    298.21315    -1159.294    6466.1075     11677.68    1865.7744 
  439200     299.6374   -1154.2047    6430.5691    11677.658    1876.4758 
  439300    300.82392   -1157.0551    6407.9896    11677.576    1937.6501 
  439400    300.51378   -1159.3578    6416.8891    11677.547    1904.9007 
  439500    297.16555   -1153.5587    6482.7094    11677.637    1882.0004 
  439600    299.99318   -1156.7703    6425.4709    11677.595    1879.3122 
  439700    300.06984   -1158.2581    6425.2899    11677.564    1863.2388 
  439800    300.29106   -1157.8558    6420.1568    11677.559    1860.3112 
  439900    296.70538   -1166.2754    6505.1919    11677.572    1901.9526 
  440000    301.66641   -1160.4462    6393.3557     11677.55    1863.5674 
  440100    299.86787   -1159.0721    6430.4176    11677.562    1967.5903 
  440200       303.32   -1154.9459    6352.5738    11677.594    1887.9168 
  440300    298.47957   -1160.4325    6461.6021    11677.728    1898.8368 
  440400    299.14177   -1158.6605    6445.6615    11677.706    1915.4238 
  440500     299.4731    -1158.363    6438.1649    11677.585     1923.538 
  440600    304.37264   -1160.4973    6335.7447    11677.702    1848.1815 
  440700          295    -1163.184    6538.7258    11677.764     1903.699 
  440800    301.05017   -1160.8696    6407.1638    11677.769    1870.9027 
  440900    303.00002   -1164.7996    6369.4705    11677.801    1864.1919 
  441000    297.20418   -1172.4355    6500.9719    11677.848    1955.6898 
  441100      302.354   -1170.6534    6389.2293    11677.905    1944.4175 
  441200    299.99517   -1167.4361    6436.3624    11677.863    1938.0671 
  441300    300.14653   -1164.8141    6430.4705    11677.826     1909.567 
  441400     303.4121   -1167.5666    6363.5111    11677.878    1970.5525 
  441500    301.15814   -1162.6314    6406.8313    11677.982    1977.6806 
  441600    302.07583   -1164.9207       6389.4    11677.866    1947.0644 
  441700    298.47838   -1166.5749    6467.8927     11677.85    1964.3044 
  441800    300.26312   -1170.2811    6433.5342    11677.914    1932.2969 
  441900    300.91977   -1168.0164    6417.3192    11677.992    1892.1833 
  442000    300.90075   -1167.0003    6416.5921    11677.875    1914.0246 
  442100    297.25489   -1158.1387    6485.6127    11677.869    1914.4103 
  442200     298.5976   -1160.2954    6459.1269    11677.911    1881.2495 
  442300    299.52165   -1165.0514    6444.0546    11677.824    1902.1719 
  442400    300.00623   -1162.1573     6430.739    11677.754    1934.8254 
  442500    299.59601   -1157.4239    6434.6952     11677.68    1919.9857 
  442600    299.73181   -1162.6349    6437.0308    11677.706    1921.2118 
  442700    300.63674   -1163.0807    6418.1399    11677.702    1962.7775 
  442800    301.13625   -1161.7153    6406.0616     11677.66    1918.7089 
  442900    298.79382   -1153.6612    6448.0078    11677.618    1977.2401 
  443000    301.36754   -1160.9894    6400.3602    11677.626    1932.3201 
  443100    301.86824   -1157.4704     6386.129     11677.61    1899.1134 
  443200    300.47714   -1161.6605    6419.9847    11677.557    1844.4359 
  443300    297.69307   -1164.5652    6482.3744    11677.565     1882.848 
  443400    300.34916   -1153.9581    6414.9798    11677.521     1879.817 
  443500    298.98831   -1160.1907    6450.2694    11677.505    1879.9088 
  443600    305.25211   -1157.4642    6313.7455    11677.524    1883.2621 
  443700    299.88966   -1153.6626    6424.5288    11677.549    1826.9098 
  443800    297.37867   -1153.6286    6478.1764    11677.587    1859.1419 
  443900    301.90675   -1154.4375    6382.1382    11677.475    1833.7858 
  444000    297.61385   -1151.1674    6470.6664    11677.562    1881.1686 
  444100    301.28583   -1160.0522    6401.2512    11677.708    1912.0427 
  444200    302.97435   -1165.9959    6371.0639     11677.65    1893.3298 
  444300    300.70706   -1159.8955     6413.307    11677.556    1902.5543 
  444400    300.55744   -1163.7603    6420.5084    11677.697    1848.1259 
  444500    301.45678   -1160.5583    6398.0973    11677.701    1908.9299 
  444600    298.75397    -1162.328    6457.6501    11677.742    1902.6649 
  444700    299.47108   -1162.5455    6442.4655     11677.66    1847.0095 
  444800    299.23928   -1166.9815    6451.9944    11677.801    1854.7774 
  444900    299.63569   -1164.3253    6440.8707    11677.802    1889.4096 
  445000    303.28127   -1168.8711    6367.4653    11677.733    1830.1733 
  445100    297.19227   -1160.9394    6489.6653    11677.783    1894.7476 
  445200    300.83091   -1168.0899    6419.1664    11677.867    1879.4767 
  445300    301.70876   -1167.8906    6400.2092    11677.863    1887.8096 
  445400     296.9477   -1166.3309    6500.3383    11677.839    1902.2743 
  445500    304.09757   -1169.8748      6351.19    11677.893    1887.0779 
  445600    298.74939   -1164.0724    6459.6413    11677.891    1924.8566 
  445700    303.48354   -1164.9953    6359.3554     11677.82    1914.1303 
  445800    298.87502   -1159.6816    6452.5337    11677.858    1933.6144 
  445900    302.11642   -1163.7489    6387.2927    11677.798    1888.0431 
  446000    298.32063   -1162.5987    6467.2329    11677.797    1932.4302 
  446100    302.08295   -1162.5825    6386.7876    11677.744    1878.0679 
  446200    299.29543   -1161.5184    6445.3339    11677.803    1887.0764 
  446300    300.89182   -1163.8087    6413.5198    11677.803    1887.9648 
  446400    299.98162   -1163.3872    6432.5588    11677.818    1862.5171 
  446500     300.1589   -1160.5695    6425.8017    11677.667     1974.699 
  446600    300.17771   -1157.8198    6422.6053    11677.622    1970.7804 
  446700    299.50885   -1158.2426    6437.3025    11677.607    1942.9037 
  446800    294.97603   -1155.4559    6531.3881    11677.642    1957.2813 
  446900    303.11988   -1155.6063    6357.4702    11677.555    1954.6829 
  447000    301.04605    -1157.482    6403.6307    11677.536    1989.7342 
  447100    296.06627   -1157.3673    6510.0135    11677.648    1976.3284 
  447200     297.2918   -1159.2054    6485.6241    11677.602     1906.451 
  447300    297.39921    -1148.541       6472.7    11677.637    1971.5361 
  447400    302.98917   -1160.9159    6365.6849    11677.668    1942.9108 
  447500    296.50705   -1157.0929    6500.2375    11677.563    1922.0659 
  447600     298.3558   -1161.1621    6464.7399    11677.492    1920.4599 
  447700    301.49739   -1159.6375    6396.2166    11677.608     1852.818 
  447800    298.65993   -1161.0607     6458.416    11677.767    1915.6595 
  447900    300.57687   -1162.8849    6419.2135    11677.692    1896.3611 
  448000    299.46073   -1161.0849    6441.3128    11677.747    1904.9827 
  448100    300.68211   -1158.7939    6412.9496    11677.768    1949.1656 
  448200     300.6156   -1160.4182     6415.982    11677.755    1914.6696 
  448300    296.98721   -1157.7375    6490.8594    11677.798    1930.2675 
  448400    301.16162   -1159.5692    6403.4566    11677.743    1908.7713 
  448500    301.45729   -1166.8922    6404.5704    11677.851    1940.7285 
  448600    302.28087   -1161.3196    6381.3583    11677.806    1836.5067 
  448700    297.95551   -1163.2754    6475.7041    11677.791    1879.4622 
  448800    301.41039   -1167.5728    6406.3259    11677.924    1861.7586 
  448900    301.50735   -1170.0044    6406.5647    11677.802    1876.8529 
  449000    302.13142    -1165.541    6388.8822    11677.915    1911.4667 
  449100    298.98071   -1163.6862    6454.1839    11677.762    1912.9857 
  449200    301.91867   -1167.5361    6395.3006    11677.794    1908.6287 
  449300    299.99706   -1163.0058    6431.8864    11677.857    1900.4746 
  449400    297.84746    -1163.857    6478.6265    11677.823    1936.7169 
  449500    301.23886   -1162.1944    6404.4933    11677.805    1968.1301 
  449600    300.62645   -1163.9686    6419.3881    11677.842    1902.1721 
  449700    298.55909   -1165.9764    6465.5138    11677.794    1902.3066 
  449800    300.73822   -1164.5831    6417.5735    11677.801    1875.4053 
  449900    300.57713   -1168.9765    6425.3762    11677.769    1933.0101 
  450000    299.35801   -1162.7316    6445.1089    11677.702    1950.7571 
  450100    302.05337   -1163.2294    6388.1139    11677.791    1935.1839 
  450200     298.9062   -1158.4392    6450.4571     11677.69    1980.8152 
  450300    298.44191   -1160.9939    6462.9168    11677.676    1915.3955 
  450400    299.86064   -1162.7408    6434.4225    11677.744    1910.7514 
  450500    297.82122   -1162.9112    6478.1448    11677.727     1941.581 
  450600    299.59199   -1158.5978    6436.0246     11677.75    1839.9231 
  450700    299.19451   -1167.4658    6453.3411    11677.707    1824.9148 
  450800    298.89369    -1162.316    6454.6995    11677.789    1932.1232 
  450900    299.05557   -1162.4698    6451.3512    11677.745    1879.8508 
  451000    300.47064   -1154.4329    6413.0183     11677.68    1884.4574 
  451100    299.63332   -1158.8602    6435.3348    11677.681    1990.8011 
  451200     295.7767   -1157.5702     6516.521    11677.766    1935.1434 
  451300     302.8359   -1161.4383    6369.5774    11677.763    1873.7566 
  451400    299.76884    -1163.539    6437.2331    11677.795    1963.9654 
  451500    302.28425   -1168.9309    6388.8698    11677.778    1901.5787 
  451600    300.33493   -1168.1596    6429.8477    11677.883    1896.6118 
  451700    296.80894   -1166.4333    6503.4685    11677.903    1960.3347 
  451800    301.87134   -1164.8214    6393.6206    11677.817    1896.7639 
  451900    300.32044   -1162.5296     6424.523    11677.879    1879.0824 
  452000    297.55127   -1164.4898    6485.6109    11677.848    1981.2432 
  452100    301.48144   -1163.0019    6400.0486    11677.735     1926.264 
  452200    300.48373   -1159.3443    6417.7135    11677.743    1866.2526 
  452300    300.48519   -1157.4102    6415.8849     11677.88    1942.0492 
  452400    302.25101   -1166.6823    6387.4509    11677.898    1930.6069 
  452500    300.78454   -1171.5322     6423.643    11677.911    1914.2687 
  452600    299.87041   -1172.5491    6444.2323    11677.954    1922.1928 
  452700    297.26472   -1174.2016    6501.6316    11678.035    1928.6144 
  452800    301.14372   -1165.1428    6409.5285    11677.859    1859.7034 
  452900    297.61496   -1157.9968    6477.7587    11677.849    1933.7596 
  453000    303.40344   -1158.2611    6354.3103    11677.798    1907.5321 
  453100    295.07979   -1152.8047    6526.6115    11677.734    1957.6209 
  453200    302.62027   -1161.2614     6373.999    11677.755    1952.5476 
  453300    301.36789   -1166.9153    6406.3473    11677.694    1963.7634 
  453400    303.99844   -1167.1687    6350.3735    11677.665    1874.0285 
  453500    296.98604   -1163.2895    6496.3666    11677.728    1863.6276 
  453600    302.92135   -1167.8315    6374.1017     11677.72    1853.5267 
  453700    300.25604   -1160.5496    6423.7109    11677.671    1896.3857 
  453800    298.04559   -1161.1585    6471.5622     11677.69    1906.8644 
  453900    300.09978   -1164.0071     6430.533    11677.697    1881.0368 
  454000    300.92085   -1157.2113     6406.197    11677.698    1895.7889 
  454100    299.52351   -1159.3246    6438.1126    11677.648    1908.7951 
  454200     298.8548   -1155.8627    6448.9376    11677.649    1933.5349 
  454300    300.97887   -1157.3145    6405.0304    11677.668    1927.3108 
  454400    300.75487   -1158.9481     6411.552     11677.77    1878.3258 
  454500    300.14077   -1160.1106    6425.7543    11677.691     1867.622 
  454600    300.00217   -1159.3217    6427.9566    11677.721    1906.4134 
  454700     299.1094   -1163.2317    6450.9285     11677.71    1895.0882 
  454800    296.69903   -1161.6877    6500.8902    11677.722    1889.1575 
  454900    300.60157   -1158.8125    6414.6902    11677.769    1912.4813 
  455000     301.7496   -1159.8603    6391.1481    11677.705    1919.0833 
  455100    298.79554   -1164.3334    6458.7282    11677.703    1920.2314 
  455200    301.09704   -1161.2861    6406.5834    11677.773    1966.2161 
  455300    305.59357   -1165.3303    6314.6087    11677.816    1898.8857 
  455400    298.71672   -1167.3819    6463.6175     11677.86    1868.5903 
  455500     302.1552   -1165.3624    6388.2067    11677.927    1868.1462 
  455600    298.02013   -1166.7619    6477.8881    11677.869    1942.0556 
  455700    300.61194   -1165.8634    6421.4281    11677.678     1876.764 
  455800     303.3446   -1168.7335    6366.0457    11677.804    1843.0333 
  455900    300.98162   -1165.9063      6413.76    11677.864    1848.2942 
  456000    300.81253   -1164.7345    6416.1164     11677.78    1887.7639 
  456100    300.88325   -1168.8452    6418.7768    11677.841    1943.8025 
  456200    302.89016   -1168.6292     6375.757    11677.911    1963.5733 
  456300    302.87152   -1170.2748    6377.7526    11677.863    1940.6202 
  456400    299.18191   -1169.2671    6455.5274    11677.823    1958.8441 
  456500     298.5446   -1167.5353    6467.4362    11677.848    1938.5448 
  456600     300.4014   -1167.2991    6427.5489    11677.865    1927.5659 
  456700    301.29392   -1171.2013    6412.3592     11677.84    1981.2434 
  456800    300.02786   -1169.5546    6437.7579    11677.838     1937.694 
  456900    299.12011   -1163.5517    6451.2004    11677.891    1992.2366 
  457000    298.31095   -1165.4228    6470.2851    11677.818    1885.4595 
  457100    302.55361   -1165.8048    6380.0784    11677.867    1865.5371 
  457200    296.52482   -1168.9026    6512.0021    11677.897    1895.8536 
  457300    301.27625   -1166.5947    6408.1187    11677.829    1893.2364 
  457400     300.7056   -1165.9186    6419.6233    11677.819    1887.9077 
  457500    299.15625   -1166.9825    6453.7738    11677.806    1872.5688 
  457600    302.30676    -1156.141    6375.5695    11677.749    1820.7747 
  457700    298.80716   -1158.7266    6452.8865    11677.716    1900.7437 
  457800    302.20541    -1166.824    6388.3509    11677.682    1911.0064 
  457900      299.405   -1164.6197    6446.0219    11677.731    1930.8321 
  458000    300.19807   -1162.3171    6426.7307    11677.685    1970.4898 
  458100    301.57125   -1165.7145    6400.8248    11677.717    1865.7972 
  458200     296.7677   -1166.6497    6504.4355    11677.772    1892.2165 
  458300    302.21139   -1163.1174    6384.5425    11677.708    1878.4301 
  458400    300.32074   -1163.6766    6425.5306    11677.746    1905.5077 
  458500    296.30836   -1161.8845    6509.4427    11677.732    1908.0878 
  458600    299.69927   -1167.2507    6442.3771    11677.741     1893.656 
  458700    301.24266   -1163.2347    6405.3583    11677.711    1894.3478 
  458800    297.87784    -1160.716     6474.704    11677.691    1918.4531 
  458900    302.63618   -1166.8668    6379.3075    11677.798    1909.7574 
  459000     300.7797   -1163.8947     6415.949    11677.751    1922.0222 
  459100    297.83916   -1165.1876    6480.1416    11677.831    1892.9518 
  459200    299.69814    -1170.967    6446.3111    11677.935    1915.8355 
  459300    301.65586   -1168.3392    6401.7793    11677.855    1845.8737 
  459400    301.93798   -1173.1602    6400.5319    11677.814    1883.0163 
  459500    300.88551   -1171.4263    6421.3399    11677.871    1877.6799 
  459600    298.54468   -1168.0293    6467.9595    11677.879    1901.3764 
  459700    301.81945   -1167.3837    6397.3648    11677.891    1872.0449 
  459800    299.49585   -1164.0901    6443.7617    11677.941    1914.9367 
  459900    303.32136   -1164.4082    6362.3594    11677.947    1897.7031 
  460000    301.24372    -1175.468     6417.777    11677.919    1897.3727 
  460100    298.54428   -1170.5693    6470.5966    11677.968    1922.8444 
  460200    302.97581   -1169.1514    6374.5095    11677.972    1854.3832 
  460300    298.80979   -1175.1786    6469.5136    11677.948    1850.0363 
  460400    299.41656   -1166.9599    6448.2617    11677.877    1874.9287 
  460500    301.26005   -1172.2065    6414.1338    11677.886     1870.972 
  460600    300.76954   -1166.7357    6419.1081    11677.852    1844.1354 
  460700      299.707    -1167.099    6442.0778    11677.759    1939.1045 
  460800    301.28476   -1159.4532    6400.7716    11677.805    1975.7289 
  460900     298.4403    -1163.885    6465.9838    11677.818    1962.9003 
  461000    300.50228   -1163.6809    6421.5914    11677.681    1928.9859 
  461100    302.88504     -1161.47    6368.4325    11677.637    1940.3254 
  461200    300.54714   -1165.6983    6422.7382    11677.768    1910.4071 
  461300    298.76611   -1167.5178    6462.6381      11677.8    1888.9938 
  461400    299.18745   -1164.7204    6450.8033    11677.764     1965.357 
  461500    300.85368   -1158.0859    6408.5395    11677.731    1927.1109 
  461600    303.18275   -1156.9136    6357.6273    11677.748    1830.6506 
  461700    301.23772   -1155.2396    6397.4082     11677.65    1896.2763 
  461800    299.86011   -1153.0774    6424.6116    11677.585    1833.5336 
  461900    300.54155   -1160.7003    6417.7291    11677.638    1790.1058 
  462000    301.01941    -1166.806    6413.6805    11677.692    1816.7507 
  462100     301.0723   -1164.2706      6410.07    11677.747     1852.863 
  462200    299.14411   -1159.5875    6446.6105    11677.778    1872.3088 
  462300    299.88713   -1160.9293    6432.0711     11677.77    1869.4051 
  462400    299.09565   -1164.8642    6452.9768    11677.832    1908.2324 
  462500    301.04092   -1163.7337    6410.2665     11677.81    1840.0089 
  462600    299.26077   -1162.6209    6447.1775    11677.804      1905.83 
  462700     302.9225   -1164.6648    6371.0025    11677.812    1864.8302 
  462800    296.18774   -1163.8816    6514.1581    11677.873    1837.5953 
  462900    296.60208   -1162.7901     6504.211    11677.869    1861.3626 
  463000    305.32116   -1163.6917    6318.7664    11677.793    1889.4155 
  463100    302.73203   -1165.8563    6376.2511      11677.8    1939.8162 
  463200    300.52134   -1167.5006     6425.284    11677.961    1841.9649 
  463300    300.35718    -1170.135    6431.3049     11677.84    1775.6013 
  463400    299.13131   -1172.5312    6459.9325    11677.883    1902.5423 
  463500    301.97011   -1166.0832    6392.8585    11677.903     1881.565 
  463600    300.43925   -1166.8126    6426.2541    11677.865    1869.2376 
  463700    300.13929   -1157.7697    6423.5385    11677.784    1935.6614 
  463800    297.87628   -1160.5788    6474.8132    11677.904    1932.8473 
  463900    302.40538   -1157.4577    6374.8276    11677.797     1862.188 
  464000    299.46359   -1162.6543    6442.8748    11677.801    1922.0494 
  464100    302.15244   -1164.3301     6387.098    11677.791    1921.3277 
  464200    298.55126   -1161.2325     6460.811    11677.668    1829.9162 
  464300    298.06016     -1166.92    6477.0416     11677.72     1863.134 
  464400    304.41607    -1159.007    6333.2679    11677.643    1825.8294 
  464500    300.46853   -1160.4512    6419.0465    11677.644    1851.4623 
  464600    301.43532   -1155.9585    6393.8407    11677.585    1843.9197 
  464700    299.78003   -1150.9633    6424.2239    11677.601    1905.5701 
  464800    297.91086   -1154.1838    6467.3465    11677.571    1896.0843 
  464900    299.95575    -1155.742    6425.1934    11677.546    1877.4263 
  465000    299.12229   -1155.2853    6442.5764     11677.58    1919.4655 
  465100    301.16463   -1159.6379    6403.2887    11677.571    1830.4122 
  465200    299.49003   -1159.9844    6439.3391      11677.5    1839.6006 
  465300    302.31155   -1156.8729    6375.9457    11677.495    1873.5077 
  465400    299.58593   -1162.1908    6439.6479    11677.651    1897.8027 
  465500    299.08534   -1157.8705    6446.0232    11677.652    1875.7035 
  465600    302.31539   -1152.2286    6371.2958    11677.572    1889.7006 
  465700    296.93337   -1156.7953    6490.8724    11677.603    1902.4991 
  465800    299.80371   -1159.7476    6432.5582    11677.657    1915.6991 
  465900    303.65074   -1163.1263    6353.7353    11677.641     1927.739 
  466000    299.59996   -1165.0391    6442.2485    11677.703    1923.2366 
  466100    299.30522   -1166.3277    6449.9226    11677.792    1873.2012 
  466200    300.73043   -1171.9424      6425.22    11677.922    1823.0247 
  466300    301.88465   -1172.0433    6400.5685    11677.828    1921.0537 
  466400    297.07065    -1163.969    6495.3172    11677.807    1944.4931 
  466500     303.8392   -1163.6791    6350.4067    11677.786    1819.5527 
  466600    298.53247   -1163.1334    6463.3527    11677.907    1937.9398 
  466700    301.45599   -1161.9165    6399.6543    11677.882    1920.7773 
  466800    300.62482   -1163.4408    6418.9124     11677.86    1923.1394 
  466900    300.76922   -1163.3993    6415.8452    11677.919    1915.8941 
  467000    300.01463    -1165.091     6433.584    11677.845    1857.3792 
  467100    301.31237   -1164.6601    6405.4339     11677.85    1849.1794 
  467200    299.38744   -1170.4554    6452.4146    11677.913    1846.2978 
  467300    298.95935   -1166.7453    6457.7793    11677.842    1946.5731 
  467400    302.19914   -1164.1667    6385.8328    11677.687    1923.9677 
  467500    301.48829   -1159.1386    6395.9462    11677.642    1925.1308 
  467600    296.65789   -1155.5629    6495.6353    11677.713    1923.7328 
  467700    301.84364   -1160.2515    6389.4474    11677.622    1905.7194 
  467800    297.75554   -1162.6476    6479.1986    11677.641    1905.7092 
  467900    300.07263   -1159.5191    6426.6277      11677.7    1885.9969 
  468000    298.84259   -1160.0118    6453.3953    11677.697    1910.7971 
  468100    300.47741   -1157.0187    6415.3971    11677.617    1891.5123 
  468200    300.37092   -1160.5944    6421.2736    11677.643    1896.8098 
  468300    298.46146   -1162.6505    6464.1321    11677.653    1923.3309 
  468400    301.58669   -1159.2261    6393.9052    11677.616    1867.7131 
  468500    301.91611   -1160.0329    6387.5989     11677.54    1887.1664 
  468600    299.37605   -1153.2599    6435.1845    11677.635    1886.6843 
  468700    297.59001   -1159.5124    6479.5767    11677.618    1873.1012 
  468800     302.3274   -1157.8915    6376.7463    11677.616    1843.4254 
  468900     302.0275   -1156.9304    6382.2342    11677.658    1849.9339 
  469000    295.35422   -1163.8023    6531.7742    11677.762    1844.1619 
  469100    302.32643   -1169.5761    6388.6045    11677.769    1871.2701 
  469200    300.81737   -1171.4759    6422.7674    11677.793    1896.9878 
  469300    298.99836   -1170.0336    6460.2133    11677.821    1888.3883 
  469400    302.08822   -1168.3744     6392.617    11677.894    1850.6396 
  469500    301.48876   -1173.0532    6410.0526    11677.844    1936.9801 
  469600    298.52035   -1165.4943     6465.901    11677.836    1948.1483 
  469700    301.49594   -1161.0278    6397.8878    11677.858    1909.1642 
  469800    300.67696   -1161.0572    6415.5184    11677.963    1995.3238 
  469900    302.09479    -1167.322    6391.3899     11677.86    1973.2125 
  470000    301.58291   -1163.3129    6398.2405    11677.784    1899.0606 
  470100    300.10901   -1168.9563    6435.3807    11677.793    1868.3825 
  470200    296.03253   -1165.0392    6518.5555    11677.797    1933.8872 
  470300    303.41255    -1167.597    6363.3421    11677.689    1854.3719 
  470400    301.19147   -1167.1949     6410.426    11677.725    1876.6965 
  470500    296.09914   -1158.7767    6510.8411    11677.768    1929.6437 
  470600     299.8998   -1166.4795    6437.2844    11677.704    1924.0191 
  470700    300.46625   -1159.2442     6417.846    11677.602    1877.4021 
  470800    302.12292    -1156.511    6379.6631    11677.545     1949.705 
  470900    300.04495   -1159.7194     6427.254    11677.534     1951.084 
  471000    298.39303   -1153.8018    6456.5813    11677.489    1884.9803 
  471100    300.24927    -1155.181    6418.2862     11677.47    1925.0918 
  471200    301.35348    -1155.134     6394.689     11677.51    1868.4174 
  471300    300.13151   -1162.7734    6428.4682    11677.544     1831.412 
  471400    301.96614   -1159.5399     6386.117     11677.62    1806.0548 
  471500    298.60009    -1156.822     6455.338    11677.649    1902.7111 
  471600    298.36627   -1158.6311    6462.0931      11677.6    1881.8768 
  471700    298.07886   -1159.9575    6469.6044    11677.645    1911.1116 
  471800    300.86693   -1157.8635    6408.0594    11677.756    1934.8253 
  471900    300.47348   -1158.0357    6416.5655    11677.685    1911.8328 
  472000    297.14268   -1152.3554    6482.0972    11677.739    1900.2816 
  472100    303.31154   -1155.6837    6353.6086    11677.711    1917.9066 
  472200    300.27088   -1166.2782    6429.3769    11677.925    1914.1905 
  472300    299.26349   -1171.8206    6456.3485    11677.833     1864.454 
  472400     298.5951    -1163.395    6462.2295    11677.861    1878.8844 
  472500    302.37619    -1168.694    6386.7817    11677.891    1826.8375 
  472600    301.29719   -1175.0744    6416.2232    11677.901    1856.0588 
  472700    301.94322   -1158.8544    6386.1657    11677.865    1847.5067 
  472800    296.18074   -1159.2489    6509.6334    11677.832    1853.0272 
  472900     303.3747    -1165.853      6362.58    11677.862    1877.6657 
  473000    304.52572   -1165.0557    6337.1319    11677.801    1898.4439 
  473100    300.14009   -1164.0524    6429.8857    11677.866    1893.9105 
  473200    300.54194   -1166.4067    6423.6509    11677.862    1841.4674 
  473300    296.51195   -1167.2303    6510.5791    11677.872    1856.7647 
  473400    299.32011   -1165.0623    6448.4317    11677.884     1864.938 
  473500    304.74396   -1163.1566    6330.5339    11677.764    1831.9148 
  473600    301.72755   -1164.8122    6396.6702    11677.804    1871.5549 
  473700     300.9539   -1163.0329    6411.3597    11677.745    1890.6019 
  473800    298.65937   -1160.9139    6458.2442     11677.73    1893.5204 
  473900    299.18632   -1161.5811     6447.627    11677.702    1896.7815 
  474000    303.71966    -1159.812    6349.0492    11677.742    1941.6473 
  474100    299.36094   -1156.4476    6438.6169    11677.556    1951.3263 
  474200    299.74333   -1159.3868    6433.5209     11677.69    1901.1386 
  474300     297.1178   -1157.1309    6487.3232    11677.658      1940.22 
  474400    299.64158   -1156.0675    6432.3798    11677.695    1888.5981 
  474500    302.56987   -1158.2395    6371.9254    11677.627    1858.3755 
  474600    299.28433   -1158.3738    6442.3672    11677.744    1880.0237 
  474700    296.12621   -1159.1018    6510.6096     11677.79    1848.3591 
  474800    300.98268   -1162.1444    6409.8648    11677.753    1864.4429 
  474900    300.93588   -1162.6389     6411.307    11677.701    1937.9852 
  475000    300.76924   -1164.5174    6416.7912    11677.747    1942.1424 
  475100    298.59333   -1165.4224    6464.1522    11677.718    1945.8529 
  475200    299.82069   -1157.4323    6429.9533     11677.73    1982.4934 
  475300    297.31355   -1166.4148    6492.4993    11677.732    1946.3462 
  475400    302.98446   -1161.0378    6366.0974    11677.858    1872.0931 
  475500    300.76187   -1161.4553    6414.0446    11677.905    1893.7137 
  475600    300.96742   -1170.4105    6418.6154    11677.912    1923.3946 
  475700    300.51636   -1171.5583    6429.4301    11677.943    1894.3905 
  475800    302.29959   -1173.9496    6393.7371    11677.954    1955.8133 
  475900     302.5304    -1172.067    6387.0022    11678.033    1959.8654 
  476000    298.57962   -1176.4821    6475.7877    11678.001    1939.4394 
  476100    299.99647   -1173.4573    6442.5643    11678.071    1929.1756 
  476200     299.6694   -1171.6455    6447.6788     11678.01    1962.9203 
  476300    300.69388   -1166.1907    6420.2032    11677.876     1983.096 
  476400    300.46867   -1159.3776    6418.2346    11677.909    1968.8567 
  476500    301.18568   -1161.1572    6404.7953    11678.008    1985.5154 
  476600    302.37267   -1167.9195    6385.9698    11677.779    1905.3529 
  476700    301.70876   -1164.3508    6396.6156     11677.81    1884.5336 
  476800    300.40133   -1171.1762    6431.4832     11677.92    1951.9261 
  476900     300.9392   -1169.5121    6418.2882     11677.88    1824.5005 
  477000    300.89917   -1163.4135    6412.9784    11677.814     1809.574 
  477100    299.02472   -1163.5056    6453.1278    11677.827    1883.6949 
  477200    300.35565   -1156.0798    6417.2208    11677.779    1875.1999 
  477300    300.82149   -1161.6148    6412.6713    11677.646    1903.2679 
  477400    298.51713   -1161.4144    6461.7506    11677.697    1917.9354 
  477500    297.27144   -1159.8066    6486.7158    11677.658    1903.4655 
  477600    300.23654   -1159.3018    6422.8728    11677.664    1877.0106 
  477700    297.54278   -1156.9107    6477.9727    11677.607    1981.8279 
  477800    300.82114    -1161.905    6412.9767    11677.654    1951.9379 
  477900    296.68745   -1157.1379    6496.5952    11677.729    1899.6243 
  478000    299.26997   -1161.0138    6445.2835    11677.713    1950.4267 
  478100    299.88759   -1157.9272    6429.0056    11677.717    1956.0863 
  478200    300.50261   -1159.2341    6417.2344    11677.778    1960.5931 
  478300     301.1746   -1157.1324     6400.787    11677.788    1902.5085 
  478400    299.71078   -1161.1169    6435.9725    11677.717    1890.6269 
  478500    301.18863   -1160.1912    6403.4807    11677.722     1801.874 
  478600    299.14286   -1168.9704    6456.1327    11677.891    1852.1183 
  478700    296.65936   -1165.4518    6505.6776    11677.898    1892.5446 
  478800    303.58404   -1170.2566    6362.4572    11677.808    1886.0885 
  478900    299.29967   -1159.4992    6443.2931    11677.872    1921.0216 
  479000    302.27772   -1167.4446    6387.6942    11677.949    1932.8992 
  479100    300.67768   -1172.3774    6426.7837    11677.924     1923.407 
  479200    298.51502    -1163.881    6464.4598    11677.894    1957.8896 
  479300    299.54615   -1172.6019     6451.143    11677.885     1894.266 
  479400     302.7374   -1169.2797    6379.6834    11677.924    1903.8272 
  479500     301.1148   -1173.1492    6418.1996    11677.906    1863.6682 
  479600     301.8409   -1168.0614    6397.5306    11677.837     1894.953 
  479700    298.21114   -1165.7264     6472.757    11677.854    1928.9779 
  479800     301.9015   -1164.6285    6392.8116    11677.845    1860.7059 
  479900    298.41485   -1164.6157    6467.3769    11677.937    1898.1008 
  480000    300.06856   -1165.9339    6433.2757    11677.846    1907.4701 
  480100    301.30977    -1160.445    6401.2716    11677.848    1906.3335 
  480200    302.98169   -1157.5945    6362.5629    11677.707    1866.7825 
  480300    298.85115    -1163.652    6456.9693    11677.814    1892.2899 
  480400    296.50004   -1164.2342    6507.6798    11677.714    1953.6858 
  480500    304.55749   -1158.6367    6329.8715    11677.638    1900.3298 
  480600    297.34975    -1158.763    6484.0328    11677.691     1926.994 
  480700    303.15796   -1158.3764    6359.5476    11677.676    1844.7719 
  480800    301.24064   -1153.6639    6395.7331    11677.613    1826.0927 
  480900    296.34137   -1150.7149    6497.5151    11677.679    1866.8956 
  481000    304.31844   -1156.7498    6333.0823    11677.629    1939.1694 
  481100     299.7626   -1159.1324    6432.7327    11677.568    1875.4105 
  481200    295.81544   -1158.9818    6516.9977    11677.659    1880.5841 
  481300      301.428   -1161.8385    6399.9729    11677.681    1919.5613 
  481400    298.66547   -1165.5939    6462.7907    11677.726    1911.3502 
  481500    302.04583   -1159.8769    6384.7994    11677.668    1869.1548 
  481600     297.6916    -1156.247    6474.2219    11677.699    1872.8515 
  481700    299.31249   -1163.5076     6446.866     11677.71    1928.5959 
  481800    300.36914   -1162.7025    6423.5344    11677.758    1905.6025 
  481900    304.00599   -1161.5079    6344.6578    11677.771    1939.7532 
  482000    302.14032   -1162.5699    6385.6346    11677.829    1931.9172 
  482100    300.65951   -1165.6454    6420.3656    11677.849    1900.2543 
  482200    302.37125   -1166.7254    6384.9563    11677.929    1911.2667 
  482300    299.84614   -1162.6705    6434.7966    11677.879     1937.718 
  482400    298.44946    -1174.258    6476.3265    11677.983      1950.27 
  482500    304.58276   -1171.0348    6342.0279    11677.936    1928.3512 
  482600     300.6445   -1167.1126    6422.1988    11677.895    1938.5458 
  482700    299.52006   -1168.4869    6447.6089    11677.908    1825.8267 
  482800    300.22478   -1165.0971    6429.2194    11677.964    1865.0024 
  482900    298.12455   -1171.2864    6480.2357    11677.923    1985.0643 
  483000    303.55754   -1168.1422    6360.8993    11677.798    1925.3431 
  483100    300.99442   -1165.6654    6413.1894    11677.808    1870.7805 
  483200    298.06286   -1168.0253    6478.2285    11677.859    1944.1647 
  483300    302.77489   -1168.7476    6378.3035    11677.877    1931.3415 
  483400    299.24577   -1165.6531    6450.5469    11677.821    1929.6636 
  483500    300.67267   -1169.8785    6424.2882     11677.82    1929.0799 
  483600    301.47056   -1168.3465    6405.7715    11677.881    1992.3928 
  483700    298.81797   -1159.0027    6453.0233    11677.808    1973.6687 
  483800    295.46025   -1166.8342    6532.5489     11677.77    1902.2554 
  483900    300.07572   -1165.1457    6432.2281     11677.74    1925.6756 
  484000    302.77588   -1153.9144    6363.3542    11677.782    1901.3104 
  484100    298.53573   -1158.8816    6458.8758    11677.752    1944.7776 
  484200    301.57332   -1159.6217    6394.6816    11677.711    1936.3397 
  484300    300.26458    -1162.474    6425.4723     11677.69    1866.8565 
  484400    298.40383   -1161.7215    6464.5035    11677.722    1828.1755 
  484500    299.81958     -1159.93    6432.4241    11677.679    1860.4003 
  484600    300.77938   -1161.5315    6413.5547    11677.713    1906.1401 
  484700    301.41225   -1157.8918    6396.3281    11677.647    1910.3571 
  484800    300.02044   -1159.6511    6427.8205    11677.646    1980.7924 
  484900    299.33689   -1158.1898    6440.9359     11677.62    1885.4268 
  485000    298.35958   -1156.5784    6460.1828    11677.599    1872.4532 
  485100    301.27907   -1161.5009    6402.7203    11677.584    1917.3035 
  485200    299.49209   -1164.1655    6443.5678    11677.591    1909.4623 
  485300    300.50975   -1163.6868     6421.443    11677.686    1816.1045 
  485400    300.36131   -1167.6681    6428.5963    11677.687    1833.3393 
  485500    302.05857    -1165.226     6389.973    11677.765    1857.6839 
  485600    303.20396   -1164.0894    6364.3007    11677.699    1930.4499 
  485700    296.83894   -1163.3191    6499.5616    11677.751    1961.1817 
  485800    303.05119    -1162.721    6366.2634    11677.766    1937.2201 
  485900    298.04196   -1163.4723    6474.0079    11677.745    1909.5818 
  486000    295.85901   -1157.0729    6514.2077    11677.709    1915.8589 
  486100    303.24671   -1162.7011    6362.0549    11677.754    1964.8852 
  486200    300.10499   -1166.5866    6433.1353    11677.831    1972.2933 
  486300    302.22631    -1167.144     6388.368    11677.825    1861.4402 
  486400    296.95383   -1167.5155    6501.4128     11677.86    1882.4161 
  486500    298.14166   -1169.9646    6478.4525    11677.827    1911.9474 
  486600    305.92933   -1169.1511    6311.3037    11677.863    1889.1186 
  486700    298.86917   -1165.1886    6458.0917    11677.784      1847.86 
  486800    297.15491   -1164.1341    6493.6192    11677.744    1887.6095 
  486900    300.61904   -1165.6286    6421.1053    11677.741    1851.1719 
  487000    298.66868   -1159.7159    6456.9097    11677.792    1863.2269 
  487100    301.61646   -1162.1719    6396.4137    11677.815    1941.5377 
  487200    299.51875   -1161.6032    6440.6208    11677.776    1888.2567 
  487300    298.79344   -1163.2693    6457.7897    11677.784    1872.5676 
  487400    303.58376   -1167.5385    6359.8281    11677.891    1857.6043 
  487500    297.90435   -1167.8183    6481.3637    11677.815    1914.6628 
  487600    301.86762   -1166.3881    6395.1887    11677.739    1877.5317 
  487700    303.67689   -1167.8634    6358.0759    11677.803    1911.8421 
  487800    302.96177   -1168.8611    6374.3707    11677.823    1994.5915 
  487900    299.94392   -1156.7497    6426.6735    11677.765    1922.8225 
  488000    297.38275   -1161.5124    6486.1622    11677.776    1917.2758 
  488100    302.77528   -1159.2295    6368.6681    11677.768    1952.3075 
  488200     297.6449   -1164.0888    6483.0368    11677.675    1915.2139 
  488300     299.4093   -1163.1424    6444.5628    11677.841    1891.9853 
  488400    302.70721   -1165.0584    6376.0446    11677.861    1889.9781 
  488500    297.50851    -1165.153    6487.1417    11677.802    1837.7367 
  488600    297.50419   -1165.9708    6488.0454    11677.795    1832.6737 
  488700    302.86721   -1164.9143    6372.3574    11677.736    1857.6745 
  488800    300.41858   -1165.6328    6425.3359    11677.685    1896.6121 
  488900    300.48191   -1158.1749    6416.5278    11677.688    1835.1057 
  489000     295.1035   -1163.7408    6537.0281    11677.721    1855.5242 
  489100    299.43173   -1167.3114    6448.0793    11677.667    1896.2639 
  489200    299.19395   -1162.4821    6448.3008    11677.638    1895.3764 
  489300    301.65378   -1171.0242    6404.2941     11677.64    1865.4094 
  489400    299.62093    -1163.238     6439.971    11677.674    1818.3315 
  489500    296.48939   -1161.0571    6504.7583    11677.742    1817.4846 
  489600    301.23679   -1162.8068    6405.0712    11677.726    1792.0128 
  489700    301.47918   -1167.1637    6404.2404    11677.717    1924.4286 
  489800    299.48187   -1162.3448    6441.9919    11677.618    1942.7571 
  489900    298.84305   -1158.4116    6451.7706    11677.682    1915.5443 
  490000     299.6805   -1161.0963    6436.5522     11677.67    1852.7484 
  490100    301.18461   -1163.4029    6406.7568    11677.701    1834.3901 
  490200    298.69292   -1160.3638    6456.9316    11677.684    1817.8514 
  490300     299.1708   -1165.0982    6451.5504    11677.777    1886.2047 
  490400    300.83497   -1164.5555     6415.464    11677.786    1877.2197 
  490500    299.84456   -1159.5163    6431.5266    11677.729      1864.15 
  490600    300.60138   -1162.1662    6418.1343    11677.855    1860.4708 
  490700    301.63498   -1169.8118    6403.7738     11677.93    1895.5277 
  490800     298.9803   -1164.3386    6454.9369    11677.854    1921.9656 
  490900     300.1235   -1164.8614    6430.8944    11677.711    1917.6176 
  491000    301.79107   -1166.3775    6396.8384    11677.764    1903.4624 
  491100    299.10442   -1164.0378    6452.0133    11677.883    1893.5349 
  491200     298.9223   -1160.2442    6451.9625    11677.735    1907.9123 
  491300    303.03444   -1167.3532    6371.2556    11677.768    1833.6895 
  491400    295.12266   -1166.5732    6539.6008     11677.87     1902.568 
  491500    303.11056   -1171.1473    6373.4936    11677.838    1848.7451 
  491600    299.76538   -1169.1657    6442.9403    11677.802    1881.1358 
  491700    298.81866   -1166.7387    6460.7344    11677.798    1854.4707 
  491800    300.69294   -1163.9917     6417.937    11677.789    1836.1253 
  491900    300.42044   -1163.3643    6423.1614    11677.819    1886.3523 
  492000    298.93317   -1160.7036     6452.271    11677.816    1950.5519 
  492100    300.15195   -1162.1993    6427.6622    11677.749    1962.8923 
  492200    301.82616   -1162.7553    6392.4991    11677.797    1943.2656 
  492300    298.06892   -1162.2378    6472.2232     11677.77    1904.2284 
  492400    296.54531   -1163.0668    6505.6481    11677.817    1876.9861 
  492500    301.19572   -1170.4163    6413.5971    11677.765    1871.9094 
  492600     298.2139   -1162.1587    6468.9814    11677.705    1909.9674 
  492700    300.58824   -1159.4284    6415.5362    11677.714    1942.9877 
  492800     297.7244   -1156.8536    6474.0003    11677.572    1945.0058 
  492900    297.92703   -1159.3901     6472.334    11677.698    1942.5121 
  493000    300.72331   -1157.5735    6410.7444    11677.663    1878.1478 
  493100    300.04502   -1161.2725    6428.8784    11677.607    1883.5415 
  493200    296.15591   -1160.6637    6511.3564    11677.609    1949.0655 
  493300    301.82301   -1161.4563    6391.1246    11677.654     1922.011 
  493400     298.0157   -1162.6361    6473.6494    11677.661    1955.4697 
  493500     299.4804   -1159.6882    6439.4614    11677.712    1934.9447 
  493600    297.91531   -1159.2036    6472.3924    11677.692    1942.0834 
  493700    300.81841   -1158.1272     6409.339    11677.736    1896.6778 
  493800    300.29599   -1164.4708    6426.9191    11677.811    1899.9017 
  493900    300.50779   -1160.3763    6418.2774    11677.789    1888.7901 
  494000    300.57643   -1163.4655    6419.9276    11677.816     1966.622 
  494100    295.18553   -1164.8484    6536.5023     11677.84    1931.1434 
  494200    302.49261   -1166.0899    6381.6793     11677.88    1870.1498 
  494300    302.44539   -1166.6572    6383.1826    11677.807    1898.5029 
  494400     302.4606   -1170.6739    6386.9552    11677.888    1875.0326 
  494500    297.16217   -1168.1019    6497.6267    11677.939    1855.2571 
  494600    302.62038   -1164.5314    6377.3517     11677.84    1868.6385 
  494700    298.41213   -1166.0829    6468.8396    11677.874    1891.9616 
  494800    299.69213   -1160.9635    6436.4788    11677.978     1908.335 
  494900    303.94884   -1163.4774    6347.9848    11677.908    1868.6362 
  495000    298.63085   -1171.1169    6469.2191    11677.892    1899.6588 
  495100    303.11767    -1172.683    6374.9059    11677.867     1915.639 
  495200     298.0686   -1171.6886    6481.7824    11677.872    1912.4641 
  495300    296.86592   -1168.2342    6503.9585    11677.809    1868.7744 
  495400    300.89796   -1165.2736    6414.9202     11677.87    1942.0682 
  495500    302.61973   -1165.6872    6378.4173    11677.736    1957.6537 
  495600    301.05224   -1159.0715    6405.2778    11677.726    1957.4802 
  495700     299.7562   -1164.1027    6438.0224    11677.751    1946.2599 
  495800     299.1288   -1164.6455     6451.997    11677.779    1933.7658 
  495900    301.43196   -1163.2513     6401.391    11677.771    1914.3253 
  496000    298.30642   -1166.0938    6470.9548     11677.72    1927.6536 
  496100    303.40296   -1164.5966    6360.5013    11677.643    1918.7684 
  496200    302.43417   -1167.9161    6384.5599    11677.686    1929.9094 
  496300    297.65922    -1155.998    6474.6505    11677.685    1916.8791 
  496400    301.55964   -1161.3384    6396.7033    11677.724     1932.945 
  496500    301.07409   -1156.9418    6402.6194    11677.664    1954.0358 
  496600    301.39717   -1161.2957    6400.0785    11677.671    1920.9742 
  496700    298.45989   -1161.9244     6463.543    11677.756    1929.8043 
  496800    299.94989   -1161.6817     6431.448    11677.735     1948.131 
  496900    296.71005   -1160.4482    6499.4186    11677.725    1988.0012 
  497000    301.53209   -1167.7859    6403.7476    11677.732    1931.3411 
  497100    303.24004   -1168.4516    6367.9599    11677.766    1919.0397 
  497200    297.63388     -1158.55    6477.7557    11677.697    1872.7102 
  497300    299.36732    -1163.248    6445.4195    11677.695    1957.7056 
  497400     301.7857   -1166.5088    6397.0299     11677.71    1930.4842 
  497500    299.36937   -1167.3747    6449.5415    11677.734    1897.1222 
  497600    296.96454   -1161.2054    6494.7948    11677.781    1947.3182 
  497700    301.39845   -1165.5957     6404.421    11677.741    1888.0414 
  497800    299.39999   -1164.4398    6446.0932    11677.875    1848.4134 
  497900    299.79208   -1171.4648    6444.7388    11677.872    1866.6151 
  498000    301.47232   -1170.9205    6408.2795    11677.853    1923.5369 
  498100    303.38877    -1171.941    6368.3689    11677.864    1864.7167 
  498200    299.46279   -1164.5877    6444.9386    11677.914    1888.8439 
  498300    296.64876   -1164.5091    6504.8799    11677.816    1983.2734 
  498400    304.01886   -1165.0544    6347.9236    11677.766    1924.3192 
  498500    299.32205    -1159.861    6443.1015    11677.797    1925.8253 
  498600    298.50867   -1159.8678    6460.5328    11677.845    1962.5527 
  498700    301.52797   -1163.6563    6399.7834     11677.81    1939.4143 
  498800    297.55388   -1169.3619    6490.3438    11677.764    1902.1194 
  498900    301.08209   -1166.6198     6412.311    11677.848    1903.2075 
  499000    299.92569    -1169.138    6439.4798    11677.794    1911.8492 
  499100    301.17369   -1164.2925     6407.917    11677.738     1939.447 
  499200    300.68385   -1154.6625    6408.6894    11677.676    1936.2903 
  499300    297.79545   -1159.9326    6475.6273    11677.637     1988.608 
  499400    300.46772   -1158.6392    6417.2291    11677.622    2021.3617 
  499500    299.52675   -1157.7119    6436.3566    11677.574    1989.1545 
  499600     301.3774    -1161.013     6400.201    11677.654    1878.5898 
  499700    301.90745    -1161.777    6389.6258    11677.638    1860.8666 
  499800    301.22136    -1164.873    6407.4976    11677.757     1879.427 
  499900    299.05188   -1163.8331    6452.7228    11677.674    1882.1672 
  500000    297.84105   -1163.1971    6477.9349    11677.655    1894.0919 
  500100    297.59496   -1161.3407    6481.3481    11677.667    1909.1184 
  500200    300.13942    -1160.349    6426.0194    11677.689    1903.7935 
  500300    298.94993   -1160.1512    6451.2497    11677.705    1950.4887 
  500400    300.08337   -1157.7491    6424.5218    11677.594    1950.8366 
  500500    299.76187   -1159.1343    6432.9217     11677.74    1903.2219 
  500600    298.91427   -1159.1261    6451.0562    11677.775    1872.1067 
  500700    303.37551   -1165.2021    6361.8896     11677.84    1943.6915 
  500800    298.60783   -1173.2626     6471.854     11677.89    1946.2573 
  500900    300.58531   -1168.7746    6425.0759    11677.845    1905.2591 
  501000     299.5672   -1167.8938    6445.9158    11677.816    1972.3255 
  501100    299.93732   -1161.8009    6431.8909    11677.791    1939.3672 
  501200    299.20879   -1161.1656    6446.9083    11677.879    1959.2047 
  501300    303.56384   -1161.6526    6354.2781    11677.801    1996.0073 
  501400    300.26494   -1160.3653    6423.4605    11677.795    1996.1585 
  501500    297.44852   -1160.8389    6484.1419    11677.834    1930.1314 
  501600    300.57031   -1161.0044    6417.7118    11677.931    1978.9432 
  501700    299.46928   -1172.6548    6452.9282    11677.975     1931.283 
  501800    302.32712   -1172.0374    6391.2117    11677.929    1890.8288 
  501900    298.23455   -1168.7326    6475.3622    11677.953    1948.1035 
  502000    299.83199   -1168.5856    6440.9604    11677.825    1940.9195 
  502100    302.38622   -1161.2627     6379.063    11677.818    1955.5394 
  502200    300.76382   -1166.1789    6418.6269    11677.805    1997.2383 
  502300    298.09617   -1163.9651    6473.4405    11677.843    2000.3256 
  502400    300.37236   -1161.4149    6422.1584    11677.738    1999.3809 
  502500    304.71518   -1162.9955    6330.9817    11677.759    1942.0303 
  502600    298.75356   -1167.4629    6462.8292    11677.778    1949.2263 
  502700    300.20756   -1165.2929     6429.565    11677.746    1896.3378 
  502800    302.34241   -1163.1956    6381.8034     11677.69    1905.6771 
  502900    298.50797   -1165.2814    6465.8437    11677.727     1911.215 
  503000    300.65746   -1160.5207    6415.1711    11677.736    1914.9113 
  503100    300.31864   -1163.4146    6425.3506    11677.783    1882.6593 
  503200    298.36777    -1162.258    6465.8135    11677.725     1933.824 
  503300    298.10844   -1163.8922     6472.998    11677.735     1985.463 
  503400    300.76077   -1164.7358    6417.0594    11677.616    1937.9744 
  503500    302.81604   -1160.4725    6368.8933    11677.621    1894.1626 
  503600    297.07795   -1164.1609    6495.3337    11677.787     2003.371 
  503700    304.90727   -1163.1926    6327.0677    11677.751    1973.5339 
  503800    296.40897   -1161.7407    6507.1812    11677.763    1995.2825 
  503900    300.64987   -1166.5987    6421.4461     11677.77    1971.2871 
  504000    298.32536   -1164.6662    6469.2061    11677.803    1949.8484 
  504100    300.28912   -1166.8703    6429.4845     11677.83     1891.255 
  504200     301.7951   -1166.8876    6397.2774    11677.779    1902.0768 
  504300    296.36722   -1159.7128    6506.0829    11677.801    1972.8601 
  504400    302.91438   -1162.8521    6369.3285    11677.777    1860.2321 
  504500    298.56946   -1165.1359     6464.467     11677.81     1997.416 
  504600    299.79233   -1162.3089    6435.4925    11677.787    1963.9895 
  504700    301.64733   -1160.6045    6394.1179    11677.746    1913.8677 
  504800    297.86544   -1163.8544     6478.174    11677.758     1989.528 
  504900    303.85152   -1161.4453    6347.9356    11677.812    1985.1451 
  505000    300.03593   -1166.7908    6434.8258    11677.842    1969.8512 
  505100    301.07588   -1166.9021    6412.7206    11677.843    1920.6716 
  505200    298.31998    -1167.436    6472.1649    11677.878    2004.6209 
  505300    299.52556   -1166.2604    6445.2729    11677.916    2030.4891 
  505400      303.255   -1167.5277    6366.8668    11677.917    1911.4956 
  505500    295.87613   -1163.5676     6520.504    11677.876    1938.1332 
  505600    296.91026   -1159.3531    6494.1139    11677.793    1919.4996 
  505700    303.69094    -1164.444    6354.3701    11677.817    1921.6429 
  505800    299.97729   -1164.3828    6433.6111    11677.783    1970.3327 
  505900    300.04675   -1163.3378    6431.1219    11677.823    1955.7045 
  506000    299.35588   -1162.5468    6445.0284    11677.761     1964.184 
  506100    300.33378   -1164.8695     6426.447    11677.748    1893.5069 
  506200    296.95026   -1167.3819    6501.1465    11677.651    1863.0401 
  506300    301.90483   -1161.7197    6389.6422    11677.656    1884.7024 
  506400    301.16686    -1164.686    6408.3964    11677.678    1968.1074 
  506500    302.50818   -1157.6599    6372.7262    11677.689    1877.6537 
  506600     297.2092   -1156.6674    6484.8616    11677.613    1911.4796 
  506700    296.81175   -1154.6266     6491.362    11677.663    2010.4309 
  506800    301.73671   -1159.8382    6391.3698    11677.673    1983.4128 
  506900    299.78635    -1162.341    6435.5487    11677.683    1915.1476 
  507000    301.67017   -1162.1089    6395.0048    11677.616    1912.9338 
  507100     301.0506    -1159.107     6405.254    11677.631    1919.2047 
  507200    297.42739   -1162.3192    6485.8337    11677.594    1957.7622 
  507300    298.24546   -1161.3147     6467.413    11677.655    1991.1817 
  507400    300.39158   -1158.6301    6418.8316    11677.607    1947.4298 
  507500    301.66243   -1162.0594    6395.0964    11677.592    1952.8891 
  507600    297.98059   -1157.7078    6469.4698     11677.66    1999.0418 
  507700    298.72582   -1163.7318    6459.6286    11677.715    1941.7928 
  507800    301.90472   -1163.5972    6391.6168    11677.751    1850.4976 
  507900     297.9245    -1163.477    6476.5172     11677.74     1945.391 
  508000    304.88399   -1168.4179    6332.7813    11677.742    1933.5508 
  508100    298.86927   -1168.8194    6461.8093    11677.873    1899.3879 
  508200    299.62932   -1163.9325    6440.6755    11677.864    1883.8822 
  508300    296.46045   -1164.0854    6508.5864    11677.924    1952.3506 
  508400    303.33566   -1165.9126    6363.4155    11677.804    1904.5129 
  508500    301.15461   -1164.4526    6408.6964     11677.95    1918.9108 
  508600    298.51199   -1166.5041    6467.1645    11677.911    1981.0968 
  508700    298.44655   -1157.9897    6460.0437    11677.907    1965.1122 
  508800    302.79321   -1167.6539    6376.7844    11677.843    1896.8479 
  508900     299.0957   -1164.5076    6452.6957    11677.909    1937.7799 
  509000    301.79362   -1166.2779    6396.7791    11677.859    1903.6138 
  509100    299.25899   -1170.8684    6455.5398    11677.881    1867.4828 
  509200    297.78319   -1166.5481    6482.7337    11677.867    1882.6748 
  509300    303.54802   -1168.5727    6361.6264    11677.892    1963.2169 
  509400    300.50778   -1171.5895    6429.5724    11677.871    1899.1395 
  509500     301.2326   -1170.0869    6412.5032    11677.789    1823.4993 
  509600    300.01882   -1167.2587    6435.6059    11677.789    1970.4384 
  509700    300.25038   -1163.9521    6427.3846    11677.821    1984.7011 
  509800    297.66773   -1163.3126    6481.7788     11677.68    1931.1426 
  509900    298.07239   -1160.9198    6470.8232    11677.763    1967.0602 
  510000     301.7962   -1166.4711    6396.7347    11677.677    1973.3603 
  510100    302.13013   -1167.0967    6390.2443    11677.694     1910.533 
  510200    300.46431   -1165.9263    6424.7019    11677.734    1917.8472 
  510300    299.86894   -1167.7301    6439.2552    11677.765    1949.5266 
  510400    300.80937   -1167.2661    6418.6321    11677.697    1868.9277 
  510500    298.09608   -1162.0239    6471.4015    11677.743    1862.1444 
  510600    297.96727   -1163.9682    6476.1134    11677.759    1891.1323 
  510700    301.96771   -1164.3355     6391.017    11677.758    1924.6033 
  510800    299.66494   -1163.3702    6439.1677    11677.679    1988.2114 
  510900    301.08706   -1158.1993    6403.5945    11677.658    2020.2234 
  511000    300.52973   -1160.9005    6418.2203    11677.676    1980.5217 
  511100    293.53433   -1158.9009    6565.7815    11677.791    1963.4606 
  511200    301.19221   -1168.5627    6411.8847    11677.831    1939.9979 
  511300    301.58488   -1167.3465    6402.3261    11677.878    1944.0593 
  511400    298.75904   -1168.3275    6463.7069    11677.908    1902.7592 
  511500    299.24351    -1168.889    6453.8697    11677.859    1929.2613 
  511600     298.4658    -1162.125    6463.7352    11677.874    1957.1697 
  511700    300.78565   -1163.5942    6415.6821    11677.912    1926.6282 
  511800    302.09135   -1169.8882    6394.0177    11677.848    1897.0168 
  511900    299.79396   -1165.4516    6438.6898    11677.876    1935.7691 
  512000    300.25427   -1160.5758    6423.9125    11677.809    1866.6808 
  512100    298.56977   -1162.6074    6462.0004    11677.878    1931.3001 
  512200    302.28999   -1172.4953    6392.3753    11677.842    1906.7097 
  512300    299.67393    -1172.073    6447.9281    11677.929    1877.2009 
  512400    300.57901   -1166.1906    6422.7385    11677.957    1883.8843 
  512500    300.96856   -1163.0976    6411.2144    11677.848     1873.982 
  512600    298.33569   -1164.0843     6468.455    11677.855    1935.8438 
  512700    300.68723   -1161.5196    6415.6872    11677.889     1941.215 
  512800    300.74678   -1164.9105    6417.7408    11677.824    1898.8622 
  512900    300.67026   -1156.8383    6411.1963    11677.717    1934.5578 
  513000    302.47497   -1165.1645     6381.002    11677.751    1930.5249 
  513100     298.9883   -1166.4158    6456.7838    11677.794    1905.3853 
  513200    298.73585   -1164.8721    6460.6346    11677.796    1924.3075 
  513300     299.0841   -1167.9043    6456.2056    11677.774    1878.9194 
  513400    301.51938   -1163.0936    6399.4161    11677.821      1909.61 
  513500    301.48652   -1159.6274    6396.6249    11677.794    1909.5969 
  513600    303.77791   -1163.1908    6351.1815     11677.74    1858.4854 
  513700    299.23978   -1150.5763    6435.4879     11677.71     1911.759 
  513800    300.10061   -1164.3827    6430.8953    11677.702    1914.4695 
  513900    299.34115   -1160.7021    6443.4083     11677.67    1925.5802 
  514000    299.79682   -1158.7101    6431.7461    11677.735    1948.0544 
  514100    301.13345   -1165.7584    6410.2926    11677.788    1953.3584 
  514200    297.57188   -1165.2315    6485.7974    11677.732    1874.2822 
  514300     298.5261   -1165.2019      6465.39     11677.74    1825.9432 
  514400     299.8187   -1167.8438    6440.3667    11677.689    1892.0225 
  514500    301.30476   -1161.2538    6402.1465    11677.807    1907.7067 
  514600    300.50949   -1163.9083    6421.7643     11677.78    1952.8892 
  514700    300.66011    -1161.561    6416.3017    11677.883    1977.4713 
  514800     298.3308   -1160.2879    6464.7504    11677.842    1902.6559 
  514900    302.08347   -1164.4982    6388.8085     11677.86    1837.6989 
  515000    297.95154   -1162.7328    6475.3521    11677.897    1930.3031 
  515100    298.98055   -1167.0164    6457.5617    11677.806    1827.1915 
  515200    301.10106   -1167.9341    6413.2898    11677.918     1883.146 
  515300    298.77018   -1167.2148    6462.4698    11678.022    1967.1797 
  515400      298.273   -1165.0421     6470.782    11677.885    1928.5018 
  515500    302.77267   -1167.6992    6377.2588    11677.833    1852.0726 
  515600    299.07812   -1165.4168    6454.0033    11677.932    1946.2039 
  515700    300.27634   -1162.6293    6425.5759     11677.89    1899.5447 
  515800    302.38619   -1159.3001    6377.0706    11677.788    1838.3288 
  515900    301.28345   -1160.5375    6401.8645    11677.786    1922.1634 
  516000    300.46989   -1159.8183     6418.537    11677.797    1904.7992 
  516100    300.28524   -1167.3923     6430.042    11677.783     1886.858 
  516200    301.75041   -1170.0464    6401.4411    11677.829    1855.3552 
  516300    298.47179   -1162.7213     6464.113    11677.784    1908.7755 
  516400    300.70836   -1164.1485    6417.7337    11677.758    1856.2958 
  516500     296.9332   -1161.2733    6495.5199    11677.769    1898.4724 
  516600    302.68456   -1162.1875    6373.4984    11677.702    1925.0811 
  516700    296.74919   -1153.0248    6491.1574    11677.724    1935.5835 
  516800     300.8382   -1162.3357    6413.1429    11677.754     1912.439 
  516900    298.32417   -1159.4208    6463.9074    11677.725     1901.671 
  517000    299.27713   -1159.6941    6443.8284    11677.731    1829.5527 
  517100    300.43104   -1159.6009     6419.069    11677.716     1811.763 
  517200    296.37494   -1162.9997    6509.2545    11677.851    1927.8757 
  517300    299.43297    -1162.455    6443.2493     11677.72     1909.642 
  517400    298.67646   -1159.4285    6456.3664    11677.702    1925.5429 
  517500    298.86972   -1166.3277    6459.1742    11677.739    1875.5809 
  517600    302.50804   -1168.0827    6383.1951    11677.732    1852.2271 
  517700    299.66561   -1159.8516    6435.7004    11677.745    1900.9774 
  517800    301.48952   -1154.7221    6391.6009     11677.74    1802.0369 
  517900    301.26516   -1158.7795    6400.4724    11677.761    1837.5173 
  518000    303.07768    -1157.522    6360.5846    11677.852    1898.3012 
  518100    297.28325   -1158.3907    6485.1851    11677.795    1855.4152 
  518200    298.99067   -1165.8315    6456.0838    11677.729    1845.3974 
  518300    300.05388   -1166.6383    6434.2955    11677.848    1837.4991 
  518400    301.34498   -1170.0464    6410.1295    11677.856    1768.9019 
  518500    301.75905   -1167.0921     6398.395    11677.922    1832.1559 
  518600    300.49196    -1162.348    6420.6571    11677.859    1864.3763 
  518700    300.96519   -1164.4239    6412.5793    11677.815    1851.8015 
  518800    300.68375   -1160.4909    6414.6284    11677.784     1887.543 
  518900    301.41004   -1161.8979    6400.6039    11677.869    1910.2163 
  519000    301.40567   -1164.5824    6403.3719    11677.859    1878.6136 
  519100    297.94583   -1159.9554    6472.6802     11677.88    1917.2648 
  519200    302.85382   -1171.1835    6379.0782    11677.902    1820.0102 
  519300    300.80041   -1169.9471     6421.726    11677.918    1813.4036 
  519400    295.65684   -1166.5004    6528.2166    11677.971    1862.8751 
  519500    305.24595   -1166.4586    6323.1639    11677.817    1882.1507 
  519600     298.5746   -1162.8888    6462.1082    11677.808    1898.5337 
  519700    299.22338   -1161.6413     6447.018    11677.825    1906.0745 
  519800    301.51626   -1157.9029    6394.1846    11677.714     1854.249 
  519900    300.20573   -1153.5136    6417.7677    11677.689    1888.7088 
  520000    301.18234   -1160.5974    6404.0026    11677.704     1884.412 
  520100     296.5323   -1164.7028    6507.4932    11677.748    1894.3757 
  520200    302.25572   -1164.4744    6384.9545     11677.71    1807.0818 
  520300    299.85934   -1165.6453    6437.2801     11677.67    1863.7338 
  520400    301.81671   -1167.3977    6397.2848    11677.738    1871.1841 
  520500    296.04172   -1163.9234    6517.1256    11677.679    1853.4844 
  520600    303.38028   -1162.6112    6358.9982    11677.641    1855.1059 
  520700    299.43979    -1160.535    6441.0965    11677.633    1935.7327 
  520800    301.14624   -1164.8707    6408.8974    11677.554    1956.1319 
  520900    298.00491   -1154.7923    6466.0664    11677.692    1898.0165 
  521000    301.35902   -1163.7927    6403.4266    11677.707    1822.3226 
  521100    302.64996   -1163.3626    6375.4164    11677.706    1810.8661 
  521200    300.28612   -1167.0954    6429.6691    11677.726    1839.3653 
  521300    299.27131   -1168.8583    6453.1774    11677.791    1882.8277 
  521400    300.44954   -1167.3239    6426.4969    11677.816    1850.5617 
  521500     299.6809   -1164.2447    6439.8571    11677.835    1835.8417 
  521600    299.61041   -1165.6265    6442.7165    11677.807    1919.3044 
  521700    302.61261   -1163.0672    6375.9766    11677.764    1866.1693 
  521800    299.49603   -1160.2269    6439.7733     11677.82    1908.6649 
  521900    298.61089   -1164.1218    6462.5998    11677.841    1917.6514 
  522000    299.51065    -1160.153    6439.3942    11677.827    1941.5467 
  522100    306.48985   -1163.9668    6294.0677    11677.786     1811.861 
  522200    301.86654   -1163.0425    6391.9058    11677.779    1790.2457 
  522300    296.99935   -1162.5748    6495.4768    11677.838     1866.108 
  522400    303.65739   -1164.9997    6355.6796    11677.854     1804.332 
  522500    296.66601     -1167.35    6507.3101    11677.774    1817.2866 
  522600    300.05856   -1163.6051    6431.0799    11677.765    1871.9864 
  522700    304.58699    -1161.118    6331.7733    11677.689    1872.4999 
  522800    298.66268   -1162.7921    6460.0423     11677.72    1844.9615 
  522900    297.36275   -1156.8925    6481.8037     11677.61    1827.1416 
  523000    302.59885   -1160.3551    6373.4346     11677.64    1830.5073 
  523100     297.0945   -1157.8037    6488.4834    11677.648    1834.0429 
  523200    300.97916   -1159.3677    6407.0727    11677.663    1829.4867 
  523300      300.476   -1159.8001    6418.2981    11677.707    1832.6309 
  523400    300.67304   -1161.2026    6415.4509    11677.667    1825.4777 
  523500    298.97421   -1163.9583    6454.3787    11677.546    1835.0576 
  523600    301.20179   -1159.5381    6402.4337     11677.61    1823.3163 
  523700    300.02034   -1154.9983     6423.265    11677.741    1888.1531 
  523800    298.41247   -1159.5053    6462.0169    11677.636    1864.2816 
  523900    299.62184   -1161.9683    6438.6216    11677.614    1867.6345 
  524000    301.88088   -1159.4089    6387.8472     11677.66    1859.7574 
  524100     300.7159   -1161.5392    6414.8992    11677.694    1836.7166 
  524200    301.54445   -1166.4381    6402.0182    11677.614    1809.7219 
  524300    300.05783   -1163.7088    6431.2334      11677.8     1759.093 
  524400    299.74709   -1166.2315    6440.4105    11677.816    1837.2171 
  524500    298.99901   -1163.6881    6453.8685    11677.836    1861.2681 
  524600    301.52566   -1164.3752    6400.5404    11677.798    1860.7136 
  524700    300.76631   -1164.6931    6417.1374    11677.855    1876.0305 
  524800    299.75974   -1168.0537    6442.0456    11677.899    1858.7321 
  524900    300.32186    -1162.678    6424.5674    11677.805    1824.5275 
  525000    303.76797   -1168.2789    6356.6019     11677.86    1863.3486 
  525100    301.73843   -1167.4144    6399.1125    11677.877    1883.9838 
  525200    301.64265   -1167.6074    6401.4993    11678.024    1897.8208 
  525300    300.66835   -1168.1758    6422.8533    11677.996    1882.6846 
  525400    300.64275   -1171.7453    6426.9567    11677.983     1852.401 
  525500    301.99354   -1179.4837    6405.8557    11678.001    1926.5951 
  525600    298.19172   -1166.1667    6473.6513    11677.893    1893.3508 
  525700    298.42748     -1162.83    6465.2502    11677.865    1902.9731 
  525800    300.09264   -1161.2202    6427.9822    11677.781    1868.2367 
  525900    299.11916   -1160.1303    6447.8326    11677.924    1846.7461 
  526000    300.90957    -1157.117    6406.4733    11677.828    1850.4576 
  526100    301.08727   -1166.2681    6411.7504     11677.75     1955.705 
  526200    299.75378   -1168.7948    6442.8343    11677.819    1842.7692 
  526300    297.80173   -1165.5858    6481.3161    11677.807    1852.1254 
  526400    302.30564    -1163.394    6382.8858    11677.788     1902.538 
  526500    299.13394   -1164.5687    6451.7239    11677.693    1875.2799 
  526600    300.97431   -1161.4128    6409.1987     11677.64    1874.1774 
  526700    301.05035   -1158.3975    6404.4873    11677.569    1888.2529 
  526800    301.89352   -1160.6793     6388.819    11677.632    1906.4142 
  526900    301.99548   -1160.1988    6386.1007    11677.572    1886.4413 
  527000    300.51848   -1160.8297    6418.3327    11677.619    1912.0974 
  527100    297.65816   -1160.3967    6479.0787    11677.692    1910.6096 
  527200     303.1924   -1157.0215     6357.412    11677.631    1878.0326 
  527300    298.92563    -1160.421    6451.9985    11677.665    1925.7404 
  527400    300.55349   -1151.7895    6408.6451     11677.72    1870.5864 
  527500    300.02634     -1161.25    6429.3194    11677.672    1901.2951 
  527600    301.74464   -1156.4321    6387.7778    11677.657    1875.0309 
  527700    298.26768   -1161.2979    6467.0192    11677.753    1906.9768 
  527800    296.99047   -1163.3017    6496.3116    11677.755    1934.0061 
  527900    301.35926   -1163.2605    6402.9512    11677.769    1861.2666 
  528000     300.5539   -1166.4976    6423.3985    11677.774    1848.9973 
  528100    299.00843   -1167.9462    6457.8859    11677.796    1870.5386 
  528200    302.00188   -1164.8393    6390.7967    11677.764    1909.0252 
  528300    300.78979   -1161.6891    6413.5012    11677.724    1951.4813 
  528400    301.20559   -1158.5863    6401.5317    11677.741    1921.5734 
  528500    298.17145   -1160.5679    6468.3953    11677.803    1926.7263 
  528600    302.02447   -1167.7763    6393.2975    11677.811    1923.2018 
  528700    300.99913   -1169.8005    6417.2009    11677.785    1932.9949 
  528800    297.24884    -1170.777    6498.3102    11677.799    1904.6592 
  528900    303.29015   -1168.9884    6367.5507    11677.891    1878.0917 
  529000    296.59801   -1169.4456    6510.9209    11677.837    1910.1695 
  529100    301.20935   -1158.6008     6401.481    11677.756    1892.7907 
  529200    301.46896   -1162.4539    6399.8524     11677.82    1899.0646 
  529300    300.91512   -1163.2505    6412.4192    11677.759    1925.8391 
  529400    303.95106   -1164.3941    6348.6783    11677.732    1947.3955 
  529500    300.32816   -1163.8453    6425.5464    11677.751    1955.8402 
  529600    304.02652   -1166.4032    6349.0837    11677.741    1854.7598 
  529700    295.43867   -1164.1303    6530.4006    11677.864    1955.0361 
  529800    301.17479   -1167.2526    6410.9546    11677.839    1904.9743 
  529900    301.38884   -1160.6056    6399.6016    11677.706    1871.9106 
  530000    302.13754    -1162.349    6385.3945     11677.75    1870.2737 
  530100    302.24906    -1164.999    6385.6735    11677.762    1864.3556 
  530200    298.16345   -1163.5531     6471.532    11677.783    1856.0955 
  530300    300.83923   -1160.1359    6410.9217    11677.754    1870.7035 
  530400    296.57786   -1163.4034    6505.2144    11677.742    1921.9786 
  530500    303.86227   -1168.3926    6354.5662    11677.725    1902.1015 
  530600    300.77586   -1161.1248    6413.2334    11677.723    1942.7883 
  530700    299.45038   -1163.7725    6444.1823    11677.708    1915.3305 
  530800    299.58109    -1158.738    6436.3658    11677.718     1904.904 
  530900    298.59899   -1163.5421    6462.1375    11677.705    1907.2187 
  531000    300.56895   -1160.0665    6416.5762    11677.704     1895.313 
  531100    302.69191   -1161.1926    6372.2952    11677.651    1889.5252 
  531200    297.90283   -1166.2806    6479.8031    11677.759    1947.5218 
  531300    302.22441   -1169.0503     6390.323    11677.833    1951.5026 
  531400    300.23433   -1168.4142    6432.1868    11677.818    1874.2956 
  531500     297.1813   -1169.6092    6498.5437    11677.757    1903.8269 
  531600    299.57245   -1170.9666    6448.8624    11677.802     1943.183 
  531700    302.32916   -1164.5636    6383.5627    11677.798    1886.8254 
  531800    297.35202   -1164.0896    6489.3507    11677.731     1884.545 
  531900    301.49664   -1161.9922    6398.7731    11677.794    1913.8873 
  532000    301.29263   -1166.2241    6407.4179    11677.848    1863.4468 
  532100    299.45902   -1165.7696    6446.1552    11677.868    1885.8105 
  532200    299.60673   -1164.8985    6442.0952    11677.835     1907.098 
  532300     298.3518   -1170.8129    6474.8653    11677.881    1885.7776 
  532400    298.58613   -1167.0205    6466.0425    11677.857    1898.6248 
  532500    299.58521   -1164.0588    6441.7799    11677.899    1914.7532 
  532600    300.89578   -1166.0405    6415.6417    11677.778    1891.7026 
  532700    299.17888    -1170.119    6456.3066    11677.685    1903.2548 
  532800    301.96128   -1163.1892    6390.0413    11677.792    1944.8943 
  532900    299.96788    -1161.037     6430.472    11677.788    1888.2891 
  533000     299.4561    -1158.647    6439.0328    11677.806    1899.3055 
  533100    298.05478    -1163.775    6474.0388    11677.747    1937.3608 
  533200    301.24458    -1165.667    6407.8812    11677.842     1889.217 
  533300    299.19921   -1163.9934    6449.8082    11677.747    1891.4798 
  533400    300.36786   -1164.5462    6425.3674     11677.72    1915.2958 
  533500    299.61316   -1160.2908    6437.2862    11677.771    1888.2861 
  533600    300.43233   -1162.9409    6422.4142    11677.749    1886.5533 
  533700    296.66886   -1158.7419    6498.5846    11677.718    1874.5416 
  533800    303.87258   -1158.5072     6344.471    11677.735    1873.7641 
  533900    298.96268   -1158.4395    6449.2182    11677.658    1881.8046 
  534000    299.40018   -1159.7578    6441.1705    11677.638    1923.8176 
  534100    299.89428   -1159.0814    6430.0033    11677.703    1875.7032 
  534200    298.45093   -1156.2494    6457.9757    11677.673    1811.7662 
  534300    302.67782   -1158.4529    6369.8508    11677.645    1807.8286 
  534400    305.12966   -1165.7097    6324.6095    11677.527     1831.951 
  534500    302.41698    -1163.099    6380.0496    11677.625    1854.5987 
  534600    297.46368   -1161.7758    6484.4698    11677.549    1832.2241 
  534700    300.05083   -1161.8603    6429.4202    11677.686    1914.0341 
  534800    299.93784   -1159.1913    6429.1169    11677.637    1869.6588 
  534900    299.32132   -1159.4697    6442.5411    11677.612    1833.1478 
  535000    297.79214   -1157.1725    6472.9064    11677.606    1890.5385 
  535100    299.56565   -1165.4439    6443.3123    11677.629    1867.1378 
  535200    302.34916   -1159.7671    6378.1993    11677.658    1868.4322 
  535300     297.6207   -1161.3886    6480.8765    11677.697    1944.1544 
  535400    302.99664   -1162.0161    6366.6296    11677.672    1924.7333 
  535500    298.81402   -1164.8118    6458.7433    11677.634    1934.8309 
  535600    298.39364    -1160.416    6463.3844    11677.691    1922.1474 
  535700     299.8166   -1165.9703    6438.5041    11677.655    1906.5266 
  535800    302.42502   -1162.7318    6379.5977    11677.712    1882.4847 
  535900    300.09015   -1161.6944    6428.4361    11677.707    1828.1702 
  536000    301.45141   -1160.1481    6397.8158    11677.715     1839.832 
  536100    300.04074   -1167.4876    6435.3321    11677.755    1853.8674 
  536200    298.41692   -1167.1869    6469.7292    11677.762    1841.4583 
  536300    302.00865   -1160.7157    6386.4167    11677.652    1809.3403 
  536400    297.52478   -1161.7903    6483.4169    11677.787    1896.0388 
  536500    302.11416   -1155.3818    6378.9275    11677.751    1806.0786 
  536600    299.95108   -1159.3693    6429.1037    11677.729    1815.1357 
  536700    301.28994   -1156.7397    6397.8443    11677.702    1880.4041 
  536800    299.53968    -1158.519     6437.046    11677.733    1892.5076 
  536900    300.19241   -1166.1549    6430.8116    11677.807    1873.7686 
  537000    301.06436    -1166.175    6412.1935    11677.797    1859.1733 
  537100    298.00179   -1166.6894    6478.1007    11677.762    1860.1359 
  537200    298.60287   -1160.4913    6458.9792     11677.68    1826.6012 
  537300     303.1661   -1163.5899    6364.6822    11677.771    1864.9816 
  537400    296.45454    -1160.978    6505.3927    11677.711    1997.2344 
  537500     300.7489   -1157.2939    6409.9526    11677.697    1839.4093 
  537600     301.0826   -1162.6358    6408.1937    11677.726    1846.9179 
  537700    299.57913   -1159.1646     6436.859    11677.743    1926.0725 
  537800    300.16531   -1158.9814    6424.1453    11677.735    1890.9531 
  537900    298.11906   -1159.1639    6468.1062    11677.799    1876.8901 
  538000    300.45645   -1166.1534    6425.2132    11677.851    1897.6948 
  538100    298.27221   -1166.4186    6472.0299    11677.739    1919.6043 
  538200      298.128   -1167.5398    6476.1957    11677.703    1822.4004 
  538300    301.80773   -1163.5175    6393.6382     11677.78    1844.5288 
  538400    301.91011   -1163.1296    6391.0523    11677.769      1868.31 
  538500      300.243    -1161.907    6425.3694    11677.693    1840.3551 
  538600    301.29832   -1158.4259    6399.4363    11677.787    1887.9047 
  538700    301.03353   -1167.7659     6414.497    11677.851    1930.7821 
  538800    299.96227   -1160.3657    6429.8441    11677.712    1895.9587 
  538900    302.51523   -1165.5898    6380.5172    11677.701    1832.4136 
  539000    301.22571    -1162.223    6404.7583     11677.76    1789.8497 
  539100    299.83546   -1163.9375    6436.2487    11677.836    1854.6358 
  539200    301.52364   -1164.5218    6400.6735    11677.742    1882.2699 
  539300    300.08853    -1165.176    6432.0091    11677.764    1953.8756 
  539400    301.62334   -1158.3633    6392.3207    11677.677    1959.2169 
  539500    295.59588   -1155.4117    6518.2245    11677.765    1943.7758 
  539600    301.59755   -1160.4545     6395.026     11677.74    1888.0907 
  539700     300.6933   -1163.0415    6416.8541    11677.664    1954.0802 
  539800    300.42866    -1162.241    6421.8761    11677.832    1882.2615 
  539900    304.69285   -1167.9356    6336.3651    11677.725    1815.7389 
  540000    298.24079   -1162.9102    6469.2816    11677.828    1888.9961 
  540100    298.95102   -1166.9896    6458.1221    11677.762    1913.5498 
  540200    300.21316   -1160.4879     6424.649    11677.755    1885.4899 
  540300    298.68967   -1159.1087       6455.8    11677.738    1931.4794 
  540400      300.723   -1158.4564    6411.7616    11677.791    1848.3026 
  540500    298.70185    -1157.432    6453.7947    11677.669    1956.8356 
  540600    301.67777     -1156.25    6389.1005    11677.733    1913.1816 
  540700    299.74888   -1163.8904    6437.9946    11677.779    1903.0121 
  540800    299.52818   -1169.1606    6448.0443    11677.844    1909.6955 
  540900     301.6069    -1173.113    6407.5274    11677.783    1860.7933 
  541000     301.1722   -1167.7747    6411.5648    11677.872    1855.4548 
  541100    299.22845   -1166.9847    6452.2437    11677.816    1944.2706 
  541200    300.42267   -1162.4351    6422.1649    11677.799     1929.416 
  541300    300.83696   -1163.7046    6414.5149     11677.73    1830.9606 
  541400    298.23901   -1158.8727    6465.2178    11677.764    1901.8914 
  541500    302.43955    -1160.029    6376.6764    11677.804    1941.8014 
  541600    298.69279   -1162.0639    6458.7316    11677.781    1884.3295 
  541700    301.45482   -1172.3702     6409.978    11677.727    1835.4779 
  541800    301.44239   -1172.0804     6410.151    11677.925    1984.4247 
  541900    303.93536   -1168.9916    6353.6215    11677.743    1867.4385 
  542000    297.68985   -1159.1231    6477.2158    11677.779      1859.41 
  542100    297.84074   -1168.2198    6483.1003    11677.791     1916.736 
  542200    299.34867    -1163.596    6446.2399    11677.769      1874.55 
  542300    301.66821   -1165.3102    6398.4758    11677.844    1901.0936 
  542400    302.30197   -1165.1143    6384.7126    11677.816    1909.3733 
  542500    300.65229   -1165.2408    6420.1357     11677.87    1928.9661 
  542600    298.24176    -1162.357    6468.6508    11677.772    1940.2096 
  542700     300.0544   -1162.2567     6429.789    11677.734    1905.4557 
  542800    300.92223   -1161.1691    6410.2785    11677.851    1883.9912 
  542900    298.66332   -1164.6279    6461.9233    11677.779    1897.5715 
  543000    300.43814   -1162.5936    6421.9788    11677.785    1866.2217 
  543100    298.33253   -1161.5297    6465.9193    11677.806    1897.8457 
  543200    302.35485   -1162.7273    6381.0852    11677.706    1961.0502 
  543300    298.90463   -1162.9858    6454.9983    11677.651    1910.1892 
  543400    301.58932   -1158.7159     6393.452    11677.729    1908.4315 
  543500    298.30328   -1163.2612    6468.2796     11677.81    1960.3885 
  543600    298.77679   -1166.2052    6461.1398    11677.842    1901.4263 
  543700    297.76763   -1160.0559     6476.495    11677.788    1941.8037 
  543800    301.91211   -1166.0142     6394.026    11677.901    1964.3776 
  543900    296.27199   -1163.0712     6511.541    11677.866    1918.3048 
  544000    302.98574   -1168.4304    6373.3511    11677.746    1902.7497 
  544100    300.84451   -1160.8048    6411.4262    11677.703    1938.4018 
  544200    299.72387   -1157.5753    6432.2133    11677.778    1853.0754 
  544300    299.12093   -1163.3891    6450.9501    11677.821    1842.7077 
  544400    302.82351   -1166.6935    6375.2113    11677.877    1908.5994 
  544500    301.63673    -1161.679    6395.5109    11677.838    1861.8324 
  544600    298.63889   -1167.0332    6464.9594    11677.888    1872.1569 
  544700    300.55791   -1158.0044    6414.8671    11677.821    1894.7183 
  544800    301.56642   -1168.9586    6404.3053    11677.851    1899.9627 
  544900    301.53938   -1165.2205    6401.1007    11677.806    1869.6771 
  545000     299.8464   -1167.0349    6439.1411    11677.865    1899.8171 
  545100    296.47741   -1162.7731    6506.8367    11677.848    1896.1683 
  545200    299.80481    -1157.744    6430.6876    11677.813    1869.4677 
  545300    303.14134   -1168.6885    6370.3555    11677.817    1889.4087 
  545400    301.03076   -1165.6843    6412.4042     11677.78    1906.9256 
  545500    300.96303   -1168.1095    6416.2991    11677.803    1948.2002 
  545600    303.90698   -1164.9638    6350.2092    11677.752    1858.5804 
  545700    296.16142   -1163.3905    6514.1167    11677.761    1919.5308 
  545800    301.36733   -1167.2346    6406.6649    11677.681    1842.5473 
  545900    301.54336    -1161.219     6396.919    11677.711    1950.2435 
  546000    299.68066   -1159.8041    6435.3324    11677.746    1973.8691 
  546100    298.40429   -1154.8297    6457.5765    11677.697    1874.8682 
  546200    299.69838   -1163.6889    6438.7976    11677.705    1955.3097 
  546300    301.71112    -1163.342    6395.3899    11677.643     1921.703 
  546400    297.58497   -1162.0845    6482.3627    11677.725    1894.4662 
  546500    301.41833    -1167.284    6405.6338     11677.69    1876.5464 
  546600    299.44073   -1165.9362    6446.5999    11677.756    1870.7831 
  546700    298.58197   -1161.0731    6460.1097    11677.782    1886.9601 
  546800    301.07987     -1163.04    6408.6898    11677.759    1907.5859 
  546900    298.13158   -1161.7011    6470.3733    11677.796      1950.16 
  547000    299.55849    -1169.695    6447.8608    11677.773    1877.3621 
  547100    303.64295   -1163.4053    6354.3121    11677.773    1844.3205 
  547200    298.81034   -1155.8202     6450.012    11677.816    1882.6299 
  547300    303.66001   -1165.0302    6355.6187    11677.819    1910.2226 
  547400    301.75293   -1163.1129    6394.3765    11677.752    1961.8245 
  547500    297.96037   -1166.1958    6478.5129    11677.783    1928.8076 
  547600    305.36739   -1173.2621    6327.4363     11677.88    1895.6604 
  547700     302.5425    -1168.722    6383.2424    11677.877    1924.3925 
  547800    298.76629   -1167.5244    6462.6275    11677.786    1899.4851 
  547900    300.31833   -1166.3374    6428.2457    11677.749    1899.3038 
  548000    299.32424   -1166.0162    6449.1765    11677.763    1865.1611 
  548100    298.34947   -1164.9055    6468.8513    11677.724    1831.8124 
  548200    303.07955   -1165.8781    6368.7355    11677.687    1813.9402 
  548300    299.68858   -1169.4964     6444.857    11677.747      1845.53 
  548400    300.99711   -1161.4809    6408.8596     11677.72     1839.723 
  548500    297.86198   -1165.1109    6479.4606    11677.714    1893.1445 
  548600     301.7039   -1167.0556     6399.331    11677.716    1899.5557 
  548700    297.14529   -1161.5777    6491.2209    11677.696    1874.2587 
  548800    297.78956   -1162.2468     6478.087    11677.657    1867.4916 
  548900    300.75394    -1162.121    6414.5828    11677.608     1877.301 
  549000    300.68215   -1163.7787    6417.7461     11677.58    1852.4457 
  549100    295.58529   -1166.9691    6529.8599    11677.617    1857.7607 
  549200    301.73497   -1162.3967    6393.9401    11677.648    1839.8291 
  549300    302.38593   -1159.4215    6377.0153    11677.605    1887.4548 
  549400    300.49265   -1164.5479    6422.6809    11677.697    1897.4529 
  549500    296.33274   -1153.7691    6500.7374    11677.662    1905.1207 
  549600    301.92307   -1159.8181    6387.2661    11677.571    1905.1322 
  549700      300.193   -1159.3738    6423.7955    11677.584    1888.5649 
  549800    301.62019   -1161.5426    6395.6074    11677.717    1858.3162 
  549900    298.47879   -1163.1105    6464.3724    11677.803    1901.8298 
  550000    301.92097   -1161.1189    6388.7302     11677.69    1863.5188 
  550100    302.57967    -1168.432    6381.9875    11677.706    1934.9573 
  550200     297.9176   -1168.4695    6481.7569     11677.84     1951.282 
  550300    299.15496   -1160.5256    6447.3002    11677.761    1813.9239 
  550400    301.38088   -1166.5918    6405.8187    11677.767    1898.3575 
  550500     301.6636   -1163.9445    6397.2039    11677.839    1872.5019 
  550600    300.90704   -1163.5063    6413.0112    11677.922    1860.2282 
  550700     299.6547   -1170.3783    6446.5967    11677.881    1903.8772 
  550800     300.2729   -1165.4031     6428.366    11677.833    1953.6737 
  550900    302.04443   -1165.5171    6390.7522    11677.951    1925.3489 
  551000    297.93971   -1170.2807    6483.2788    11678.023    1885.7893 
  551100    301.44654    -1166.608    6404.6294    11677.964    1902.7856 
  551200    301.26328    -1165.921    6407.8383    11677.945    1901.0379 
  551300    298.53682   -1161.9438     6462.096    11677.933    1896.0944 
  551400      299.991   -1169.7216    6438.8111    11677.937    1911.8664 
  551500    300.84701   -1166.2047    6416.9943    11677.924      1906.92 
  551600    301.89662   -1165.0251    6393.2671      11677.8    1875.9481 
  551700    301.72285   -1162.6026    6394.5921    11677.835    1955.9482 
  551800    296.75086   -1166.5047    6504.7882     11677.91    2000.2682 
  551900    299.65217    -1168.112    6444.3713    11677.868    1886.3578 
  552000    303.12896   -1162.3378    6364.1343    11677.682    1908.0026 
  552100     299.5495   -1163.2225    6441.5529    11677.746    1901.0544 
  552200    302.01171   -1160.6123    6386.3388    11677.743    1843.8833 
  552300    296.37326   -1157.6076    6503.7673     11677.72    1922.2905 
  552400    300.20863   -1162.9368    6427.1602     11677.72    1903.4526 
  552500     298.6938   -1157.4554     6454.027    11677.706    1828.6037 
  552600    299.98633   -1163.2985    6432.2833    11677.733    1858.5269 
  552700    301.54351   -1163.7188    6399.3794    11677.675    1880.7155 
  552800    296.99215   -1162.7716    6495.6772    11677.687    1798.5586 
  552900    299.68522   -1161.7695    6437.1782    11677.724    1836.4025 
  553000    300.33538   -1162.3349    6423.7972    11677.667    1975.7786 
  553100    300.72358   -1161.3974    6414.5639    11677.664    1921.4807 
  553200    299.08948    -1161.583    6449.7223    11677.727    1868.3106 
  553300    303.02084   -1160.3017    6364.5353    11677.809    1873.4781 
  553400    296.83392   -1160.2825    6496.6754    11677.794    1837.1162 
  553500    298.64242   -1163.6798    6461.4061    11677.763    1836.8054 
  553600    303.34984   -1168.6984    6365.9534    11677.859    1855.3314 
  553700    298.95791   -1162.6294     6453.674    11677.822    1896.2412 
  553800    306.14339   -1168.1264    6305.7206    11677.878    1835.5602 
  553900    299.00487   -1166.3561    6456.4808    11677.905    1924.3233 
  554000    303.17128   -1172.2207    6373.4021    11677.971    1871.5264 
  554100    299.94595   -1175.2636    6445.2473    11677.869    1843.8662 
  554200    301.05187   -1164.4528    6410.7923    11677.851    1897.2788 
  554300    300.65546   -1162.8786    6417.7431    11677.907    1941.6287 
  554400    301.31733   -1161.2499    6401.8833    11677.816    1853.1969 
  554500     299.5936    -1164.624    6442.1411    11677.875    1814.4491 
  554600    298.98194   -1162.9454    6453.5358    11677.881     1848.487 
  554700    303.40186   -1165.5405     6361.602    11677.777    1872.7001 
  554800    300.39777   -1166.5389    6426.7695    11677.768    1859.1107 
  554900    297.94061   -1170.6372    6483.3925    11677.799    1876.7634 
  555000     303.4045   -1160.7826    6356.7446    11677.734    1853.4083 
  555100      298.616   -1158.7607    6457.0026    11677.715    1910.2125 
  555200    302.85379   -1156.1545    6363.8808    11677.733    1871.0759 
  555300    298.72674    -1163.882    6459.6967    11677.653    1919.4667 
  555400    301.72092   -1156.0756    6387.8867    11677.615    1846.6035 
  555500    299.73201   -1160.5664    6434.7867    11677.535    1861.1304 
  555600    300.18718   -1159.7328    6424.2661    11677.572    1888.0169 
  555700    301.52958   -1160.1267    6395.9658    11677.556    1875.2411 
  555800    300.22059   -1154.7192    6418.6012    11677.634     1858.286 
  555900     299.3194   -1156.9943    6440.0846     11677.59    1864.3854 
  556000    296.82575   -1156.3111      6492.72    11677.636    1956.6174 
  556100    303.81929   -1157.1625     6344.212    11677.682    1876.2712 
  556200    295.92708   -1162.6673    6518.3109    11677.672    1878.6372 
  556300    302.38278   -1160.9133    6378.6366    11677.668    1835.7674 
  556400    300.69474   -1156.0428    6409.8061    11677.645    1801.6292 
  556500    300.12135   -1159.0619     6425.168    11677.738    1901.7739 
  556600    300.10671   -1162.9818    6429.4511    11677.789    1928.6551 
  556700     296.9078   -1162.3554    6497.2515    11677.876    1844.8461 
  556800    298.29399   -1168.9439    6474.2232    11677.873    1870.6959 
  556900    303.14665    -1167.616    6369.2257    11677.873     1930.468 
  557000    301.20621   -1164.1981    6407.2132    11677.824    1831.3757 
  557100    296.17557     -1165.69    6516.2432     11677.89    1820.4831 
  557200    305.12828   -1166.1557    6325.4628    11677.905    1883.3246 
  557300     299.1715   -1163.1317    6449.7291    11677.937     1924.456 
  557400    299.13475   -1166.2633    6453.5714    11677.863    1914.3386 
  557500    300.36352   -1166.6904    6427.8348     11677.95    1938.8253 
  557600    301.37371   -1170.8385    6410.4263    11677.975    1927.7347 
  557700     301.6561   -1166.5771    6400.1286    11677.971    1895.0895 
  557800    299.41584   -1161.5677    6443.0339    11678.026    1896.3365 
  557900    303.16403   -1166.7087    6368.0016    11677.927    1893.6366 
  558000    300.01805    -1164.348    6432.7939    11677.871    1850.0959 
  558100    301.08405   -1164.6937    6410.2715    11677.776    1840.5582 
  558200    300.98173   -1157.6399    6405.4382    11677.811    1931.5414 
  558300    302.65429   -1161.8147    6373.7795    11677.709    1898.9396 
  558400    301.92853    -1156.574     6384.003    11677.669    1829.3202 
  558500    299.56005   -1164.8325    6442.8743    11677.683    1897.6712 
  558600    300.49904   -1159.7049    6417.6825    11677.679    1853.3975 
  558700    298.64169   -1163.8113    6461.5499     11677.76    1878.4788 
  558800    301.05765   -1163.9354    6409.9689    11677.668    1928.7126 
  558900    297.94218   -1161.9936    6474.6024    11677.686    1906.5189 
  559000     298.9389   -1159.2166     6450.464    11677.618    1799.4641 
  559100    300.11074   -1159.1805     6425.438    11677.663    1890.7817 
  559200    300.61497   -1162.1953    6417.7571    11677.739    1894.5107 
  559300     296.0767   -1156.9132    6509.3573    11677.669    1868.3045 
  559400    304.33437   -1161.9153    6337.9258    11677.647    1860.8114 
  559500    297.99346   -1158.7319    6470.3054    11677.747    1918.6303 
  559600    299.79886   -1166.6874    6439.6729    11677.728    1757.2482 
  559700    299.01561    -1165.712    6455.5497    11677.848    1823.7512 
  559800    300.26009   -1170.0954    6433.3988      11677.9    1946.8729 
  559900    301.65166   -1166.9354    6400.4755    11677.865    1861.8194 
  560000    298.12983   -1163.4489    6472.2432    11677.881    1868.9996 
  560100    300.98699   -1168.0729    6415.7733    11677.826     1968.629 
  560200    302.41344   -1161.3022    6378.5351    11677.832    1949.4577 
  560300     304.1198   -1164.5844    6345.4498    11677.918    1856.7265 
  560400    299.89801   -1171.9882    6443.0455    11677.918    1956.1762 
  560500    299.55502   -1165.8074    6444.1504    11677.876    1865.4466 
  560600    297.28473   -1171.4632    6498.3705    11677.939    1860.0959 
  560700    302.89412   -1164.7963    6371.8263    11677.898    1876.9032 
  560800    300.52532   -1170.8576    6428.5741    11677.979    1926.8127 
  560900    299.40799   -1167.8124    6449.3129    11677.893    1855.4391 
  561000    302.80044   -1172.4239    6381.3945    11677.838    1944.5018 
  561100    299.86864   -1165.5197    6437.0964     11677.81    1990.3909 
  561200    301.96745   -1164.5633    6391.2647    11677.773    1897.9451 
  561300    296.53236    -1156.056    6498.8431    11677.746    1891.1208 
  561400    301.62937   -1158.6982    6392.5527    11677.703    1924.9803 
  561500    299.49421   -1161.5612    6441.1131    11677.786    1960.1119 
  561600    299.96115   -1156.1618    6425.6466    11677.695    1838.8971 
  561700     300.5939   -1161.4786    6417.3437    11677.593    1835.3252 
  561800    299.86167   -1165.9722    6437.5163    11677.629    1895.1413 
  561900    301.45338   -1163.6926    6401.2139     11677.61    1825.3686 
  562000    298.50429   -1162.8534     6463.325    11677.558    1892.2441 
  562100     297.9828   -1155.1832    6466.8986    11677.661    1909.9611 
  562200    296.62622   -1155.3993    6495.9943    11677.559    1932.5019 
  562300    305.84602   -1155.8765    6299.4861    11677.541    1905.9913 
  562400    299.58721   -1148.1773    6425.4984    11677.542    1951.8745 
  562500    298.76115   -1155.2243    6450.2376    11677.587    1897.7603 
  562600    302.24429   -1161.1926    6381.8294    11677.622    1891.9189 
  562700    300.44616   -1164.1519    6423.2017    11677.621    1942.2317 
  562800    299.84862   -1165.3286    6437.1531     11677.63    1853.9417 
  562900    298.46858   -1169.1705    6470.7002    11677.853    1910.3199 
  563000     298.0043   -1166.6807    6478.0946    11677.818    1968.9413 
  563100    298.23489   -1167.4042    6473.8795    11677.806    1956.1443 
  563200    299.43554   -1160.0021    6440.7738    11677.752    1982.0427 
  563300    303.59253   -1162.4422    6354.3715    11677.718    1931.7245 
  563400    299.13017   -1150.0765    6437.3613    11677.742    1928.1221 
  563500    303.35834   -1164.8775    6361.8967    11677.805    1880.2221 
  563600    300.00637   -1171.2936    6439.9679     11677.85    1888.3263 
  563700    298.26837   -1174.0363    6479.9541    11677.964    1907.0292 
  563800    301.43793   -1179.0607    6417.2024    11677.901    1850.0751 
  563900    302.35909   -1175.7263    6394.2471    11677.959    1788.2998 
  564000    299.95515   -1173.3284    6443.2597    11678.013    1817.4015 
  564100    298.89754   -1166.0205    6458.5108    11677.978    1903.4098 
  564200    302.66158   -1160.4248    6372.4599    11677.935    1954.0673 
  564300     302.0712   -1160.6178    6385.2175    11677.888    1924.1808 
  564400    299.32155   -1154.8487    6438.1439    11677.841    1971.3595 
  564500    298.87856   -1161.7725    6454.5532    11677.863    1887.6798 
  564600    299.84048   -1163.2417    6435.5094      11677.9     1855.535 
  564700    301.28798   -1163.1189    6404.3517    11677.788    1910.0957 
  564800    300.75208   -1163.3473    6416.0496    11677.809    1830.0475 
  564900    300.12307   -1166.5132     6432.583    11677.739     1814.411 
  565000    300.18803   -1165.4093    6430.0318    11677.679    1815.1595 
  565100    297.58185   -1153.7144    6473.9257    11677.591    1810.3767 
  565200    301.79352   -1158.4078    6388.6132    11677.561     1876.017 
  565300    300.22605   -1155.1814    6418.9126      11677.6    1914.7428 
  565400    300.52384   -1153.0353    6410.3511    11677.547    1899.5131 
  565500    299.64953   -1154.0654    6430.0413    11677.528    1873.9159 
  565600    298.14879   -1156.0636    6464.0665    11677.494    1846.3813 
  565700     300.8439   -1160.3528    6410.8167    11677.532    1862.1004 
  565800    299.70375   -1163.3448    6438.2541     11677.62    1839.5357 
  565900    302.27763   -1160.3924    6380.2661    11677.571    1815.2159 
  566000     299.1339   -1160.6923    6447.7354     11677.58    1863.8481 
  566100    299.82832   -1153.9288    6426.1717    11677.615    1860.4656 
  566200    299.23838   -1153.1347    6437.9965    11677.631     1868.823 
  566300    300.88483   -1161.7073     6411.428    11677.664    1892.0929 
  566400    300.72938    -1160.833    6413.8831    11677.672    1931.1344 
  566500    300.54811   -1167.2352    6424.2316    11677.746    1866.1979 
  566600    301.52403   -1161.7434    6397.8893    11677.744    1859.0529 
  566700    299.68119    -1167.682    6443.2515    11677.798     1856.889 
  566800    300.61475   -1170.3152    6426.0066    11677.864    1838.9999 
  566900    301.01158   -1171.2691    6418.4867    11677.868    1905.2169 
  567000    301.79352   -1168.4113    6398.8311    11677.775    1946.5698 
  567100    298.87035   -1163.8093    6456.7563    11677.853    1971.1907 
  567200    301.30577    -1163.552    6404.4737    11677.857     1914.104 
  567300    297.41842   -1161.1643     6485.165    11677.889    1870.6099 
  567400    304.31916   -1161.9291    6338.5108    11677.894    1899.9862 
  567500    300.94266   -1169.0506    6417.6834    11677.811    1902.6773 
  567600    298.86132    -1166.475    6459.5824    11677.821    1848.3798 
  567700    302.10606   -1169.5631    6393.2932    11677.762    1841.7227 
  567800    303.87126   -1168.7652    6354.8199    11677.798    1802.7504 
  567900    297.70581   -1165.6486    6483.2787    11677.658    1829.6076 
  568000    299.84575   -1163.3746    6435.2361    11677.606    1889.7549 
  568100     305.2063   -1159.4865     6316.814    11677.592    1853.2567 
  568200    298.31931   -1159.9284    6464.4328    11677.639    1894.7718 
  568300    301.79696   -1158.3488    6388.4899     11677.57      1906.81 
  568400    300.37625   -1154.3804    6414.8403    11677.538    1878.2775 
  568500    301.00361   -1158.8787    6405.9598    11677.561     1845.006 
  568600    299.63229   -1160.8233    6437.2051    11677.566    1808.4088 
  568700     302.7909   -1156.9418    6365.8061    11677.527    1804.5046 
  568800     302.4005   -1163.3821    6380.5678    11677.508     1850.947 
  568900    296.39059   -1155.4329    6500.9869    11677.484    1875.9134 
  569000     298.6562   -1156.8968    6454.1111    11677.546    1893.1853 
  569100    298.07392   -1155.5532    6465.2278    11677.567    1936.4675 
  569200    304.68948   -1152.2763    6320.6826     11677.63    1890.8106 
  569300     297.5193   -1155.1134    6476.6128    11677.543    1878.0408 
  569400    298.77049   -1157.7868    6452.5895    11677.576     1895.909 
  569500    301.62365   -1163.2394    6397.2202    11677.707    1913.0519 
  569600     298.0471    -1165.175    6475.5587    11677.703    1855.3106 
  569700    300.18426   -1170.0771    6434.8005    11677.699    1851.2226 
  569800    301.59413   -1165.9487    6400.6078    11677.755    1924.1805 
  569900    301.35805    -1163.442    6403.1119    11677.722    1954.8803 
  570000    299.13857   -1161.3285    6448.4807    11677.789    1927.5424 
  570100    298.80137   -1159.8852    6454.2064    11677.754    1923.6904 
  570200    300.40107   -1160.2427     6420.512    11677.877    1909.6524 
  570300     300.2746   -1163.1395      6426.05    11677.817    1907.2257 
  570400    299.96021   -1156.9355    6426.5198    11677.774    1914.8554 
  570500    296.44778   -1170.2845    6514.9348    11677.802    1871.1242 
  570600    302.11427   -1168.5929    6392.2751     11677.89    1837.5114 
  570700    300.46824   -1160.7156    6419.5756    11677.903    1910.1431 
  570800    301.24516   -1161.2348    6403.3119    11677.718    1841.5214 
  570900    298.59585   -1163.6879    6462.4399    11677.794    1894.9441 
  571000    298.50535   -1161.1113    6461.7267    11677.724    1875.4564 
  571100    299.31833   -1157.3663    6440.5853    11677.696    1900.0933 
  571200    300.20534   -1156.4567    6420.6492    11677.619    1878.8526 
  571300    297.63403   -1158.6325    6477.7768    11677.639    1894.0108 
  571400    306.13515   -1156.0292    6293.5266    11677.605    1870.1268 
  571500    297.94293   -1154.2879    6466.7399    11677.546    1844.3624 
  571600    297.13244   -1153.6038    6483.3547     11677.53     1849.965 
  571700     302.4762   -1157.5581    6373.2089    11677.591    1894.1648 
  571800      301.109   -1156.5555    6401.3716    11677.548    1837.1984 
  571900    298.44792   -1155.2232    6456.8425    11677.501    1859.7693 
  572000      297.774   -1156.8608    6472.9473    11677.571    1813.9964 
  572100    299.47518   -1153.9971    6433.6515    11677.482    1854.0716 
  572200    299.37127   -1156.5307    6438.3986    11677.476      1858.51 
  572300    304.67542   -1154.0583    6322.6181    11677.483      1814.79 
  572400     301.2351   -1160.0106    6402.1747     11677.59    1848.6302 
  572500    300.58277   -1154.2077    6410.2832    11677.565    1787.6595 
  572600    298.82244   -1154.6632     6448.404    11677.624    1897.3302 
  572700    300.47245   -1160.0898    6418.5905    11677.634    1977.1789 
  572800    302.27218   -1163.0061     6383.118    11677.693     1882.763 
  572900    299.51984   -1165.9161    6444.7904    11677.656    1893.9957 
  573000    300.34028   -1166.0538    6427.3834    11677.639    1896.8854 
  573100    302.01761   -1161.2669    6386.8356    11677.712    1866.8328 
  573200    296.82617   -1153.1995    6489.6589    11677.695    1847.4813 
  573300    302.63346   -1160.6541    6373.0558    11677.701     1900.484 
  573400    301.54148   -1164.0684    6399.7952    11677.698    1885.5112 
  573500    298.82575   -1165.8395    6459.5936    11677.708    1856.7923 
  573600    302.86365   -1162.4701    6370.0677    11677.815    1953.8568 
  573700     299.2655   -1160.8006    6445.1264    11677.674    1885.6626 
  573800    303.31313   -1167.3202    6365.1096    11677.609    1838.1557 
  573900    298.65763   -1164.3701    6461.6687    11677.661    1847.0048 
  574000    298.80886   -1157.4982    6451.4565    11677.551    1843.6723 
  574100    300.07982   -1153.8108    6420.5514    11677.485    1791.8782 
  574200    301.22556   -1155.1874    6397.5376    11677.572    1935.4143 
  574300    301.39194   -1160.3201    6399.0231    11677.479     1881.195 
  574400    295.99092   -1161.9833    6516.0232    11677.432    1873.2567 
  574500    298.51599   -1160.3281     6460.477    11677.485     1909.947 
  574600    305.08489   -1156.1453    6315.8902    11677.415     1775.463 
  574700    296.78717   -1151.3989    6488.3987    11677.402    1762.8169 
  574800     301.4055   -1153.4268    6391.7241    11677.363    1780.8755 
  574900    299.73446   -1155.8792    6429.8586    11677.346     1828.038 
  575000    300.34135   -1153.5983    6414.6716    11677.405    1785.4426 
  575100    298.12616   -1153.4768     6461.914    11677.445    1893.2302 
  575200    299.70319   -1154.0884    6428.8164    11677.427    1869.6604 
  575300    301.20311   -1151.6019    6394.2788    11677.419    1798.8202 
  575400    303.33397   -1160.2088    6357.4125    11677.468    1860.7252 
  575500    299.22987   -1160.8616    6445.8556    11677.581    1942.5173 
  575600    301.64259    -1157.898    6391.3552    11677.588    1804.6247 
  575700    302.94032   -1161.1883     6367.013     11677.68    1833.3196 
  575800     298.7829   -1164.4115    6459.1381    11677.765    1916.1471 
  575900    301.08741   -1165.8023    6411.3789    11677.847    1816.3997 
  576000     300.1378   -1162.6496    6428.4654    11677.799    1808.0028 
  576100    300.16309   -1165.5256    6430.9148    11677.913    1919.7896 
  576200    300.55819    -1153.839     6410.883    11678.009    1854.8249 
  576300    302.14513     -1167.56    6390.6384    11677.946    1843.4942 
  576400    300.96835   -1166.2607    6414.5192    11677.986     1845.224 
  576500     297.7052   -1172.7524    6490.8445    11678.107    1868.2419 
  576600    302.29045   -1171.2787    6391.3327    11678.026    1883.0641 
  576700    299.39969   -1172.0582    6453.8295    11677.986    1810.2795 
  576800    298.91163   -1170.8024    6463.0281    11678.014    1838.2875 
  576900    300.79948   -1172.0114    6423.7875    11677.895    1873.0403 
  577000    303.23014   -1162.7139    6362.5528    11677.886    1928.6809 
  577100    299.48732   -1164.5127    6444.3539    11677.928    1915.8397 
  577200    303.13379   -1163.8624    6365.8087    11677.935    1859.0338 
  577300     299.3717   -1163.0913    6445.2765    11677.802    1914.6744 
  577400    300.98309   -1168.2275    6415.9474    11677.762    1884.7607 
  577500    297.64388   -1163.1824    6482.1942    11677.717    1854.2845 
  577600    300.62006   -1159.3173    6414.6935    11677.662     1829.001 
  577700    301.49125    -1161.291    6398.0453    11677.652    1866.7805 
  577800    299.31554   -1156.1852    6439.2787    11677.511    1825.8445 
  577900    300.95222   -1151.7776     6399.861    11677.466    1850.1813 
  578000    301.33414   -1158.1294    6398.0319    11677.444    1873.2748 
  578100    297.77533   -1157.3816    6473.3239    11677.455    1870.6912 
  578200    301.81491   -1150.8866     6380.498    11677.424    1808.5623 
  578300    302.90229   -1151.7483    6358.1345    11677.429    1855.9345 
  578400    300.92362   -1156.6091     6405.353    11677.515    1819.3858 
  578500    298.04626   -1162.5511    6472.7694    11677.519    1842.9114 
  578600    301.80074   -1159.2412    6389.2233    11677.492    1841.1961 
  578700    298.88601   -1157.0404    6449.3099     11677.51     1895.943 
  578800    300.81792   -1156.7846    6407.9285    11677.657    1903.9856 
  578900    298.40158    -1161.402     6464.078    11677.568     1905.572 
  579000     296.8508   -1165.2901    6501.1126    11677.584    1950.5858 
  579100    304.25944   -1162.5212    6340.0797    11677.595    1897.5758 
  579200    297.29616   -1161.6252    6488.1431    11677.794    1951.4492 
  579300    300.75112   -1161.6354    6414.3447    11677.796    1964.7007 
  579400    303.57175   -1163.1005    6355.5131    11677.757    1898.3118 
  579500    302.93526   -1166.9097    6373.1041    11677.942    1875.7086 
  579600    300.28346   -1168.1241    6430.9367    11677.908     1843.887 
  579700    299.50783   -1168.2605    6447.6132    11677.878    1799.4831 
  579800    303.30138   -1169.4094    6367.6903     11677.85    1839.3525 
  579900    300.35404   -1168.3687    6429.7358     11677.97    1949.5319 
  580000    300.88417   -1165.8863    6415.8919    11677.934    1906.7698 
  580100    299.13834   -1163.9337     6451.159    11677.857    1908.1788 
  580200    301.97512   -1169.2764    6395.9065    11677.865     1933.122 
  580300    299.69694    -1169.265    6444.5388    11677.839    1900.6782 
  580400    300.68662    -1167.359    6421.5236    11677.873    1884.0931 
  580500    301.04527   -1161.8667    6408.3395    11677.843    1877.5469 
  580600    301.40767   -1163.2904    6402.0156    11677.838    1858.8628 
  580700    300.07074   -1163.1433    6430.3756    11677.783     1864.991 
  580800     299.3977   -1167.4999    6449.1551    11677.828    1924.4309 
  580900    302.05374   -1162.1282    6386.9105    11677.697    1896.0387 
  581000    298.92421   -1156.7986    6448.3554    11677.614    1921.1106 
  581100     301.3498   -1153.9637    6393.7036    11677.616    1942.8293 
  581200    299.33794   -1154.1149    6436.8378    11677.619    1931.8188 
  581300    300.65922   -1157.0306    6411.4533    11677.546    1882.2435 
  581400    301.36976   -1151.2131    6390.4121    11677.501    1893.3703 
  581500    302.05764   -1159.3427    6383.9098    11677.565    1859.8595 
  581600    294.24347   -1160.2772    6551.8405    11677.624    1908.3682 
  581700    301.24836   -1165.0913    6407.0248    11677.642    1908.3733 
  581800    302.69045   -1161.7352    6372.7661    11677.548    1880.0354 
  581900    299.41892   -1159.9429    6440.8965     11677.58    1815.3526 
  582000    298.56748   -1161.6934    6460.8386    11677.581    1869.1716 
  582100    300.35062   -1153.6711    6414.7188    11677.578    1946.1464 
  582200    300.41101   -1153.0264    6412.7549    11677.549    1894.8275 
  582300    300.53962   -1154.4523    6411.4296    11677.545     1849.325 
  582400     298.7424   -1157.9011    6453.4438    11677.716    1923.9068 
  582500    300.26982   -1171.1211    6433.9851    11677.668    1865.2732 
  582600    299.08766    -1167.153    6455.2704    11677.666    1879.8891 
  582700    301.10345   -1172.0901    6417.2467     11677.77    1890.5804 
  582800    300.99636   -1168.7942    6416.3039    11677.835    1897.3184 
  582900    297.81778   -1166.6037     6481.991    11677.807    1887.8433 
  583000    300.42141   -1163.6144    6423.4172    11677.845    1892.5342 
  583100    300.14782   -1165.6588    6431.3047    11677.843    1928.6362 
  583200    301.53097   -1165.9492     6401.984    11677.781    1888.6304 
  583300     300.6385   -1164.0212     6419.155    11677.814    1956.0603 
  583400    299.01289   -1168.7647    6458.6879    11677.875    1971.9912 
  583500    299.59775   -1171.4598     6448.929    11677.916    1881.6579 
  583600    300.63299   -1164.2367    6419.5457    11677.872    1815.6916 
  583700    300.26152   -1164.5602    6427.8317    11677.898    1914.9138 
  583800    301.28899   -1169.6352    6410.8851    11677.827    1879.9774 
  583900    300.90091   -1165.1408    6414.6934    11677.839    1863.3914 
  584000    298.99145   -1160.6353    6450.9292    11677.787    1901.6947 
  584100    299.22578   -1158.2226    6443.4038    11677.681    1886.4435 
  584200    302.04028   -1151.2761    6376.2768    11677.628    1894.8121 
  584300    303.99366   -1158.3161    6341.6492    11677.691    1852.8126 
  584400    295.27608   -1163.4895    6533.1027    11677.734    1806.3569 
  584500    296.55859   -1160.1898    6502.3483    11677.678    1788.7049 
  584600     302.0068   -1166.8315    6392.6667    11677.747    1839.4292 
  584700    300.52033   -1165.4821    6423.0814    11677.755       1886.4 
  584800    295.26862   -1160.0546    6529.7495    11677.656    1916.3969 
  584900    303.00935   -1158.4438    6362.7162    11677.602    1809.1776 
  585000    296.94438   -1155.7837    6489.6859    11677.663    1962.9944 
  585100    298.53112   -1156.6923    6456.7179    11677.685     1972.591 
  585200    302.27264   -1156.9586    6376.9283    11677.561    1875.1479 
  585300    300.80838   -1157.5621       6408.9    11677.647    1887.4905 
  585400    303.50249   -1160.1416    6354.0682    11677.791    1866.2751 
  585500    299.81116   -1159.5264    6432.2773    11677.756    1827.8422 
  585600    297.40467    -1164.101    6488.1582    11677.652    1868.1694 
  585700    302.12796   -1162.5471    6385.8312    11677.785    1897.6628 
  585800    298.88834   -1160.0472    6452.4375    11677.681    1898.0278 
  585900    298.76505   -1162.8581    6457.9476    11677.746    1891.5322 
  586000    299.17421   -1160.0689    6446.4424    11677.771    1915.6945 
  586100    300.19055   -1163.8287    6428.4095    11677.691    1889.1465 
  586200    302.12943   -1159.5782    6382.7429    11677.696    1862.9491 
  586300    301.03702   -1162.7139     6409.316    11677.796    1869.3306 
  586400    298.77529   -1158.7407    6453.6053     11677.74    1875.6692 
  586500     299.8722   -1158.7192    6430.1663    11677.757    1920.0874 
  586600    301.76406   -1169.0706    6400.1315    11677.787    1912.0172 
  586700     298.3502   -1166.0808    6470.0855    11677.799    1933.3326 
  586800    303.08287   -1165.1737     6367.987    11677.714    1867.2261 
  586900    300.30352   -1159.7852    6422.0864    11677.825    1878.8926 
  587000    297.79886   -1159.5549    6475.4232    11677.884    1861.9732 
  587100     302.9344   -1161.0931    6367.1681    11677.804    1922.0823 
  587200    301.90865   -1160.0352    6387.9442    11677.724    1918.5074 
  587300    299.42725   -1162.9702    6443.9578    11677.791    1926.2172 
  587400    300.25859   -1164.3854     6427.558    11677.737    1869.2493 
  587500    299.55524   -1162.0714    6440.2734     11677.74    1865.5922 
  587600    300.60297   -1159.2574    6414.9816    11677.645    1890.0816 
  587700     303.6314   -1160.1397    6351.2101    11677.689    1869.9236 
  587800    300.63146   -1160.2518      6415.41    11677.688    1843.0201 
  587900    299.10722   -1156.9338    6444.6312    11677.664    1870.7471 
  588000    300.30483   -1163.4016    6425.4987    11677.649    1883.7032 
  588100    297.41832   -1164.4613    6488.2005    11677.625    1819.6915 
  588200    299.55959   -1163.5197     6441.653    11677.764    1829.3063 
  588300    299.80651   -1165.7037    6438.4396    11677.642    1839.6381 
  588400    301.72736   -1164.9563    6396.6861    11677.672    1816.2456 
  588500    298.06854    -1159.763    6469.6772    11677.691    1814.2987 
  588600    301.79272   -1167.5324    6397.8983    11677.704    1804.4978 
  588700    301.44506    -1166.778    6404.5166     11677.65     1855.498 
  588800    297.90154     -1165.76    6479.1933    11677.643    1865.7598 
  588900    301.59664   -1164.7113    6399.2893    11677.727    1890.2148 
  589000    303.61945   -1166.8792    6358.2204    11677.705    1890.0492 
  589100     295.5744   -1155.9795    6519.1941    11677.708    1878.3249 
  589200    304.72705   -1165.5498    6333.2059    11677.682    1860.4642 
  589300     299.6651   -1166.1292    6441.9797    11677.735    1931.6152 
  589400    297.75646   -1159.2604    6475.8545    11677.704    1904.0316 
  589500    303.21309   -1164.4292    6364.4792    11677.733    1857.7582 
  589600    299.48228   -1163.8354    6443.6879    11677.832     1914.292 
  589700    298.84487   -1165.8875    6459.3123    11677.787    1933.4502 
  589800    299.36148    -1161.799    6444.1437    11677.743     1888.796 
  589900    297.51546   -1162.4976    6484.2122    11677.676     1870.909 
  590000    299.04322    -1163.012    6452.1485    11677.736    1859.0184 
  590100    299.32828   -1160.5053    6443.5488    11677.733    1901.5805 
  590200    300.04045   -1162.8431    6430.6446    11677.705    1926.5327 
  590300    298.91707   -1160.8793    6452.6497    11677.675    1926.0481 
  590400    300.10385    -1159.807    6426.2181    11677.669    1890.7912 
  590500    302.77778   -1163.1977    6372.4626    11677.648    1884.5276 
  590600    296.01131   -1166.2346    6520.0485    11677.641    1928.4867 
  590700    301.97929   -1159.4301    6385.8367    11677.731    1881.0935 
  590800    301.17054   -1159.2375    6402.9291    11677.738     1826.732 
  590900    301.70803   -1157.6462    6389.8762    11677.759    1848.2024 
  591000    297.72182   -1162.7192    6480.0905    11677.741    1856.2269 
  591100    301.71906   -1161.4044    6393.3549    11677.715    1836.3571 
  591200    302.11815   -1166.5015    6389.9948    11677.784    1843.4877 
  591300    298.56876   -1158.5894    6457.9102    11677.784    1868.5061 
  591400    301.40559   -1157.8503    6396.5347    11677.752    1880.3824 
  591500     301.0369   -1159.8892     6406.395    11677.697    1858.9496 
  591600    296.56371   -1159.5031    6501.6269    11677.752    1931.8249 
  591700    301.91068   -1156.8624      6384.73    11677.726    1950.3077 
  591800    302.05431   -1162.2202     6387.022    11677.729    1885.7153 
  591900    296.57186   -1165.9482    6507.9682    11677.823    1938.4311 
  592000    304.76231   -1160.2276    6327.2495    11677.801    1842.4127 
  592100    297.10247   -1160.1555    6490.8455    11677.828    1868.3321 
  592200    299.01143   -1161.1904    6451.0273    11677.757    1867.2818 
  592300    298.16911    -1160.518    6468.4098    11677.817    1905.4319 
  592400    300.81776   -1166.9773    6418.1799    11677.712    1884.2226 
  592500    302.14237   -1163.3281    6386.1759    11677.656    1889.1729 
  592600    300.74175   -1166.4843    6419.2897    11677.691    1923.2544 
  592700    298.10652   -1161.4816    6470.5986    11677.705      1885.23 
  592800    302.20234   -1153.7451    6375.2783    11677.622     1900.087 
  592900    298.59575   -1166.5823    6465.2198    11677.678    1909.8643 
  593000    299.46532   -1163.6001    6443.6833      11677.7    1910.6553 
  593100    296.69444   -1160.7123    6500.0524    11677.761    1911.8469 
  593200    300.78553   -1158.5738    6410.4711    11677.719    1913.8211 
  593300    299.59061     -1159.12    6436.5361     11677.71    1969.0576 
  593400     301.1126   -1160.2522    6405.1793    11677.736    1906.9762 
  593500    302.19104   -1160.3698    6382.1988    11677.677      1938.99 
  593600    301.83871   -1159.4064    6388.8088    11677.723    1876.1372 
  593700    298.83693    -1152.237    6445.7866    11677.742    1875.8884 
  593800      297.593   -1160.8931    6481.0631    11677.788    1943.9462 
  593900    301.19787   -1162.4355    6405.5338    11677.729    1894.2349 
  594000     299.5808    -1163.454    6441.1326    11677.763    1896.6203 
  594100    298.08336   -1164.4721    6474.1546    11677.776    1848.3878 
  594200    301.67306   -1164.6055     6397.538    11677.715    1854.6097 
  594300    297.94855   -1165.2279    6477.7096    11677.695    1910.2364 
  594400    299.29559   -1157.8439    6441.6065    11677.754    1857.9706 
  594500    300.64722   -1166.2251    6421.1024    11677.744    1875.0791 
  594600    298.19682   -1159.9118    6467.1038     11677.71    1903.8376 
  594700    302.94536   -1159.5312    6365.3975    11677.829    1870.1969 
  594800    299.10998   -1163.3914    6451.1745    11677.809    1839.2101 
  594900    302.16116   -1167.0064    6389.6151    11677.818    1857.6217 
  595000      298.905   -1166.5105    6458.7373    11677.873    1875.8777 
  595100    302.62716    -1169.423    6382.1155    11677.857    1875.1619 
  595200    296.73398   -1161.9506    6500.5408    11677.856    1947.9149 
  595300    301.80353   -1160.2604    6390.4455    11677.754    1858.7702 
  595400    300.96818   -1159.2831    6407.2766    11677.717    1859.2443 
  595500    301.10183   -1160.4412     6405.641    11677.778    1906.8797 
  595600    300.31356   -1164.8144    6426.7564     11677.68    1880.0269 
  595700    304.42952    -1164.662    6338.7395    11677.747    1895.8731 
  595800    299.99244   -1164.7471    6433.6332    11677.764    1938.3669 
  595900    300.55634   -1167.7551    6424.5611    11677.731     1910.171 
  596000    300.68892   -1169.4787    6423.4307    11677.709    1832.7251 
  596100    299.33821   -1164.2108    6446.9832    11677.674    1887.7435 
  596200     302.8599   -1162.5599    6370.0866    11677.664    1943.6766 
  596300    299.58148   -1163.5321    6441.0489    11677.615    1870.5458 
  596400    298.82425   -1158.5355    6452.2072    11677.593    1856.7098 
  596500    298.67787   -1164.1616    6461.0575     11677.69    1869.3689 
  596600    303.03463   -1159.8486    6363.6096    11677.631     1883.717 
  596700    300.78313   -1163.8333    6415.6436     11677.58    1817.9289 
  596800    297.70056   -1166.8034    6484.5444    11677.657    1877.2436 
  596900    299.42875   -1163.2276    6444.1376    11677.746    1878.5126 
  597000     302.7156   -1160.5307    6371.0891    11677.613    1873.9339 
  597100    298.44795   -1154.8642    6456.6167    11677.635    1885.5041 
  597200    296.42005   -1159.3566    6504.4951    11677.698    1854.5204 
  597300    303.31322   -1162.8036    6360.6861    11677.704    1812.5781 
  597400    300.20786   -1159.7788    6424.0061    11677.708    1919.5957 
  597500        301.3   -1162.8915    6403.8105    11677.731    1883.6759 
  597600    298.31224   -1170.7386    6475.5075    11677.752    1828.4658 
  597700     298.2622   -1171.6471    6477.5145    11677.782    1907.1036 
  597800    298.87936   -1168.4528    6461.1488    11677.795    1877.2969 
  597900    299.20727   -1168.6347    6454.3654    11677.835    1868.6776 
  598000    301.32167   -1162.4389    6402.9747    11677.811    1845.6115 
  598100    298.29448   -1164.5966    6469.8028     11677.81    1867.1186 
  598200    303.38115   -1158.1291    6354.6308    11677.775    1856.5611 
  598300    302.90604   -1159.0318    6365.6884    11677.779    1896.8364 
  598400    299.19618   -1166.0188    6451.9897    11677.838    1893.9087 
  598500    300.33695   -1166.6052    6428.1146    11677.748    1835.8791 
  598600    300.03172   -1168.5118    6436.6203    11677.826    1858.3716 
  598700    300.31915   -1168.0164    6429.9282     11677.77    1896.3537 
  598800    299.23609    -1166.646    6451.6801    11677.754    1899.5253 
  598900    303.96879   -1166.5639    6350.3635    11677.626    1893.9766 
  599000    300.94028   -1161.1417    6409.7511    11677.737    1927.1908 
  599100    297.78357   -1161.9931    6478.0597    11677.756    1858.4556 
  599200    300.97937   -1161.3553    6409.1054    11677.713    1830.6858 
  599300    300.44132   -1156.8023    6416.0428    11677.708    1925.5223 
  599400    301.77254   -1160.6945    6391.4738    11677.687    1907.5296 
  599500    298.16654   -1156.5922     6464.351     11677.63    1882.0713 
  599600    297.40527   -1158.2104    6482.2275    11677.624    1868.8628 
  599700     299.0462   -1156.5488     6445.463    11677.577    1869.5935 
  599800    300.79342   -1159.3755    6410.9282    11677.543    1857.1536 
  599900    301.05098   -1155.8303    6401.9067    11677.569    1871.6314 
  600000    300.51876   -1153.5894    6410.9852    11677.518    1876.2215 
Loop time of 279.767 on 8 procs for 300000 steps with 7168 atoms

Pair  time (%) = 138.089 (49.3585)
Bond  time (%) = 81.0348 (28.9651)
Neigh time (%) = 19.5536 (6.98925)
Comm  time (%) = 30.9126 (11.0494)
Outpt time (%) = 0.485656 (0.173593)
Other time (%) = 9.6916 (3.46417)

Nlocal:    896 ave 907 max 884 min
Histogram: 1 0 0 0 4 1 0 1 0 1
Nghost:    2852.25 ave 2860 max 2835 min
Histogram: 1 0 0 1 0 1 0 0 2 3
Neighs:    23572.5 ave 24234 max 23171 min
Histogram: 1 1 3 0 0 2 0 0 0 1

Total # of neighbors = 188580
Ave neighs/atom = 26.3086
Ave special neighs/atom = 157.056
Neighbor list builds = 3045
Dangerous builds = 0
# −−−−−−−−−−−−−− Flux calculation in nve −−−−−−−−−−−−−−−
reset_timestep  0
compute         PE all pe/atom
compute         KE all ke/atom

variable        CX atom (vx*(c_KE+c_PE))
compute         Jcx all reduce sum v_CX

variable        CZ atom (vz*(c_KE+c_PE))
compute         Jcz all reduce sum v_CZ

variable        CY atom (vy*(c_KE+c_PE))
compute         Jcy all reduce sum v_CY

compute         SA all stress/atom virial

variable        VX atom -(c_SA[1]*vx+c_SA[4]*vy+c_SA[5]*vz)*1.4593e-5
compute         Jvx all reduce sum v_VX

variable        VZ atom -(c_SA[3]*vz+c_SA[6]*vy+c_SA[5]*vx)*1.4593e-5
compute         Jvz all reduce sum v_VZ

variable        VY atom -(c_SA[2]*vy+c_SA[6]*vz+c_SA[4]*vx)*1.4593e-5
compute         Jvy all reduce sum v_VY

variable        Jx equal (c_Jcx+c_Jvx)/vol
variable        Jz equal (c_Jcz+c_Jvz)/vol
variable        Jy equal (c_Jcy+c_Jvy)/vol

fix             JJTx all ave/correlate $s $p $d                 v_Jx type auto file J0Jt_tx.dat ave running
fix             JJTx all ave/correlate 5 $p $d                 v_Jx type auto file J0Jt_tx.dat ave running
fix             JJTx all ave/correlate 5 20000 $d                 v_Jx type auto file J0Jt_tx.dat ave running
fix             JJTx all ave/correlate 5 20000 100000                 v_Jx type auto file J0Jt_tx.dat ave running

fix             JJTz all ave/correlate $s $p $d                 v_Jz type auto file J0Jt_tz.dat ave running
fix             JJTz all ave/correlate 5 $p $d                 v_Jz type auto file J0Jt_tz.dat ave running
fix             JJTz all ave/correlate 5 20000 $d                 v_Jz type auto file J0Jt_tz.dat ave running
fix             JJTz all ave/correlate 5 20000 100000                 v_Jz type auto file J0Jt_tz.dat ave running

fix             JJTy all ave/correlate $s $p $d                 v_Jy type auto file J0Jt_ty.dat ave running
fix             JJTy all ave/correlate 5 $p $d                 v_Jy type auto file J0Jt_ty.dat ave running
fix             JJTy all ave/correlate 5 20000 $d                 v_Jy type auto file J0Jt_ty.dat ave running
fix             JJTy all ave/correlate 5 20000 100000                 v_Jy type auto file J0Jt_ty.dat ave running

run             1000000
Memory usage per processor = 13.8919 Mbytes
Step Temp E_pair E_mol TotEng Press 
       0    300.51876   -1153.5894    6410.9852    11677.518    1876.2215 
     100    299.04921   -1160.0632     6448.738    11677.402    1862.8898 
     200    295.52658   -1154.4285    6518.4496    11677.493    1858.8172 
     300    301.48511   -1159.8809    6396.6647    11677.551     1904.782 
     400    303.81292   -1159.1613    6346.2411    11677.577    1854.8541 
     500    299.35585   -1165.4636    6447.7317    11677.546    1852.6973 
     600    300.13929   -1162.4612     6428.084    11677.638    1858.0553 
     700    302.16426   -1162.3019    6384.6683    11677.642    1800.5648 
     800    298.27772   -1160.2191     6465.679    11677.706    1808.9893 
     900    304.35531   -1153.6826    6329.3362    11677.738    1873.4125 
    1000    300.47988   -1157.9234    6416.3167    11677.685    1930.6598 
    1100    298.99587   -1161.3724    6451.5658    11677.781    1841.8484 
    1200    300.49869    -1161.476    6419.5712    11677.789    1858.2732 
    1300    300.95581   -1168.3402    6416.7569    11677.876    1891.0112 
    1400    303.57233   -1167.4052    6359.8798    11677.832     1900.346 
    1500    297.64636   -1166.7742    6485.8726    11677.856    1899.7068 
    1600    298.26872   -1162.2499    6468.0317    11677.835    1868.7023 
    1700    304.33907   -1171.5505    6347.6026    11677.789    1841.9294 
    1800    297.15192   -1160.7527    6490.4421    11677.884    1896.6058 
    1900    302.80353   -1169.3043     6378.188    11677.816     1861.263 
    2000    298.91654   -1166.8063    6458.7549    11677.842    1891.0532 
    2100    299.03035   -1164.1313    6453.6092    11677.802    1890.1091 
    2200    302.00406   -1168.5123    6394.4557    11677.797    1940.7227 
    2300    300.63256   -1164.4633    6419.6165    11677.707    1901.9529 
    2400    299.71647   -1164.2872    6439.0239    11677.719    1912.0259 
    2500    299.95554   -1163.8828    6433.4679    11677.675     1905.526 
    2600    299.10681    -1167.564    6455.2039    11677.598    1859.2603 
    2700    299.72452   -1163.9419    6438.4105    11677.623     1837.669 
    2800    302.31222   -1168.3505    6387.4955    11677.582     1855.454 
    2900    298.83376   -1163.0238    6456.4688     11677.57    1895.0033 
    3000    297.36418   -1159.1132    6483.9496    11677.566    1855.2908 
    3100    299.68081   -1161.0914    6436.3776    11677.507    1876.5251 
    3200     300.8714   -1157.2759    6407.1018    11677.482    1906.8099 
    3300     301.2641   -1157.0602    6398.5559    11677.541    1882.2683 
    3400    300.06608   -1155.9134    6423.0037    11677.542    1879.2079 
    3500    301.74861   -1163.8443    6395.0264    11677.578    1916.4045 
    3600    298.68946   -1159.2699    6455.7947    11677.567    1892.8229 
    3700    300.96606   -1160.4933    6408.3939    11677.579    1905.6722 
    3800    298.83692   -1160.2311    6453.6474    11677.608    1887.9036 
    3900    298.46937   -1156.9712    6458.2671    11677.636    1920.8872 
    4000     301.1531   -1164.5829    6408.5266    11677.618    1831.5559 
    4100    301.15448   -1158.4908    6402.4975     11677.71    1866.1383 
    4200    304.59176   -1161.5845    6332.1195     11677.67     1892.711 
    4300    298.53274   -1160.6326    6460.6169    11677.678    1922.9964 
    4400    301.93215   -1157.0309    6384.4536     11677.74    1893.1056 
    4500    299.42763   -1167.6764    6448.5896    11677.725    1879.7096 
    4600    297.57072   -1166.1075    6486.7069    11677.741    1880.2843 
    4700    303.57132   -1161.9258    6354.3512    11677.761    1880.6575 
    4800    299.98483   -1163.2072    6432.3551    11677.864    1898.3749 
    4900    299.26491   -1169.7847    6454.2542    11677.805    1907.0904 
    5000    301.33617   -1166.9748    6407.2101     11677.82    1875.4902 
    5100    300.84611   -1164.4603    6415.2268    11677.882    1863.8068 
    5200    301.26993   -1165.5889    6407.1843    11677.765     1886.945 
    5300    300.68121   -1163.4635    6417.7023    11677.831    1904.4184 
    5400     300.8171   -1166.5693    6417.9062    11677.833    1908.1437 
    5500    297.13235   -1161.9962    6492.0953    11677.876    1906.4757 
    5600    300.54208   -1172.2126    6429.5087    11677.917    1844.5862 
    5700    303.07109   -1173.3134     6376.553    11677.888    1800.1208 
    5800    299.66325   -1165.4443     6441.404    11677.805    1809.8445 
    5900    297.58188   -1163.4121    6483.8148    11677.783     1836.859 
    6000    300.44445     -1160.94      6420.15    11677.745    1803.8379 
    6100     303.5445   -1161.8016    6354.7517    11677.713    1920.0915 
    6200    299.79674   -1161.0727    6434.0801    11677.705    1922.3558 
    6300    298.15326   -1162.3264    6470.4054    11677.666    1875.7121 
    6400    299.43028   -1164.4787    6445.3045    11677.694    1919.0606 
    6500    299.53253   -1159.5375    6438.1591    11677.675    1893.3683 
    6600    301.71201   -1164.7972    6396.8059    11677.623    1834.4308 
    6700    301.80452   -1162.2626    6392.3845    11677.713    1852.1999 
    6800    297.61788   -1166.8191    6486.2746    11677.605    1809.9486 
    6900    299.96781   -1160.8982    6430.1464      11677.6    1825.3533 
    7000    301.40044   -1157.4085    6395.8435    11677.393    1800.9727 
    7100    300.20328   -1163.2898    6427.4445    11677.537    1893.5057 
    7200    304.13359   -1157.1445    6337.4006    11677.604    1883.8279 
    7300    295.31467   -1154.2401    6522.8544    11677.559    1846.4083 
    7400    300.47895    -1158.918    6417.2024    11677.556    1833.6733 
    7500    300.22496   -1159.6605     6423.466    11677.651    1902.0377 
    7600    304.74712   -1166.3775    6333.5389    11677.616    1778.8741 
    7700    295.62534   -1161.6996    6523.7536    11677.636    1857.1237 
    7800    298.38287   -1165.5555    6468.7448    11677.681    1889.2314 
    7900    302.81373   -1161.5192    6370.0753    11677.707     1926.104 
    8000    298.27541   -1155.7006    6461.2177    11677.714    1928.9434 
    8100    294.78507   -1161.5094     6541.649     11677.77    1964.6333 
    8200    302.69872   -1162.3317    6373.4154    11677.777    1875.0733 
    8300    298.71719   -1168.1585    6464.3287    11677.805    1889.8551 
    8400    301.34775   -1165.6362     6405.553    11677.749    1908.1111 
    8500    298.75782   -1164.0456    6459.4092    11677.866    1932.0856 
    8600    300.77449   -1168.6008     6420.847    11677.832    1849.3884 
    8700    300.98084   -1166.8789    6414.7946     11677.91    1918.0887 
    8800    297.84695   -1164.8959    6479.6709    11677.818    1856.3898 
    8900    300.19288   -1161.2842    6425.9707    11677.847    1876.9504 
    9000    301.16765   -1166.9521    6410.8185    11677.851    1915.6584 
    9100    299.83658   -1166.9443    6439.2718    11677.876    1938.3731 
    9200    300.01404   -1161.0778    6429.5679     11677.83    1938.9299 
    9300     302.0478   -1164.7613    6389.8898    11677.916    1906.5933 
    9400    300.69777    -1166.582     6420.577    11677.941    1918.9165 
    9500    300.31878   -1167.3758    6429.3935    11677.868    1811.4617 
    9600     297.4013   -1159.6483    6483.8551    11677.729    1856.1322 
    9700    303.90022   -1163.7441    6349.1732    11677.791     1875.843 
    9800    298.81377   -1158.9709    6452.9647    11677.692    1950.0021 
    9900     298.4789    -1157.622    6458.7759    11677.698    1920.5506 
   10000    301.86213   -1153.2433    6382.1144    11677.692    1972.6249 
Loop time of 1424.33 on 8 procs for 1000000 steps with 7168 atoms

Pair  time (%) = 567.581 (39.8489)
Bond  time (%) = 297.794 (20.9076)
Neigh time (%) = 65.4399 (4.59444)
Comm  time (%) = 119.724 (8.40564)
Outpt time (%) = 0.00334769 (0.000235036)
Other time (%) = 373.789 (26.2431)

Nlocal:    896 ave 901 max 888 min
Histogram: 1 0 0 1 1 0 2 0 2 1
Nghost:    2844.38 ave 2853 max 2838 min
Histogram: 2 0 1 1 1 0 2 0 0 1
Neighs:    23620 ave 23955 max 23253 min
Histogram: 2 1 0 0 1 0 1 0 1 2

Total # of neighbors = 188960
Ave neighs/atom = 26.3616
Ave special neighs/atom = 157.056
Neighbor list builds = 10165
Dangerous builds = 0
