LAMMPS (11 Jun 2012)
# Initialization
atom_style      full
units           real
variable        T equal 300
variable        dt equal 1.0
variable        seed equal 123461
variable        radius equal 0.5
variable        sizet equal 4
variable        sizeb equal -4
variable        p equal 20000    # correlation length
variable        s equal 5        # sample interval
variable        d equal $p*$s    # dump interval
variable        d equal 20000*$s    variable        d equal 20000*5    
# convert from LAMMPS real units to SI
variable        kB equal 1.3806504e-23    # [J/K] Boltzmann
variable        kCal2J equal 4186.0/6.02214e23
variable        A2m equal 1.0e-10
variable        fs2s equal 1.0e-15
variable        convert equal ${kCal2J}*${kCal2J}/${fs2s}/${A2m}
variable        convert equal 6.9510174124148567155e-21*${kCal2J}/${fs2s}/${A2m}
variable        convert equal 6.9510174124148567155e-21*6.9510174124148567155e-21/${fs2s}/${A2m}
variable        convert equal 6.9510174124148567155e-21*6.9510174124148567155e-21/1.0000000000000000777e-15/${A2m}
variable        convert equal 6.9510174124148567155e-21*6.9510174124148567155e-21/1.0000000000000000777e-15/1.0000000000000000364e-10
variable        b_eq equal 10.0/3.0

# setup problem
dimension       3
boundary        p p p
neighbor        2    bin
pair_style      lj/cut 10.0
bond_style      morse
read_data       lammps.data
  9 = max bonds/atom
  orthogonal box = (0 0 0) to (80 80 80)
  2 by 2 by 2 MPI processor grid
  7168 atoms
  33696 bonds
  10 = max # of 1-2 neighbors
  86 = max # of 1-3 neighbors
  824 = max # of 1-4 neighbors
  164 = max # of special neighbors
pair_coeff      1 1 0.000 3.500
pair_coeff      2 2 0.000 3.500
pair_coeff      1 2 0.105 3.500
bond_coeff      1 10 1.8 ${b_eq}
bond_coeff      1 10 1.8 3.3333333333333334814
bond_coeff      2 5 0.805 7.4536
bond_coeff      3 10 1.8 ${b_eq}
bond_coeff      3 10 1.8 3.3333333333333334814
bond_coeff      4 5 0.805 7.4536
velocity        all create $T ${seed} mom yes rot yes dist gaussian
velocity        all create 300 ${seed} mom yes rot yes dist gaussian
velocity        all create 300 123461 mom yes rot yes dist gaussian
timestep        ${dt}
timestep        1
thermo          100
dump            T1 all cfg 600000 *.cfg id type xs ys zs
dump            T2 all xyz 10000 traj.xyz
#dump_modify    1 element Cu
# −−−−−−−−−−−−− Equilibration and thermalisation −−−−−−−−−−−−−−−−
fix             NVT all nvt temp $T $T 10
fix             NVT all nvt temp 300 $T 10
fix             NVT all nvt temp 300 300 10
run             300000
Memory usage per processor = 11.5453 Mbytes
Step Temp E_pair E_mol TotEng Press 
       0          300   -906.89526 0.00012694983    5502.1446    343.62551 
     100    241.68358   -934.64221    7082.1116    11310.668    2204.7469 
     200    295.52182   -990.51874    10007.044    15329.896    1202.6367 
     300     304.7397   -988.90196    8439.9988    13961.393     570.9396 
     400    299.00156   -968.15133     6355.561    11775.119    878.01925 
     500    299.55844   -953.67697     5699.806    11145.735    1300.5112 
     600     300.0453    -952.4219    5680.8836    11138.469    1302.2602 
     700    298.90629   -964.70451    6465.5626    11886.532    1211.6577 
     800    294.91178   -976.62574    7113.7548    12437.467    1208.2982 
     900    300.74099   -979.18285    6966.4557    12412.143    1132.9125 
    1000     300.8474   -976.32947    6565.5299    12016.344    1210.1821 
    1100    300.86001   -973.90602    6426.8426    11880.349     1398.827 
    1200    295.74447   -975.02085    6234.2509    11577.357     1214.525 
    1300    301.41508   -981.95569    6342.9672    11800.282    1088.9464 
    1400    295.37402    -988.9614    6713.5049    12034.756    1144.2037 
    1500    296.43818   -993.66029      6927.31    12266.597    1277.4578 
    1600     299.0083   -993.71872    6710.1587    12104.293    1377.0711 
    1700    302.97425   -995.65945    6297.4569    11774.377    1371.6123 
    1800    298.88705   -998.88292    6400.8927    11787.273    1474.5498 
    1900    302.17382   -1004.4047    6563.3369    12014.412    1463.8643 
    2000    298.55059   -1011.1632    6711.9495    12078.862    1399.3762 
    2100    301.54929    -1017.522    6509.5161    11934.132    1477.9243 
    2200    297.85011   -1024.1071    6147.2139    11486.217    1385.9655 
    2300    304.63348   -1036.8673    6290.7136    11761.873     1484.386 
    2400    296.91753   -1051.2643     6489.438    11781.361    1446.7536 
    2500    298.88644   -1065.5069     6681.875    12001.618     1461.415 
    2600    298.69042   -1076.8252    6528.8332    11833.071    1389.7526 
    2700    299.72909   -1092.5485    6331.5324    11642.236    1405.7821 
    2800    299.97214   -1099.7423    6395.2382     11703.94    1585.1017 
    2900    299.13499   -1111.3815    6248.5567    11527.735    1563.2542 
    3000     305.2432   -1116.8892    6156.5756    11560.739    1574.7414 
    3100    294.08741   -1114.5984    6295.9285    11464.056    1536.8797 
    3200     302.3161   -1098.6635    6501.2397    11861.096    1653.6813 
    3300    297.56681   -1094.4873    6253.6567    11516.228    1667.9142 
    3400    302.92632   -1074.6204    6071.7666    11468.702    1803.7327 
    3500    299.45619   -1094.5468    6340.9066    11643.782    1800.4745 
    3600    294.60326   -1106.4818    6606.9281    11794.193    1674.9921 
    3700    300.31926   -1126.2378    6338.8684    11628.491     1580.907 
    3800    300.97863   -1133.2335    6345.0393    11641.752    1705.2334 
    3900    301.85983    -1136.033    6182.7246    11495.464     1702.928 
    4000     300.0833   -1136.2218    6158.0501    11432.647    1712.5719 
    4100    301.10254   -1131.0675    6499.1876    11800.714    1794.3925 
    4200    295.55218   -1124.9374     6437.338     11626.42     1766.473 
    4300    302.96636   -1113.3956    6195.9625    11554.978    1660.2843 
    4400    299.44071   -1109.8587    6257.6799    11544.912    1713.4277 
    4500    298.44466   -1107.1474    6321.8788    11590.544    1717.0681 
    4600    301.72318   -1105.0599    6283.4844    11624.277    1571.1066 
    4700     300.8592   -1102.4036    6608.3632    11933.355    1720.7048 
    4800    297.07435     -1105.23    6566.3538    11807.662    1598.9389 
    4900    297.21562   -1104.3737    6443.9384     11689.12    1613.1968 
    5000    302.01546   -1108.2115     6220.122    11564.007    1658.8704 
    5100    298.24957   -1109.2112    6276.5843    11539.018      1697.51 
    5200    299.46052   -1111.9897    6564.7783    11850.303     1687.469 
    5300    305.52097   -1114.6223    6468.2715    11880.636     1607.906 
    5400    297.77844   -1121.6581     6359.836    11599.757    1673.5297 
    5500    295.85056    -1124.768    6293.6098    11489.235    1707.2329 
    5600     304.0259   -1133.3959    6238.3074    11599.958    1741.6057 
    5700    302.06673   -1139.8712    6356.9413    11670.262    1799.6135 
    5800    298.12645   -1132.1436    6364.4247    11601.295    1669.3932 
    5900    303.09026   -1140.7313    6256.7309    11591.058    1670.4869 
    6000    299.05018   -1134.5274    6371.8736    11626.094    1885.1759 
    6100     298.7549   -1142.6148    6256.2389    11496.064    1777.5599 
    6200    301.03838   -1140.4081    6194.0521    11484.867    1764.6438 
    6300    299.43876   -1146.6799    6373.2857    11623.655    1896.6825 
    6400     299.0927   -1156.2291    6286.1036    11519.531    1753.7076 
    6500    304.73655   -1158.5388    6296.5677    11648.258    1761.2142 
    6600    304.50706   -1155.4335    6370.6725    11720.565    1822.6114 
    6700    298.36928   -1148.2532    6299.4852    11525.434     1741.834 
    6800    300.08958   -1156.9773    6316.3649    11570.341    1737.7088 
    6900     302.6395   -1154.3572    6281.7388     11592.81    1830.9869 
    7000    304.25991   -1148.8955    6357.2547    11708.405    1839.2353 
    7100     300.6357   -1143.6362    6230.7933    11509.778    1808.3299 
    7200    295.51446   -1148.1103    6312.6891    11477.792    1829.2547 
    7300    303.69329   -1143.4182    6462.8819    11807.405    1853.7859 
    7400    302.90463   -1150.8757    6377.5459    11697.763     1765.797 
    7500    301.80023   -1148.7777    6287.2151    11585.936    1771.9505 
    7600    297.81328   -1141.9658    6358.1484    11578.506    1801.9808 
    7700    299.85826   -1143.5008    6473.8198    11736.331    1792.7249 
    7800    304.12812   -1145.7598    6339.9202    11691.391     1812.042 
    7900    301.95016   -1144.6351    6369.0838    11675.151    1869.3888 
    8000    301.79464   -1142.1474    6281.1865    11586.418    1812.0746 
    8100    297.16483   -1143.5291    6313.7182     11518.66    1813.5795 
    8200    298.44949   -1143.9094    6323.2314    11555.237    1780.8692 
    8300    299.16362   -1143.9834    6332.3152    11579.503     1731.866 
    8400    298.55745   -1141.1025    6358.1723    11595.292    1737.3482 
    8500    299.45562   -1146.2841    6375.4942     11626.62    1694.4041 
    8600    301.44967   -1142.7036    6354.5882    11651.894    1728.7179 
    8700    295.92701   -1145.7794    6343.5959    11519.843     1789.813 
    8800    301.24816   -1142.3756    6406.8909     11700.22    1811.2166 
    8900    303.87109   -1133.1892    6421.9198     11780.47     1861.574 
    9000    297.37005   -1137.3364    6284.3382    11499.857    1791.8491 
    9100    293.74354    -1143.489    6344.0856    11475.977    1862.8556 
    9200    305.53923   -1138.7741    6450.3321    11838.935    1898.9601 
    9300    295.81288   -1140.7995    6383.6563    11562.445    1760.8579 
    9400    302.06629   -1144.9446    6307.6615      11615.9    1721.2562 
    9500    301.93014   -1146.3008    6503.7157    11807.689    1810.1652 
    9600    295.79826   -1146.0072    6481.3946    11654.663    1845.0611 
    9700    299.55567   -1144.9132    6339.2601    11593.894    1842.6326 
    9800    293.22556   -1137.9304    6375.3553    11501.739    1871.8579 
    9900    295.59143   -1140.5409    6432.1403    11606.457     1827.297 
   10000    302.44604   -1144.3948    6380.4335    11697.334      1814.07 
   10100    298.56501   -1145.4964    6390.1291    11623.016    1812.8334 
   10200     300.5591   -1139.6074    6329.6612    11611.038    1859.2131 
   10300    299.68778   -1138.6923    6231.8526     11495.53    1792.8054 
   10400    296.41327    -1138.436    6462.2667    11656.245    1858.7513 
   10500    301.18468    -1138.486    6372.5896    11668.452    1825.6772 
   10600    299.31694   -1143.7761    6391.8637    11642.535    1857.0806 
   10700    293.39728   -1139.2007    6361.0191    11489.801     1822.716 
   10800     302.8567   -1142.0613    6348.0254    11676.033    1848.1264 
   10900    298.15696    -1141.689    6376.6392    11604.616    1864.9378 
   11000    303.48815   -1137.0965    6280.3521    11626.814    1863.8437 
   11100    296.42842   -1136.4017    6419.7457    11616.082    1868.9572 
   11200      299.584   -1133.1419    6422.2306    11689.241    1833.2079 
   11300    302.71088   -1140.1308    6293.1478     11619.97    1782.1775 
   11400    300.15668   -1133.6481    6384.5604    11663.299    1789.7797 
   11500    297.33955   -1133.4848     6507.456    11726.174    1835.9146 
   11600    302.39775   -1130.9214     6299.248    11628.591    1775.8963 
   11700    300.29698   -1126.4616    6458.1014    11747.024    1870.3958 
   11800    306.99019   -1128.4962    6463.1504    11893.029     1858.221 
   11900    298.45092   -1124.0579    6432.3956    11684.284    1824.4019 
   12000    302.05599   -1120.4829    6407.7122    11740.192    1834.5201 
   12100    298.70298   -1121.9065    6463.9933    11723.418     1793.409 
   12200    298.31289   -1116.8256    6378.4247    11634.596    1774.4681 
   12300     304.9362    -1119.343     6466.636    11861.787    1888.6152 
   12400    297.37647    -1120.284    6324.2667    11556.975    1736.3734 
   12500    298.00945   -1124.6957    6448.9757    11690.795    1776.8437 
   12600    300.23441   -1125.8052    6499.3326    11787.575    1813.5624 
   12700    301.40617   -1129.5027    6383.5361    11693.114    1775.5482 
   12800    298.94458   -1132.4349    6356.5208    11610.578    1799.6233 
   12900    299.84483   -1131.7615    6412.8509    11686.814    1837.1481 
   13000    300.61061   -1136.5648    6406.3682    11691.888    1904.8359 
   13100    297.93558   -1137.4206     6330.102    11557.618    1850.5517 
   13200     304.5883   -1141.9768    6428.7495    11793.834    1912.1994 
   13300    296.98583   -1140.2244    6407.6299    11612.052    1890.4758 
   13400    302.07948   -1139.7815    6277.1854    11590.869    1863.1908 
   13500    297.21992   -1139.7584    6257.0307     11466.92    1793.6313 
   13600    296.71196   -1143.4026     6372.746    11568.139    1841.6577 
   13700      302.173   -1136.0526    6381.7491    11701.159     1859.771 
   13800     300.9904   -1139.0746     6469.986    11761.109    1894.5564 
   13900    296.10936   -1142.8818    6361.4261    11544.466    1875.9288 
   14000    302.43483   -1135.8686    6275.1372    11600.325    1822.8943 
   14100    300.56402   -1142.9378     6410.765    11688.916    1825.7013 
   14200    300.44386   -1142.7479    6380.6701    11656.444    1839.9224 
   14300    300.04344   -1140.0262    6447.5397    11717.481    1856.7927 
   14400    298.70889   -1138.1631    6505.0384    11748.332    1824.3031 
   14500    301.60459   -1139.0421    6311.1899    11615.467    1772.4318 
   14600    291.91814   -1132.5488    6338.5762    11442.411    1745.9747 
   14700    305.07326   -1134.5954     6528.176    11911.003    1787.0738 
   14800    298.62148   -1133.8024    6437.2489    11683.036    1786.4661 
   14900    300.36992   -1133.3771    6394.4944     11678.06    1745.0462 
   15000    297.21694   -1134.4485    6470.0456    11685.181    1768.7985 
   15100    299.04827   -1137.2769    6289.1498     11540.58    1781.5505 
   15200     297.9336   -1140.0835    6365.0636    11589.874    1742.2551 
   15300    300.37887   -1133.9655    6395.1712    11678.339    1749.7065 
   15400    297.43271   -1148.2337    6467.9737    11673.933    1803.9637 
   15500    296.58176   -1150.7104    6396.3524    11581.656    1853.1842 
   15600    302.21352   -1151.1006      6297.59    11602.818    1788.1356 
   15700    298.16179   -1159.9625    6436.9427    11646.749    1899.2916 
   15800    300.89197   -1158.4395    6322.7099    11592.366    1859.0853 
   15900    299.17186   -1157.2443    6361.4727    11595.576    1888.8853 
   16000     299.5985   -1153.3572     6246.972    11494.077    1893.1884 
   16100    299.45783   -1153.6935    6386.7482    11630.512    1937.0679 
   16200    296.04622   -1153.7494    6428.4197    11599.243    1876.3002 
   16300    302.30989   -1153.1986    6278.3672    11583.556     1847.193 
   16400    298.33089   -1158.3666    6276.8293    11491.844    1881.4355 
   16500    300.62894   -1159.1895    6374.4258    11637.712    1922.3469 
   16600    307.40597   -1155.4959    6321.7565    11733.517    1889.9505 
   16700    299.52523   -1155.4009    6362.1354    11605.631    1828.0691 
   16800    296.19343   -1155.6277    6276.5731    11448.664    1849.1098 
   16900    302.32025   -1154.0129    6402.9236    11707.519    1919.6745 
   17000    298.57945   -1151.8138    6399.5333    11626.411    1877.3877 
   17100    303.24732   -1148.4304    6457.2519    11787.235     1967.336 
   17200    301.14798   -1146.6119    6348.6552    11635.608    1857.6605 
   17300     301.2127   -1145.0552    6318.4697    11608.362    1825.7542 
   17400    298.37939   -1136.9353    6473.8811    11711.364     1874.094 
   17500     305.6333   -1137.4135    6409.0462    11801.019    1846.6263 
   17600    295.68274   -1132.0094    6254.9515     11439.75    1768.3935 
   17700    302.55755   -1132.8193      6393.37    11724.228    1869.5829 
   17800     298.8016   -1132.2587    6451.7132    11702.892      1806.14 
   17900     297.1229   -1133.2761    6475.4819    11689.781    1764.8595 
   18000    300.12089   -1140.1665    6372.6451    11644.101    1844.6147 
   18100    297.58837   -1141.4518    6377.7415    11593.809    1776.5843 
   18200    303.44105   -1145.1907    6429.2922    11766.654    1843.6774 
   18300    300.48099   -1148.5283    6312.8625    11583.649    1834.0271 
   18400    296.50387   -1151.8693    6452.5511    11635.032    1813.1523 
   18500    297.79427   -1155.4627    6496.7711    11703.226    1820.9023 
   18600    301.64469   -1159.3291    6359.1273    11643.974    1851.4824 
   18700    294.74613   -1161.3382     6266.135    11401.596    1829.1541 
   18800    299.70471   -1163.2769    6324.9673    11564.422    1835.2453 
   18900    301.28942   -1168.1704    6430.8706    11699.286    1855.3512 
   19000    303.01857   -1166.2412    6429.9513    11737.237    1855.4578 
   19100    299.48692   -1166.9281    6346.6683    11577.819    1816.7529 
   19200    298.83167   -1158.8747     6214.776    11439.981    1833.1326 
   19300      299.015   -1158.8843    6420.0913    11649.204    1923.2064 
   19400    297.26137   -1159.1125    6352.7989    11544.219    1823.3327 
   19500    297.42432   -1154.0026    6391.3781     11591.39     1851.597 
   19600    298.55992   -1158.0446     6407.564    11627.794    1842.1591 
   19700    299.63256   -1161.2836    6315.4331    11555.339    1854.7569 
   19800    296.71411   -1165.5479    6389.7121    11563.006    1857.3558 
   19900    308.42652   -1156.8421    6460.2263    11892.443    1852.7199 
   20000    298.66193   -1154.6961    6404.5436    11630.301    1819.0752 
   20100    301.84758   -1144.8769    6402.1602    11705.794      1820.99 
   20200    300.73173   -1142.2389    6427.6399    11710.073     1808.831 
   20300    302.51566   -1140.5327    6408.2985    11730.549    1801.6313 
   20400    300.29578   -1133.0468    6473.1195    11755.431    1798.1415 
   20500    292.51457   -1127.3347    6443.0308    11564.821    1734.7795 
   20600    301.45875   -1127.5067    6522.4182    11835.115    1770.8114 
   20700    305.27679   -1121.7318    6383.8149    11783.853    1704.1303 
   20800    297.60919   -1117.3107    6456.4185    11697.071    1697.5546 
   20900    304.15479   -1116.7525    6533.6645    11914.712     1733.005 
   21000    292.80492   -1114.1545    6585.3921    11726.565    1712.3815 
   21100    304.29908    -1118.772    6408.8247    11790.936    1689.7754 
   21200    298.87928    -1121.809    6528.2652    11791.553    1739.0589 
   21300     299.8697   -1124.4337    6498.0774      11779.9    1756.5913 
   21400     298.9201   -1126.7872    6448.7193    11707.901    1743.4807 
   21500    307.16192   -1130.6409    6481.0682     11912.47    1800.0868 
   21600    298.07953   -1136.6871    6495.8118    11727.136    1812.9782 
   21700    304.85117   -1143.1691    6432.1029    11801.611    1761.2764 
   21800    295.12235   -1146.9254    6376.5149    11534.426    1808.7056 
   21900    300.74485   -1153.7118    6303.4342    11574.675    1837.7614 
   22000    296.99047   -1156.2564    6370.1712    11558.661    1797.6461 
   22100    297.98951   -1150.6421    6497.7179    11713.164    1864.5194 
   22200    303.15258   -1149.7945    6431.9506    11758.546    1949.2899 
   22300    294.34817   -1158.3084     6324.385    11454.374    1895.5968 
   22400     297.8897   -1154.1448    6237.1723    11446.984    1798.4573 
   22500    299.25793   -1160.2379    6443.7705    11676.719    1924.7961 
   22600    302.77589   -1156.5266    6405.5924    11717.408    1830.4729 
   22700    298.43129   -1166.4448    6486.2595    11695.341    1842.9658 
   22800    297.46583   -1174.2954    6343.4768    11524.082    1851.3562 
   22900    300.45143    -1170.971     6293.701    11541.414    1842.4633 
   23000    300.09623   -1166.4221    6449.7643    11694.438    1900.5895 
   23100    303.12154   -1156.0801    6395.4536      11715.1    1907.2795 
   23200    294.92918   -1160.8905    6334.0542    11473.873    1816.6186 
   23300    301.43266   -1162.5934    6343.4437    11620.497    1871.0079 
   23400    302.46951   -1157.8995    6443.9399    11747.837    1904.4468 
   23500     297.8566   -1155.8354    6441.2749    11648.689    1893.1516 
   23600    303.06352   -1157.3401    6473.0776    11790.225    1885.1481 
   23700    298.35909   -1152.9747     6413.129    11634.139    1781.9936 
   23800    304.51684   -1146.4075    6420.3422     11779.47    1793.4589 
   23900      302.203   -1142.7442    6459.6085    11772.968    1836.9796 
   24000    294.22244   -1137.8789    6552.9908    11700.723    1803.2775 
   24100    297.46055   -1134.0147    6437.6963     11658.47    1810.5145 
   24200    301.65931   -1135.3121    6427.4989    11736.675     1911.303 
   24300    298.11441   -1134.5104    6330.2046    11564.451    1864.4225 
   24400    304.47925   -1132.5573    6507.3157     11879.49    1896.5211 
   24500    297.10339   -1132.5615    6486.6708    11701.267    1841.5398 
   24600    303.39891    -1135.238    6457.8442    11804.258    1868.4926 
   24700     295.6335   -1134.1092    6542.0116    11723.658    1934.9996 
   24800    301.24096   -1134.3983     6286.377     11587.53     1835.109 
   24900    298.63633   -1138.3915    6417.2411    11658.757    1882.5644 
   25000     304.7722   -1138.3794    6435.6467    11808.258     1859.863 
   25100    304.05582   -1145.8946     6414.745    11764.536    1864.0393 
   25200    296.41489   -1146.1254    6394.7778    11581.102    1822.9011 
   25300    302.02814    -1149.716     6438.843    11741.495    1915.3058 
   25400    301.02114    -1155.138     6434.138    11709.855     1878.797 
   25500    304.09658   -1153.1977     6364.152    11707.511    1821.9391 
   25600    296.92585   -1156.3588    6371.9969    11559.003     1900.768 
   25700    304.49088   -1154.5342    6363.2726    11713.719    1918.2073 
   25800    298.50718    -1148.084     6306.755    11535.819    1800.9918 
   25900    301.14613   -1157.4767    6410.6711    11686.719    1815.1092 
   26000    301.16541   -1151.1416    6427.8231    11710.618    1896.8223 
   26100    298.41982   -1159.7878    6437.6501    11653.144    1928.8648 
   26200    295.35708   -1156.1515    6427.8182    11581.518      1858.57 
   26300    302.44839   -1150.2559    6349.6859    11660.776    1877.4903 
   26400    300.54543   -1149.7357    6265.2944    11536.251     1843.628 
   26500    301.26228   -1162.1076    6406.4507    11680.349     1884.862 
   26600     299.8994   -1153.9131    6383.8698    11636.847    1886.4227 
   26700    301.29601   -1157.7353    6462.1844    11741.176     1862.261 
   26800     301.0432   -1153.7948    6298.8515    11576.383    1806.4429 
   26900    300.71008   -1150.7271    6358.7572    11632.239    1876.3917 
   27000    297.81092   -1147.3537    6384.5979    11599.518    1837.7622 
   27100    301.36641    -1143.774    6480.3034     11774.76    1804.8986 
   27200    304.13691   -1139.5875    6497.7798    11855.611    1927.3752 
   27300    298.56342   -1138.0589    6395.6693     11635.96    1863.6809 
   27400     299.3635   -1136.9048    6352.2937    11610.831    1777.3317 
   27500    300.96863   -1136.7033    6427.8334    11720.863    1808.3735 
   27600    297.17721   -1135.2756    6481.7364    11695.196    1821.0179 
   27700    301.60907   -1131.4496    6416.4092    11728.375    1794.3564 
   27800    303.74561   -1136.0005    6358.5967    11711.655    1789.9873 
   27900    302.43669   -1138.4646    6473.4393    11796.071    1911.9318 
   28000     299.5736   -1137.6994    6338.3911    11600.622    1776.2576 
   28100    303.00166   -1138.8456    6473.9753    11808.295    1825.1904 
   28200    295.82294   -1138.0028    6390.2597     11572.06    1808.5491 
   28300    301.59018   -1142.6111    6351.9157    11652.316    1886.2593 
   28400    304.57886   -1139.5423    6513.4595    11880.777    1972.4936 
   28500    298.54509   -1150.8398    6375.3988    11602.517    1933.0874 
   28600    302.45147    -1146.381    6218.1469    11533.177    1870.0875 
   28700    297.64061   -1146.3777    6422.9625     11635.22    1868.1111 
   28800    296.06074    -1157.222    6500.9488     11668.61    1886.3512 
   28900    300.84239   -1158.7963    6449.6777    11717.917     1824.271 
   29000    295.08721    -1159.679     6304.761    11449.167    1799.6841 
   29100    297.69022   -1163.0438    6408.9066    11605.557     1829.947 
   29200    299.65799   -1158.5408    6368.2298    11611.422    1816.6773 
   29300    298.79969   -1155.5438    6281.7851    11509.638    1816.8768 
   29400    301.07553   -1162.7741       6435.1    11704.343    1828.5621 
   29500     297.2749   -1159.7825    6444.1572    11635.197    1849.5481 
   29600    302.66424   -1156.6848    6442.5522    11751.824    1945.7282 
   29700    300.28935   -1163.5856     6362.153    11613.789    1853.3816 
   29800    300.02517   -1157.7832    6483.5574    11735.352    1910.0981 
   29900    301.20224   -1166.7643    6336.8974    11604.857    1835.5355 
   30000    290.80357   -1163.9662    6457.2233    11505.829    1904.8748 
   30100    301.78485   -1163.0728    6443.4861    11727.584    1878.6519 
   30200    296.12267   -1159.1547    6419.7217    11586.774    1917.7012 
   30300     300.4772   -1154.2852    6400.2756    11665.225    1983.2879 
   30400    296.00082   -1150.1133    6327.9706    11501.461     1881.476 
   30500    301.43415   -1147.8953    6460.0323    11751.815    1972.9692 
   30600    306.36188   -1152.9058    6418.3984    11810.444    1909.9977 
   30700    297.85254   -1153.9692    6408.4405    11617.634    1896.9151 
   30800    299.87826   -1154.4293    6357.6477    11609.657    1915.0067 
   30900    307.70261   -1151.5602    6466.2204    11888.254    1956.5155 
   31000    298.92394   -1155.2516    6433.1766    11663.976    1875.8387 
   31100    295.25653   -1154.9571    6400.3317    11553.077    1836.4686 
   31200    304.10391   -1155.8866    6450.5381    11791.365    1869.6424 
   31300    297.53685   -1155.2962    6368.8625    11569.985     1862.531 
   31400    304.24856   -1151.7222    6363.8484     11711.93    1885.5197 
   31500    301.64655   -1154.0686    6456.2676    11746.415    1880.6115 
   31600    300.91134   -1154.0678    6515.6807    11790.122    1869.1762 
   31700    303.15673   -1156.1984    6377.9682    11698.248    1823.7627 
   31800    305.86062    -1158.272     6393.942    11769.913    1903.9324 
   31900    297.99055   -1160.8637    6432.6521    11637.899     1849.792 
   32000    302.42812   -1155.3592    6471.9302    11777.484    1861.9088 
   32100    296.86944   -1150.5759      6517.43    11709.014    1867.6946 
   32200    299.75974   -1151.2958    6464.4988     11717.11    1917.4842 
   32300    298.55548   -1157.6351    6319.5661    11540.111    1874.0783 
   32400    301.31282   -1148.4674    6436.5053    11725.124    1846.2729 
   32500    305.18524   -1155.2995    6427.6019    11792.117    1843.9255 
   32600     296.6901   -1152.2584    6335.2046    11521.275    1816.8593 
   32700    302.96605   -1149.1584    6434.7701    11758.017    1893.8424 
   32800    298.34794   -1156.0429    6461.5446    11679.248    1912.5859 
   32900    295.55804   -1145.5994    6394.8151     11563.36    1777.6999 
   33000    304.22137   -1147.6015    6426.9705    11778.592    1796.4106 
   33100    298.95591    -1146.276     6446.983    11687.441    1850.6012 
   33200    301.62832   -1144.3894    6440.9324    11740.369    1859.6988 
   33300    297.35238   -1144.4704    6379.7754    11587.782    1828.7474 
   33400    298.31711    -1147.997    6389.9228    11615.013    1881.0126 
   33500    302.08346   -1141.2496    6362.2201     11674.52    1864.3062 
   33600    295.57874   -1143.8903    6440.9357    11611.632    1816.5818 
   33700    301.93064   -1138.3006    6426.5765    11738.561     1829.799 
   33800     302.3951   -1146.0941    6484.1778    11798.291     1898.858 
   33900    297.74631   -1147.2515    6439.1342    11652.776    1829.4846 
   34000    300.97646   -1146.3726    6448.2361    11731.764    1882.1771 
   34100    300.30303   -1149.7002    6372.3234    11638.137    1903.4636 
   34200    296.70048   -1149.3211    6445.9854    11635.215    1857.9016 
   34300     296.9006   -1149.1455    6449.4032    11643.083    1826.5769 
   34400    305.27515   -1144.1548    6474.5315    11852.112    1866.1526 
   34500    298.79189   -1146.7415    6417.2939    11653.783    1857.7308 
   34600    300.79118    -1150.866    6380.1259    11655.202    1860.2953 
   34700    299.07784   -1151.4112    6332.6247    11570.553     1854.779 
   34800    299.38814   -1149.0764    6380.8815    11627.773    1852.2242 
   34900    300.46787   -1150.3787    6442.1498    11710.806    1786.2972 
   35000    299.79518   -1147.5001    6494.1942    11751.358    1919.9719 
   35100     302.0181    -1150.003    6411.4016    11713.552    1939.7878 
   35200    297.53443   -1149.9071    6352.0914    11558.551      1896.66 
   35300    298.09792   -1151.8939    6377.5561    11594.067     1886.123 
   35400    303.48238   -1150.1631    6445.0352    11778.307    1898.5433 
   35500    294.29705   -1149.1766    6548.1373    11686.166    1855.2376 
   35600    304.47413   -1150.9605    6440.4916    11794.154    1858.2886 
   35700    294.42809   -1149.4745    6291.1493    11431.679    1841.3909 
   35800    302.08463    -1154.144    6460.3507    11759.781    1930.2738 
   35900    301.13271   -1152.0317    6489.2886    11770.495     1817.565 
   36000    301.61993   -1151.8702    6375.0477    11666.824    1792.9289 
   36100    300.94786   -1153.7641    6406.8232    11682.348    1869.9852 
   36200    300.37924   -1157.0589    6412.6625    11672.745    1836.0347 
   36300    296.89975   -1151.7281      6344.23    11535.309    1833.3589 
   36400    299.87718   -1160.0073    6376.1951    11622.604    1878.6452 
   36500    302.91069   -1164.5682    6403.0429    11709.697    1842.0633 
   36600    296.38291   -1162.8901    6454.0722    11622.948    1869.4738 
   36700    301.61869   -1163.0538    6320.0391    11600.606    1886.9792 
   36800    299.21621   -1166.2007    6355.6423    11581.737    1869.7889 
   36900    303.29342   -1165.7752    6404.1295    11717.753    1815.2838 
   37000     302.0565    -1164.991     6411.868    11699.851    1845.4544 
   37100    301.31872   -1165.0804    6410.9136    11683.045    1809.1514 
   37200    302.30759   -1168.4118    6481.4337     11771.36    1828.7453 
   37300     297.9157   -1160.7837    6391.9565    11595.685     1892.657 
   37400    293.06065   -1163.2512     6353.456    11450.996    1860.3415 
   37500    299.28464   -1165.0215    6341.6604    11570.396    1782.7871 
   37600    299.15742    -1162.154    6463.3459    11692.231    1881.6473 
   37700    299.62369   -1166.4525    6410.2274    11644.775    1843.5102 
   37800     297.6102   -1166.1639    6531.0715    11722.893     1906.029 
   37900    301.44777    -1157.504    6371.0215    11653.486    1932.1003 
   38000     298.1115   -1160.5198    6311.2954     11519.47    1896.3844 
   38100    303.00202   -1156.8227    6471.7259    11788.076    1836.4558 
   38200    297.85945   -1151.0229    6440.0683    11652.355    1834.0215 
   38300    302.24165   -1148.4748    6501.1339    11809.588    1846.7296 
   38400    295.18457   -1146.4246    6477.9324    11637.673    1808.4418 
   38500    299.43782   -1146.7911    6374.6048    11624.843    1801.6509 
   38600    297.55208   -1144.9736    6342.0359    11553.806    1813.2189 
   38700    301.67232    -1144.398    6527.2573    11827.626     1861.344 
   38800    301.91696    -1145.642    6515.7138    11820.064    1866.1839 
   38900    300.84473   -1144.5395    6429.8823    11712.429    1858.4148 
   39000    299.94664   -1139.5866    6485.6742    11753.987    1843.5142 
   39100    301.25588    -1138.336    6446.9344    11744.468     1819.636 
   39200     297.3835   -1142.1173    6455.4462    11666.471    1834.4227 
   39300    301.30327   -1132.1574    6443.4517    11748.176    1811.9169 
   39400     300.3243   -1137.2746     6503.417     11782.11    1896.9609 
   39500     299.5294   -1144.9008    6424.9429    11679.028    1856.3069 
   39600    299.56118   -1142.9471    6345.4505    11602.168    1770.4495 
   39700    296.56494   -1148.2544    6441.0804    11628.481    1798.4327 
   39800    299.00397   -1147.2611    6427.0494    11667.549    1812.5894 
   39900    299.08461   -1150.7101    6350.3913    11589.165    1788.5198 
   40000    303.83204   -1148.9947    6413.3928    11755.304    1829.7604 
   40100    299.79073   -1153.9395    6486.3191    11736.948    1898.6661 
   40200    300.89705   -1156.7651    6389.1266    11660.565    1819.1486 
   40300    299.21733   -1154.8664    6420.2749    11657.728    1887.7126 
   40400    300.45105   -1146.8473    6436.4604    11708.289     1928.929 
   40500    298.46866   -1161.6792    6338.0015    11552.647    1871.8789 
   40600    297.13767   -1161.4302    6413.5278    11599.988    1895.0671 
   40700    297.25896   -1161.0744    6345.4822    11534.889    1870.5761 
   40800    302.74186   -1166.3076    6453.7017    11755.009    1847.3688 
   40900    294.03836   -1169.1245    6415.1401    11527.694    1786.8208 
   41000    301.68508   -1166.6513    6382.9608    11661.348    1863.2121 
   41100    299.15412   -1171.9678     6426.397    11645.398    1910.8577 
   41200    296.99931   -1163.3661    6333.9947    11515.563    1856.0683 
   41300    303.62729   -1163.5814     6335.676    11658.626    1919.0414 
   41400    299.56251   -1158.3706    6445.6856    11687.008    1940.8805 
   41500    300.54184   -1162.2254    6393.5188    11651.909    1854.8919 
   41600    299.93782   -1157.7239    6384.5422     11634.53    1860.1313 
   41700    298.27886   -1158.1531    6488.7135     11702.83    1940.8851 
   41800    300.56895   -1160.7698    6345.9259    11606.351    1835.4595 
   41900    299.14375   -1163.2023    6358.2064    11585.751    1750.6657 
   42000    301.96939   -1159.2613    6522.1949    11814.046     1853.706 
   42100    297.36427   -1158.5078    6512.4606    11706.684    1877.0586 
   42200    303.82206   -1159.2145    6323.2191    11654.697    1846.7135 
   42300    301.09733   -1153.4937    6386.2566    11665.245    1886.0969 
   42400    299.36027   -1148.5254    6453.3248    11700.172    1885.5205 
   42500     299.4258   -1148.4738    6418.4706     11666.77    1731.1614 
   42600    300.86028   -1143.8956    6464.7141    11748.237    1821.2981 
   42700    295.16069   -1151.3244    6405.6088     11559.94    1791.7879 
   42800    294.85816   -1152.5633    6363.3461    11509.975    1716.0659 
   42900    301.31798   -1151.7711    6431.1947     11716.62    1793.3781 
   43000    300.11659   -1150.6798    6551.3997     11812.25    1766.0849 
   43100     297.7391   -1157.2333    6452.3887    11655.895     1717.865 
   43200    301.89943   -1145.9671    6444.0356    11747.687    1806.9599 
   43300    305.44495   -1144.8932    6291.0694    11671.539    1788.9001 
   43400     299.5408   -1145.9631    6567.9871    11821.254    1899.2489 
   43500    295.78451   -1147.5199    6408.9521    11580.414    1801.5289 
   43600    298.60034   -1148.7536    6357.5838    11587.968    1847.9229 
   43700    302.14757   -1154.5869    6371.6697    11672.002    1878.9718 
   43800    298.17876   -1152.2703    6485.8837    11703.745    1885.6248 
   43900    301.67038    -1154.258    6406.0247    11696.492    1804.2986 
   44000    297.63572   -1158.3197    6507.2213    11707.432    1892.9711 
   44100    299.03298   -1157.3996     6397.074    11628.055    1839.2025 
   44200    301.40611   -1154.4595    6442.4517    11727.071    1810.9161 
   44300    295.24649   -1153.9679    6435.8444    11589.365     1902.384 
   44400    299.77291   -1157.1814    6483.4718    11730.479    1871.7624 
   44500    299.75209   -1148.5007    6399.2338    11654.477    1836.7983 
   44600    299.97384   -1151.7748    6413.3976    11670.104    1844.8155 
   44700    303.43324   -1153.6344    6359.7889     11688.54    1895.6361 
   44800    302.90776   -1151.9089    6411.4629    11730.714    1864.3687 
   44900     299.1884   -1162.4866    6405.5971    11634.812    1809.4834 
   45000    299.89673   -1162.1291    6447.2657     11691.97    1876.7888 
   45100    296.30126   -1161.0558    6406.8762    11575.842     1884.981 
   45200    303.13416   -1160.9805    6336.8146     11651.83    1845.5281 
   45300    298.46143   -1154.4015    6452.6021    11674.371    1817.0602 
   45400    298.29142   -1154.2899    6548.7685    11767.017    1863.0314 
   45500    302.45397   -1153.9915    6408.9391    11716.413    1828.5463 
   45600    300.25134   -1153.1473    6272.5891    11533.851    1822.1966 
   45700    297.37795    -1160.427    6398.5769    11591.174    1840.5117 
   45800    304.23982    -1161.093    6438.2102    11776.734    1882.5636 
   45900    294.44906   -1165.9077    6498.1035    11622.648    1892.8233 
   46000    307.65277   -1161.2498    6400.6668    11811.946    1881.5764 
   46100    299.70527   -1166.0415    6402.0752    11638.777    1831.3562 
   46200    300.62515   -1160.7954    6431.4522    11693.052    1870.1373 
   46300    297.66574   -1156.5359    6548.0798    11750.716    1936.4245 
   46400    302.08092   -1160.8959    6317.8463    11610.446    1833.8435 
   46500     300.8527   -1159.3245    6418.2969    11686.229    1913.0477 
   46600    299.17426   -1156.5139    6399.7228    11634.608    1908.3269 
   46700    301.40851   -1163.6589    6394.1069    11669.578    1871.5634 
   46800    296.28485   -1167.3709    6571.8095     11734.11     1953.067 
   46900    304.01031   -1166.6626    6293.7469    11621.798    1853.0868 
   47000     296.5069   -1164.8609    6295.3601    11464.914    1825.3562 
   47100    300.40641   -1158.4255    6551.2972    11810.594    1956.2961 
   47200    296.19208   -1159.1218    6385.7667    11554.334    1873.6266 
   47300    299.98299    -1161.782    6355.4268    11602.321    1889.7533 
   47400    301.05657   -1156.2103    6498.9538    11774.355    1892.6611 
   47500    297.80469    -1159.147    6374.4021    11577.395    1836.0335 
   47600    300.80888   -1160.1969    6372.4803    11638.604    1823.2381 
   47700    294.73708   -1160.2399    6531.0963    11667.462    1913.0302 
   47800    301.59311   -1161.6836    6341.6223    11623.013    1813.2116 
   47900    301.03985   -1162.4946    6470.7477    11739.508    1879.8233 
   48000    300.69367   -1163.1715    6402.3303    11663.018    1765.1623 
   48100    299.41731   -1156.8197    6503.2072    11742.979    1835.1892 
   48200    300.59968    -1156.851    6411.6368    11676.637     1869.909 
   48300    298.66598   -1154.2308    6389.2877    11615.597     1876.362 
   48400    296.89197   -1150.3251    6491.3611    11683.677    1872.7037 
   48500    300.63169    -1147.423    6447.5506    11722.662    1844.5468 
   48600    304.07659    -1152.938    6473.7644    11816.956     1924.623 
   48700    295.62227   -1153.9525    6360.5212    11522.085    1857.4998 
   48800    298.41717    -1156.974    6444.0687     11662.32    1881.9853 
   48900    302.19899   -1153.7734    6409.0925    11711.337    1856.5485 
   49000    294.57064   -1151.6114    6387.5135    11528.952    1763.8933 
   49100    301.58836   -1153.3404    6560.3881     11850.02    1886.1357 
   49200    303.85977   -1155.2626    6399.4242    11735.659    1834.1443 
   49300    300.52753    -1147.564    6409.1706    11681.916    1888.1697 
   49400    300.58064   -1152.3625    6478.2463    11747.328    1902.9255 
   49500    292.76735   -1155.5145    6511.4238    11610.435    1850.8614 
   49600    303.89888   -1156.3352    6360.9196    11696.918    1871.1592 
   49700    300.69644   -1155.5332    6271.0503    11539.435    1808.7179 
   49800    300.91985   -1160.5022    6432.6148    11700.804      1837.04 
   49900     304.0495   -1165.8012    6408.1812    11737.931    1822.0323 
   50000    297.14622   -1164.6892     6588.431    11771.815    1923.5204 
   50100    300.89821   -1167.3464    6369.9724    11630.854    1873.4545 
   50200    301.43238   -1165.7677    6355.3191    11629.192     1867.683 
   50300    296.32683     -1168.94    6477.6009    11639.229    1921.4255 
   50400    298.23432   -1166.2339    6394.6174    11599.702    1906.3742 
   50500    302.00573   -1166.3296    6330.5985    11616.158    1929.8164 
   50600    298.52341   -1166.7017    6405.4775     11616.27    1930.6974 
   50700    306.86945   -1169.3457     6373.463    11759.912    1911.1429 
   50800    295.96416   -1168.0485    6492.0978    11646.869    1898.3034 
   50900    302.63144   -1172.1776    6361.7394    11654.818    1863.9007 
   51000    300.34165   -1170.6263    6301.3447    11547.057    1813.1723 
   51100    299.16608   -1166.1974    6410.6832     11635.71    1848.3702 
   51200    305.13238   -1167.4462    6425.0022    11776.241    1872.2735 
   51300    304.00802   -1163.7231    6457.3044    11788.246    1854.8936 
   51400    297.57529   -1158.9088    6479.7732    11678.104    1898.8527 
   51500    300.31762   -1165.6671    6344.4988    11594.657    1874.2097 
   51600    302.35609   -1159.0393    6359.4864    11659.821    1869.9698 
   51700    297.77098   -1153.2759    6486.3468    11694.491    1898.6028 
   51800    300.17678   -1153.6072    6510.7158    11769.925    1890.5964 
   51900    298.36607   -1158.2139    6400.5824    11616.502    1900.7607 
   52000    295.52764   -1153.6465    6364.8716     11524.72    1846.7709 
   52100    302.21017   -1143.3511    6426.5585    11739.464    1896.3382 
   52200    296.03798   -1144.3879    6415.4575    11595.467    1854.5246 
   52300    301.19003   -1144.5715     6474.591    11764.482    1887.9923 
   52400    301.78644   -1145.6478     6501.802    11803.359    1900.6323 
   52500    304.39646   -1145.1478    6422.8811    11780.697    1900.9142 
   52600    300.15185   -1147.8349     6383.434    11647.883    1944.2462 
   52700    301.74761   -1148.4684    6530.6824    11828.589    1973.2933 
   52800    298.86204   -1147.3424     6431.349    11668.735    1901.4988 
   52900    302.42966   -1151.7563    6418.9396    11728.129    1961.5619 
   53000    306.06107   -1155.3486    6366.2058    11749.382    1919.0007 
   53100    298.24299   -1154.6655     6512.747    11729.585    1953.5413 
   53200    296.81561   -1149.7053    6385.8316    11577.136    1879.2404 
   53300    294.46108   -1155.3451    6459.1798    11594.544    1943.9161 
   53400    298.59247   -1162.5271    6421.4875     11637.93    1859.6185 
   53500    303.53464   -1157.3344    6396.9842    11724.202    1818.6604 
   53600    296.55165   -1161.3564     6367.661    11541.675    1854.0601 
   53700    303.21087    -1159.593    6395.5485    11713.591    1924.6314 
   53800    298.72447   -1167.9548     6452.189    11666.024    1905.9175 
   53900    300.86013   -1171.8964    6395.1446    11650.663    1867.9203 
   54000    300.70674   -1169.2946     6392.348    11647.192    1870.4886 
   54100    301.52377   -1168.8343     6398.943    11671.701     1890.407 
   54200    297.19166   -1168.0509    6348.3883    11529.381    1844.1811 
   54300    295.93835   -1170.5785    6364.5286    11516.219    1889.6144 
   54400    301.25212   -1172.1129    6347.1871    11610.864    1876.6721 
   54500    294.62854   -1170.3935     6451.054    11574.947    1914.8237 
   54600    295.54816   -1168.8704     6405.002    11550.065     1877.951 
   54700    302.13239    -1171.092    6408.9715    11692.474    1876.5834 
   54800    302.78421   -1169.1993    6438.3067    11737.627    1888.8787 
   54900    294.09425   -1164.7932    6428.8567    11546.936    1929.4583 
   55000    298.46652   -1165.0018    6385.9083    11597.186     1952.496 
   55100    297.56143   -1159.8953    6439.9536    11637.002      1915.47 
   55200    303.37942   -1162.7923    6403.8666     11722.31    1894.8962 
   55300     296.9613   -1160.2781    6431.1579    11615.002    1920.5353 
   55400     299.9378   -1158.2459    6501.2225    11750.688    1929.7679 
   55500    304.05481   -1155.4753    6391.3485    11731.538    1849.7006 
   55600    298.39435   -1156.3238    6494.1988    11712.612    1923.2608 
   55700    300.06328   -1154.6956     6422.347    11678.043     1881.994 
   55800    299.87656   -1153.8273    6513.7751     11766.35    1931.5971 
   55900    304.10466   -1157.4338    6398.7469    11738.043    1888.1152 
   56000    299.50316   -1151.5555    6420.3908    11667.261     1876.157 
   56100    297.12767   -1153.1165    6434.0759    11628.636    1872.9703 
   56200    299.54675    -1155.884    6537.7989    11781.272    1906.1017 
   56300    298.02949   -1152.8941    6612.0327    11826.081    1930.9858 
   56400    298.00987   -1155.6006    6244.1044    11455.027    1816.2685 
   56500     299.3648    -1154.615    6363.5779    11604.432    1931.2484 
   56600    298.11156   -1154.8614     6441.674    11655.509    1876.9755 
   56700    297.93571   -1147.6861    6468.6041    11685.857    1854.2956 
   56800     304.8543   -1155.0522    6516.8293    11874.521    1887.8795 
   56900    299.97207   -1158.7728     6356.564    11606.234    1824.3858 
   57000    293.74961    -1162.362    6338.2627     11451.41     1830.017 
   57100    306.48164   -1158.8817    6366.2038    11754.832    1829.1868 
   57200      295.415   -1159.9243    6507.6079    11658.772    1882.9768 
   57300    299.05876   -1166.3702    6351.3926    11573.954    1835.2089 
   57400    300.34277   -1158.2978    6342.5918    11600.656    1870.8729 
   57500    297.00417    -1159.512    6387.8918    11573.418    1900.6373 
   57600    302.58917   -1157.2266    6407.6015    11714.728    1841.0434 
   57700    305.23216   -1158.8702    6356.1183    11718.065    1841.0729 
   57800     296.9573   -1152.3971    6479.4937    11671.134    1893.2967 
   57900    300.65167   -1161.1953    6355.2078    11616.974    1820.1883 
   58000    297.87057   -1162.3929     6360.397    11561.552    1784.0693 
   58100    300.14979    -1164.629    6333.8741    11581.485    1784.2191 
   58200    299.36469   -1166.2967    6589.5871    11818.758    1939.5959 
   58300    301.04414   -1164.2507    6454.2362    11721.332    1850.1645 
   58400    295.12235   -1165.1776    6339.7514     11479.41    1852.4797 
   58500    303.34576    -1160.014     6401.863    11722.366    1893.1177 
   58600    299.90341   -1153.5388    6403.9472    11657.385    1813.8302 
   58700    303.00152   -1156.7306    6362.0781     11678.51    1827.4249 
   58800    296.44262   -1153.8568    6429.4054     11608.59    1834.2878 
   58900    305.40591   -1157.8967    6384.3665    11750.998    1868.6782 
   59000    299.49788   -1154.4885    6344.8126    11588.637    1917.9721 
   59100    293.67828   -1163.2523    6487.4278    11598.161    1877.1616 
   59200    302.94301   -1157.2741    6454.1938    11768.832    1822.3556 
   59300    299.04927   -1160.2807    6408.3659    11636.814    1891.1408 
   59400    303.54546   -1162.9713    6340.1219    11661.933    1910.1146 
   59500    294.26479   -1163.8877    6322.5451    11445.173    1867.2944 
   59600    301.66238   -1155.1627     6442.365    11731.756      1891.54 
   59700    298.08543    -1156.593    6305.8037    11517.349    1944.4318 
   59800    300.85189   -1150.2399    6557.4348    11834.434    1914.1825 
   59900    297.82647   -1147.4857    6548.0831    11763.203    1899.8696 
   60000    302.62814   -1163.2536    6255.3092    11557.241    1836.6524 
   60100    297.10829   -1164.4235     6317.381     11500.22    1840.3934 
   60200    300.47527   -1168.6529    6467.4481    11717.988     1801.568 
   60300    298.58696   -1169.1292    6597.0214    11806.744    1813.1384 
   60400    302.58753   -1165.0311     6435.152    11734.439    1776.3804 
   60500    302.41878   -1164.4863    6433.2194    11729.446    1778.7154 
   60600     297.0751   -1164.6461    6491.8832    11673.791    1839.4175 
   60700    301.30643   -1160.3668    6357.8467    11634.429    1833.1564 
   60800    299.85772    -1163.605     6328.732    11571.127    1837.2283 
   60900    299.40568   -1156.8567    6496.8617    11736.348    1893.3582 
   61000    304.38889   -1158.8261     6537.263    11881.239    1908.3838 
   61100    303.40029   -1167.3508    6283.9397    11598.271    1823.6748 
   61200    298.19299   -1170.6731    6355.2911    11555.054    1835.5212 
   61300    301.32448   -1162.2861    6389.1321    11664.181    1855.7528 
   61400     298.8956   -1161.4924    6428.6054    11652.559    1890.2549 
   61500    298.63381   -1162.9389    6520.9643    11737.879    1862.5476 
   61600    294.65394   -1163.2797    6349.6782    11481.228     1750.802 
   61700    303.58188    -1163.727    6463.9785    11785.812    1918.5819 
   61800     302.4813   -1159.8572    6429.1898    11731.381    1909.3448 
   61900     300.3902   -1158.2094    6451.7928    11710.959    1937.5618 
   62000    301.54916   -1158.3616    6413.5292    11697.303    1860.9919 
   62100    296.00006   -1157.4006    6424.4478    11590.634    1850.8599 
   62200    298.71812   -1162.1563    6450.9912    11670.489    1897.7038 
   62300    305.74255   -1156.4292    6472.2666    11847.558    1953.0628 
   62400    302.61042    -1152.463    6421.4468    11733.791    1931.8062 
   62500    297.54524   -1161.1081    6349.0406     11544.53    1885.3429 
   62600    304.63173   -1158.6783     6469.086    11818.397    1893.0421 
   62700    297.89162   -1157.6385    6467.5679    11673.927    1870.4511 
   62800    301.70117    -1166.127    6495.3757    11774.631    1903.9074 
   62900    299.95872   -1161.7479    6330.0604     11576.47    1824.4297 
   63000    299.18088   -1163.3715    6455.7275    11683.897    1871.9587 
   63100    300.91467   -1159.8203    6414.6989    11683.459    1871.9783 
   63200    301.21314   -1158.4837    6463.8635    11740.336    1970.5056 
   63300    299.58318   -1160.2374    6337.7555    11577.653    1779.9026 
   63400    296.63977   -1160.5612    6581.0495    11757.742    1942.9957 
   63500    299.06421   -1162.2262    6431.6712    11658.493    1900.2553 
   63600    302.44373    -1158.076     6406.467    11709.637    1846.1791 
   63700    300.05169   -1166.2024    6417.8207    11661.762    1836.1061 
   63800     300.9387   -1162.4607    6483.4995    11750.132    1899.6534 
   63900    295.03633   -1171.2825    6448.9525    11580.669    1898.3996 
   64000    303.34879   -1167.0129    6392.5846    11706.153     1851.095 
   64100    297.12827   -1165.7704    6535.1115    11717.031    1981.7945 
   64200    299.36503    -1166.676    6276.3945    11505.193    1890.3771 
   64300    299.92373   -1164.2561    6420.8576    11664.012     1895.653 
   64400    301.51835   -1165.8182    6455.8669    11731.526    1926.4482 
   64500    295.69941   -1157.4057    6351.2869    11511.045    1860.5488 
   64600     295.8731   -1161.3683    6338.6477    11498.154    1856.0414 
   64700    300.54242   -1163.3168    6398.7664    11656.077    1867.8729 
   64800    297.46132   -1164.2052     6451.771     11642.37    1856.6429 
   64900    303.47615   -1161.7852    6464.6052    11786.122    1833.9746 
   65000    300.71846   -1157.4681    6474.0999     11741.02    1876.4239 
   65100    298.46373   -1154.8033    6366.1794    11587.596    1883.3086 
   65200    301.60066   -1149.6354    6366.1669    11659.767    1917.8728 
   65300    295.04026   -1152.7887    6519.7727    11670.067    1875.3865 
   65400    302.94045   -1156.3032    6416.1593    11731.714    1913.5562 
   65500    303.04107   -1155.9362    6386.7785     11704.85    1904.7875 
   65600    297.13097   -1152.9334    6429.5711    11624.385    1845.4149 
   65700    301.87703   -1153.9623    6401.2511    11696.428    1908.5051 
   65800    297.74512    -1154.325    6454.3766    11660.919    1896.7863 
   65900    299.16747   -1158.0354    6549.3846    11782.603    1917.9127 
   66000      303.242   -1152.9056    6337.1616    11662.556    1858.2584 
   66100    294.42262    -1152.614     6398.579    11535.853    1883.6629 
   66200    299.16982   -1156.7034    6411.4827    11646.084    1849.9216 
   66300    297.83795   -1152.1388    6440.3289    11651.041    1777.1227 
   66400     298.4983   -1155.4383    6381.4685    11602.988    1816.9477 
   66500    300.22624   -1156.8146    6543.8636    11800.922    1901.0087 
   66600    296.63028   -1161.9344    6471.4102    11646.526     1846.476 
   66700    300.05629    -1158.988    6364.3192    11615.574    1845.3137 
   66800    303.08394   -1164.8805    6376.7082    11686.751    1880.2505 
   66900    304.08669   -1162.0811    6525.9612    11860.226    1910.5901 
   67000    298.14946   -1164.8992    6423.3872    11627.994    1923.4136 
   67100    304.80566   -1165.1021    6384.8084    11731.411    1930.4306 
   67200    303.43088   -1169.0974    6385.8375    11699.075    1925.7416 
   67300      298.067   -1162.9849    6383.6945    11588.454    1884.3492 
   67400     297.6296   -1163.8874     6406.366    11600.878    1945.6215 
   67500    302.91708   -1169.0665    6420.8516    11723.144    1991.3106 
   67600    298.82833   -1175.5386    6315.6525    11524.123    1920.4262 
   67700    298.83804   -1172.6306    6431.0729    11642.658    1902.7505 
   67800    305.70239   -1168.6635    6507.8234    11870.022    1949.3564 
   67900    296.66616   -1172.3931    6452.1995    11617.624    1853.1287 
   68000     298.1891   -1170.0515    6386.8327    11587.134    1911.8805 
   68100    302.56826   -1166.9999     6309.764    11606.671    1979.7699 
   68200    297.37108   -1162.8192    6395.4651    11585.523    1885.3064 
   68300    301.20208   -1159.7793    6534.8323    11809.773    1904.5984 
   68400     296.6252   -1162.9119    6419.5451    11593.575    1920.2926 
   68500    299.87484   -1163.4419    6334.4103    11577.334    1881.7083 
   68600    298.78995   -1165.4686    6427.7387    11645.459    1821.2243 
   68700    299.19848   -1163.7261      6421.78     11649.97    1877.8661 
   68800    297.18505    -1157.291    6443.2567    11634.868    1884.2904 
   68900    308.81477    -1156.749    6439.5442    11880.149    1859.0727 
   69000    296.92716   -1156.7479    6414.4748     11601.12    1948.9747 
   69100    298.62564   -1155.0891    6402.0881    11626.677    1933.5651 
   69200    301.38538   -1155.6417    6406.5828    11689.577    1854.4187 
   69300     303.2838   -1151.1513    6510.9917    11839.033    1962.7205 
   69400    299.62552   -1154.5028    6484.7893    11731.326    1928.5741 
   69500    298.95666   -1151.0046    6358.3056    11594.051    1877.6604 
   69600    303.85935   -1156.2207    6437.4913    11772.759    1955.8065 
   69700    301.86554    -1157.009    6524.0425    11815.928    1984.8886 
   69800    297.83771   -1152.9607    6495.0096    11704.895    1914.6834 
   69900    297.66704   -1154.3515    6447.4806    11652.329    1927.7548 
   70000    300.53627   -1160.3678    6393.4953    11653.624    1904.5901 
   70100    301.16969   -1156.6307    6393.0553    11670.453    1882.0223 
   70200    302.83396   -1158.6874    6505.7194    11816.615    1938.8843 
   70300    297.01957   -1167.8593    6445.8229    11623.331    1914.0523 
   70400    299.68538   -1162.0679    6492.6998     11732.95    1932.8755 
   70500    304.62422    -1173.303    6395.5347    11730.061    1911.6096 
   70600    294.15996   -1168.1968    6340.7496    11456.829    1909.8743 
   70700    305.54324   -1163.9634    6457.2698    11820.769    2031.7097 
   70800     295.5775   -1169.1498     6407.817    11553.227    1902.7024 
   70900    303.17312   -1165.6879    6441.4512    11752.592    1965.4884 
   71000    296.54395   -1170.9748    6425.6634    11589.895    2026.6951 
   71100    296.78845   -1169.7508    6379.8486    11550.528     1936.404 
   71200    299.35879   -1168.7773    6403.9865     11630.55    1940.9176 
   71300    295.49629   -1174.1446    6342.5603    11481.241    1871.0291 
   71400    300.81139   -1173.4518    6405.8234    11658.745    1882.6415 
   71500    298.84627   -1168.2029    6496.0244    11712.214    1907.6639 
   71600    296.81133   -1170.8109    6466.3583    11636.466    1914.8106 
   71700    302.16586   -1166.6642    6435.4284    11724.074    1962.2194 
   71800    301.68707   -1169.4894    6347.4884     11623.08    2006.8446 
   71900    295.97781   -1161.6982    6358.8469     11520.26    1935.4205 
   72000    303.05437   -1161.4193    6411.7817    11724.654    1876.0151 
   72100    297.00591   -1159.7875    6483.4791    11668.767    1876.4295 
   72200    298.42435   -1163.2535    6410.5146    11622.639    1915.8828 
   72300     301.2182   -1158.5054    6465.9334    11742.493    1932.4451 
   72400    295.94229    -1161.006    6387.9682    11549.315    1861.1969 
   72500    302.28262   -1149.2677    6483.5713    11792.108     1953.724 
   72600    302.37039   -1156.3141    6429.1358    11732.501     1932.153 
   72700    302.09271   -1157.9993     6366.178    11661.926    1897.3025 
   72800    299.80966   -1152.6203    6508.9983    11761.351    2000.8373 
   72900    298.83792   -1154.8693    6411.7237    11641.068    1977.7423 
   73000     295.9357   -1149.7289    6436.7452    11609.229    1935.0782 
   73100    301.39994   -1151.7851    6368.0936    11655.256    1921.9811 
   73200    299.43548   -1151.9305    6429.5261    11674.575    1958.0521 
   73300     298.7232   -1158.4984    6540.5379    11763.802    1992.9836 
   73400    299.18679   -1154.1147     6425.259    11662.811    1929.0752 
   73500    297.49898   -1155.7494    6407.3389    11607.199    1933.1553 
   73600    298.46754   -1157.0761    6364.1967    11583.422    1962.5916 
   73700    301.22622   -1160.9049    6363.3276    11637.659    1819.6509 
   73800    299.26981   -1159.8271    6576.2919    11809.905    1939.8896 
   73900    299.72123   -1162.1405    6430.5806    11671.524    1906.5731 
   74000    299.32221   -1159.8345    6346.5048     11581.23    1894.8343 
   74100    301.75594   -1165.5399    6345.1043    11626.117    1894.7674 
   74200    299.67345   -1162.2466    6415.6282    11655.445    1850.6685 
   74300    303.13186   -1162.8827    6491.5433    11804.608    1868.1201 
   74400    299.90923   -1169.1299     6408.899     11646.87    1825.7983 
   74500    294.34377   -1165.6147    6349.8669    11472.455    1851.8171 
   74600    302.88533   -1168.2379    6337.0008    11639.443    1853.3436 
   74700    295.56232   -1168.6271    6517.1048    11662.713    1948.8088 
   74800    301.75128   -1166.5606    6485.1587    11765.051    1968.6328 
   74900    303.58572   -1171.7038    6363.1199    11677.059    1921.2624 
   75000    296.33882   -1159.4474     6269.616    11440.993    1837.8523 
   75100    304.49427   -1159.0978    6460.1952     11806.15    1965.1938 
   75200    301.61157   -1170.2081    6491.7647    11765.025    1931.9456 
   75300    297.08912   -1158.1256     6440.416    11629.144    1844.7986 
   75400    300.21939   -1162.9154    6531.5819    11782.393    1933.6597 
   75500    297.51363   -1160.3314    6320.2378    11515.829    1890.3438 
   75600    304.13964   -1167.6573    6406.0486    11735.868    1917.7759 
   75700    297.61435   -1169.8932    6381.5672    11569.748    1835.2185 
   75800    300.33361   -1162.7162    6480.5057    11733.956    1941.6382 
   75900    300.71992   -1153.7812    6382.1957    11652.834    1857.7217 
   76000    297.26058   -1157.8156    6509.5376    11702.238     1929.535 
   76100      302.226    -1158.471    6461.4539    11759.578    1971.6439 
   76200    298.81341   -1152.8251    6481.1458    11712.011    2004.9374 
   76300    294.76802   -1150.7284    6249.9004    11396.438     1890.767 
   76400    299.47816   -1156.6713    6309.6047    11550.825     1921.587 
   76500    299.27169   -1150.6971    6621.1951    11863.979    1923.9407 
   76600     298.5073   -1153.9868     6416.138    11639.302    1826.5814 
   76700    306.46201   -1158.6932    6455.9243    11844.322    1921.2896 
   76800    300.28925   -1157.6234    6424.6134    11682.209    1806.6181 
   76900    298.25673   -1162.2601    6366.4736    11576.011     1826.549 
   77000    304.57075    -1163.215    6463.7898    11807.262    1955.0068 
   77100    300.40341   -1156.0838    6414.6916    11676.266    1957.8399 
   77200    301.88664   -1151.6217    6416.5427    11714.266     1898.988 
   77300    295.94481   -1159.1785    6430.0145    11593.243    1846.2518 
   77400    300.38374   -1154.7559    6300.0108    11562.493    1861.5049 
   77500    302.72452   -1160.6089    6461.2694    11767.905    1939.6591 
   77600    301.04564   -1164.5155      6419.04    11685.903    1920.1371 
   77700    297.53049   -1160.9855    6334.9865    11530.283    1848.4806 
   77800    300.00797    -1162.025    6500.0428    11747.228    1875.3344 
   77900    297.86102    -1160.158    6407.1251    11610.311    1885.4887 
   78000    301.43727   -1163.6462     6289.627    11565.726    1871.1672 
   78100    299.09588    -1159.686    6466.5686    11696.607     1915.328 
   78200    300.78853   -1164.2018    6522.4608    11784.144    1981.0528 
   78300      300.699   -1165.4418    6411.4778    11670.009    1907.8105 
   78400    296.88746   -1166.3233    6398.3128    11574.535    1864.4721 
   78500    298.14514   -1166.6859    6449.3808    11652.108    1883.4589 
   78600    299.05615   -1159.7694    6427.8774    11656.984    1894.4657 
   78700    297.71737   -1164.5908    6502.0926    11697.777    1990.2924 
   78800    300.60021   -1162.6652    6316.4746    11575.672    1920.4297 
   78900     299.7233   -1161.9408     6404.956    11646.144    1960.4184 
   79000    296.67875   -1162.9355    6369.6064    11544.757    1925.7343 
   79100    300.71315   -1164.1931     6501.165    11761.247     2000.712 
   79200    296.27879   -1157.8093    6407.0372     11578.77    1956.5174 
   79300    303.17678   -1156.0007    6429.3618    11750.268    1962.9505 
   79400    297.69623   -1158.8802    6411.4338    11612.377     1897.639 
   79500    299.62146   -1157.1032     6368.199    11612.048     1952.213 
   79600    297.39093   -1160.9182    6459.0737    11651.457    1991.5058 
   79700    303.36038   -1162.0841    6391.5185    11710.263    1906.4454 
   79800    300.42157   -1161.9805    6502.3293    11758.395    1960.4223 
   79900    298.22202   -1163.3708    6377.5894    11585.275     1927.452 
   80000     302.4357   -1161.0571    6511.2955    11811.313    1961.7575 
   80100    298.29197   -1162.9963    6538.0704    11747.624    1957.6906 
   80200     303.3196   -1164.4566    6362.0987      11677.6    1924.0657 
   80300    293.21491   -1159.4666     6444.822    11549.442    1902.9559 
   80400    305.97958   -1150.9819     6484.688     11870.49    1966.1335 
   80500    304.66294   -1161.0489    6416.4893    11764.097    1980.0368 
   80600    300.47995   -1157.5105    6322.6357    11584.418     1892.933 
   80700    302.58311   -1162.3727    6425.1364    11726.987    1901.2433 
   80800    294.13058   -1166.2712     6457.077    11574.454    1891.5936 
   80900    301.32904   -1160.8629    6479.6288    11756.199    1926.2649 
   81000    303.70455   -1160.9362    6409.6416    11736.887    1907.1542 
   81100    300.16056   -1158.5369    6482.6867     11736.62    1897.6652 
   81200    306.00271   -1157.2347    6381.7951    11761.839    1941.3582 
   81300    297.96823   -1154.2938    6431.3126    11642.653    1884.6179 
   81400    300.92721   -1149.2289    6497.1593    11776.779    1938.7003 
   81500    299.31788   -1155.3539    6408.8834    11647.997    1925.2624 
   81600    301.61077   -1157.3814    6429.6375    11715.707    1943.5584 
   81700    299.12907   -1159.9087     6336.744    11567.269    1867.9943 
   81800    299.80973     -1153.12      6400.59    11652.445    1863.6566 
   81900    303.04852   -1156.5371    6560.9641    11878.594    1964.4936 
   82000    297.02053   -1158.4259    6422.8165    11609.778    1891.4315 
   82100    300.84248   -1157.8381    6404.3985    11673.598    1957.0817 
   82200    300.42143   -1156.9533    6456.3382    11717.428    1993.0212 
   82300    304.41336   -1155.2889     6460.642    11808.678    2002.0767 
   82400    297.86005   -1154.7033    6495.0934    11703.713    1984.3295 
   82500    301.53566   -1156.5868    6429.1173    11714.377    1910.8319 
   82600    296.80292   -1153.5718    6427.8166    11614.984    1869.7294 
   82700    300.09645   -1152.6228    6492.7741    11751.251    1970.9354 
   82800    302.40618   -1151.7642    6452.2049    11760.885    1914.6478 
   82900    299.78716   -1162.9955    6378.1361    11619.633    1910.6468 
   83000    291.09007   -1161.6063    6398.2451    11455.332    1931.8558 
   83100    306.03016    -1159.639    6470.1933    11848.419       1970.1 
   83200    296.99676   -1163.6353    6437.3067    11618.551    1941.8384 
   83300    299.05618   -1160.8684    6404.0305    11632.039    1957.7302 
   83400    299.06032   -1157.0022    6372.3247    11604.287    1927.2612 
   83500    303.21703   -1152.9074    6400.7998    11725.659    1938.2345 
   83600    298.71856    -1160.467    6382.8889    11604.086     1910.846 
   83700    304.57493   -1161.0795    6484.8202    11830.517    2013.0588 
   83800    297.24866   -1169.0907    6366.3585    11547.529    1875.4601 
   83900     296.1189   -1167.9847    6456.8361    11614.977     1928.706 
   84000    302.64413   -1164.0965    6369.7161    11671.147    1884.1407 
   84100    300.41832   -1162.0959    6461.7069    11717.587    1917.4609 
   84200    300.59778   -1166.6893    6306.8661    11561.987    1827.7484 
   84300    304.58293   -1165.1152    6473.9865    11815.818    1928.4612 
   84400    296.88945   -1161.5548    6400.8549    11581.888      1880.96 
   84500    304.20697   -1162.6329    6337.9212    11674.203    1855.8962 
   84600    299.77291   -1162.7291     6426.194    11667.653    1937.5701 
   84700    298.22233   -1162.8892    6434.2328    11642.406    1920.7126 
   84800    297.28911   -1167.0196    6340.3333    11524.439    1958.7534 
   84900    301.29353   -1168.3931    6422.9537    11691.235    1984.0975 
   85000    297.68548   -1164.3425     6424.318    11619.569    1930.4403 
   85100    299.41992    -1162.945    6432.3278     11666.03    1941.0249 
   85200    301.74452   -1162.3067    6324.1179     11608.12    1873.3222 
   85300    297.36598   -1162.8241    6468.6301    11658.574    1903.5315 
   85400    301.53041   -1162.4033    6514.7149    11794.046    1900.9072 
   85500    299.77292   -1162.9705    6354.3946    11595.613    1786.1063 
   85600    301.20293   -1165.0754    6398.1519    11667.815    1858.5992 
   85700    293.79261   -1166.6431    6466.4665    11576.252    1951.2216 
   85800    299.18071   -1167.1539    6401.6972     11626.08    1898.7485 
   85900    301.48953   -1161.6309    6536.1834    11815.414    1953.1066 
   86000    298.59918   -1158.4334    6472.8813    11693.561    1920.3268 
   86100     299.3443    -1156.805    6310.8531     11549.08    1918.0848 
   86200    301.33241   -1157.5879    6378.9654    11658.882     1923.915 
   86300    300.55877   -1157.2185    6445.8076    11709.566    1922.8196 
   86400    295.08266   -1158.7091    6498.4358    11643.715    1972.0415 
   86500     300.5569   -1159.3318    6497.9167    11759.522    1936.5907 
   86600    301.98733   -1155.6897    6384.8514    11680.658    1846.7921 
   86700    298.26895   -1162.3136    6419.3085    11629.053    1881.6497 
   86800     299.2943    -1161.359    6520.2805    11752.885    1920.0652 
   86900    302.01554   -1159.7462    6473.9595    11766.312    1875.1339 
   87000    301.24709   -1154.2241    6375.1606    11656.618    1940.5862 
   87100    293.59968    -1161.031    6486.9772    11598.253    1933.3829 
   87200    298.53248   -1155.2347    6419.2637    11641.717    1887.9142 
   87300     300.2943   -1153.7266    6417.0581    11678.658    1914.4738 
   87400     298.3342   -1157.5851    6478.3489    11694.216    1913.6533 
   87500    302.34973   -1159.8526    6430.6888    11730.074    1860.1655 
   87600    297.49216   -1161.4075    6429.3785    11623.435    1839.3901 
   87700    301.92273   -1164.0087    6486.6601    11772.767    1861.7928 
   87800    296.42988   -1157.0288    6418.5813    11594.322    1881.2224 
   87900    297.23518   -1160.6984     6455.773    11645.048    1939.4554 
   88000    302.60383   -1156.9071    6334.8481    11642.607    1875.0762 
   88100    299.47979   -1162.8517    6487.3749    11722.449    1927.9449 
   88200    301.34619   -1161.9234    6426.1368    11702.012    1926.6611 
   88300    301.84898   -1163.4249    6377.3153    11662.431    1971.8657 
   88400    299.47017   -1161.6022    6494.6387    11730.757     2024.335 
   88500    300.42628    -1165.471    6445.7102    11698.386     1959.456 
   88600    299.49487   -1162.4571    6451.0965    11686.888    1944.6634 
   88700    301.46328   -1168.3412    6297.3196    11569.279     1858.541 
   88800    301.56015   -1166.4277    6405.4783     11681.42    1886.2947 
   88900    298.21231   -1161.1654     6550.431    11760.114    1918.1781 
   89000    303.11787   -1167.2048    6377.9217    11686.365    1891.3785 
   89100     298.6447   -1164.7914    6374.9911    11590.285    1898.3651 
   89200    303.65047   -1165.8355    6565.3369    11886.528    1996.9153 
   89300    299.29975    -1168.899    6406.3352    11631.516    1948.8359 
   89400    297.48239   -1167.9033    6356.4573    11543.809    1965.6705 
   89500    297.81659   -1167.2548    6460.9657    11656.105    1937.3018 
   89600    300.20009   -1166.7361    6410.2471    11656.825    1889.7329 
   89700     304.0984   -1169.9028    6351.6475     11678.34    1852.4303 
   89800     295.5149   -1167.9568     6437.242    11582.508    1830.7502 
   89900    302.34306   -1170.3213     6411.356     11700.13    1856.3532 
   90000      297.816   -1164.5608    6305.9708    11503.792    1786.1435 
   90100    301.07611   -1162.4504    6451.3473    11720.926    1867.2297 
   90200    297.31678   -1160.7186    6512.8323    11703.831    1931.1052 
   90300    301.73754   -1162.5445    6427.9868    11711.602     1901.101 
   90400    296.37702   -1166.0989    6241.2945    11406.836    1921.7433 
   90500    299.99506   -1163.1839    6428.6027    11674.353    2020.5586 
   90600    298.55876   -1165.9263     6381.852    11594.176    1899.4067 
   90700    298.01742   -1158.2766    6466.0615     11674.47    1950.7368 
   90800    302.34805   -1158.8954    6494.5504    11794.857    1945.6578 
   90900    300.87226   -1161.3209    6411.7166     11678.07     1938.855 
   91000    300.03817   -1161.2609    6355.6493    11604.244     2006.112 
   91100    302.91484   -1164.5141    6380.4706    11687.267    1960.6412 
   91200    299.62321   -1156.4286    6554.3653    11798.927    1941.1743 
   91300    301.94175   -1161.8186    6417.6244    11706.328    1854.6184 
   91400    302.39307   -1156.9612    6507.5401    11810.743    1931.4176 
   91500    298.97747   -1160.3724    6426.9679     11653.79    1863.0801 
   91600    299.02526   -1159.6699    6393.7874    11622.333    1903.9405 
   91700     299.2769   -1155.5204    6398.2192    11636.291    1903.4274 
   91800     294.9302   -1161.9182    6489.5279    11628.341    1899.3774 
   91900    298.62132   -1165.9115    6404.0036    11617.678    1905.9001 
   92000    300.06683   -1162.3054    6429.5612    11677.723    1965.6275 
   92100     299.2175   -1159.7413    6289.4812    11522.063    1879.9087 
   92200    299.50007   -1163.6612    6510.2333    11744.932    1963.8655 
   92300    297.91734   -1167.4711    6426.3172    11623.393    1867.9984 
   92400    304.79342   -1166.5674    6396.1872    11741.063    1919.6739 
   92500     299.6307   -1168.2335     6352.841    11585.758    1842.5036 
   92600    301.63714   -1165.1022    6525.7411    11804.654    1899.2892 
   92700     298.0985     -1170.49    6488.9577    11686.885    1907.4363 
   92800    299.76537   -1164.9454    6370.0199    11609.102    1842.7371 
   92900    297.19049   -1162.6116    6432.5654    11618.973    1851.5978 
   93000    304.66831   -1167.2605    6436.7843    11778.295    1880.3495 
   93100    297.03628   -1165.9874    6400.7652    11580.502    1875.0106 
   93200      300.103   -1167.9875    6391.8007    11635.053    1922.2888 
   93300    303.44882   -1167.4466    6496.5763    11811.848    1858.1092 
   93400    294.49027   -1171.9625     6454.456    11573.826    1857.3706 
   93500    300.14424   -1167.0719     6549.205    11794.254    1945.6069 
   93600    297.40248   -1165.0395    6279.7724     11468.28    1850.8787 
   93700    297.62604   -1162.7818    6335.7535    11531.295    1933.1892 
   93800    301.20539   -1158.2837     6410.636    11687.143    1927.2816 
   93900    296.86864    -1158.862    6566.5186      11749.8    1960.6609 
   94000     301.1317   -1166.7469    6371.2998     11637.77    1843.9682 
   94100     295.8437   -1167.3058    6415.8412    11568.782     1858.866 
   94200    299.37765   -1163.2997    6434.9294    11667.374    1825.1703 
   94300    299.88761   -1162.3322    6509.2975    11753.604    1801.3895 
   94400    305.84849    -1165.328    6358.2792    11726.935     1882.823 
   94500    300.11917   -1165.1956    6403.5894    11649.979    1890.9588 
   94600    294.59629   -1161.9906    6520.6221    11652.229    1913.8692 
   94700    301.93189   -1155.7562    6456.0566    11750.612    1885.2471 
   94800    300.15327   -1158.0214    6350.8901    11605.183    1929.6356 
   94900    305.35108   -1157.6763    6360.6984    11726.379    1901.2692 
   95000    308.32328   -1160.9174    6545.0498    11970.986    1971.9366 
   95100    305.87757    -1159.035    6523.9673    11899.537    1938.4683 
   95200    298.18167   -1167.2178     6339.412    11542.388    1898.1229 
   95300    299.50581   -1169.1271    6432.1416    11661.496     1918.427 
   95400    299.36426   -1159.2654    6490.7893    11726.982    1880.9213 
   95500     302.1301    -1164.587    6472.0711     11762.03    1904.1499 
   95600    300.50797   -1156.4579    6444.9001    11708.334    1921.5845 
   95700    295.58161    -1160.999    6443.8326    11597.481    1927.7868 
   95800    302.04619   -1163.4439    6512.1269    11801.436    1992.3191 
   95900    301.81148   -1162.4833     6389.872    11675.128    1926.2785 
   96000    301.04614   -1162.8214    6365.9495    11634.517    1892.2357 
   96100    301.42633   -1167.0617    6495.0427    11767.492    1964.7247 
   96200    300.43609   -1169.1305    6469.6436    11718.869    1875.9548 
   96300    297.02533   -1167.7853    6512.0455    11689.751    1877.8086 
   96400    303.11822   -1167.7085    6411.3955    11719.343    1886.7886 
   96500    298.79007   -1165.3734    6415.1733    11632.991    1960.2434 
   96600    298.76868   -1166.0311    6417.0644    11633.768    1997.3061 
   96700    298.36119   -1164.2018    6461.9791    11671.806    1967.3038 
   96800    294.07319   -1164.3918    6388.7004    11506.731    1854.6168 
   96900    303.56251   -1163.1003    6445.8568    11767.904    1906.6726 
   97000    295.79211   -1170.7117    6421.7832    11570.216    1914.4217 
   97100     302.8218   -1165.4915    6328.5148    11632.346    1915.9919 
   97200    299.99393    -1168.959     6479.699     11719.65    1962.0881 
   97300    300.78621   -1166.7554    6525.5442    11784.625    1904.0219 
   97400    300.54696   -1162.0948     6405.474    11664.104    1920.4368 
   97500     300.0695   -1163.7648    6406.8045    11653.564    1927.7485 
   97600    294.77646   -1163.0824    6413.9298    11548.294    1918.3939 
   97700    301.73078   -1166.0559    6335.9611     11615.92    1901.6895 
   97800    297.05371   -1164.8588    6461.6707    11642.909    1912.1896 
   97900    301.91069   -1163.3925    6405.5625    11692.029    1902.5407 
   98000    302.42088   -1156.6109    6434.4338    11738.581    1909.2604 
   98100    297.14222   -1160.1321    6357.3152    11545.171    1889.4885 
   98200    299.46166   -1164.6803    6393.5118     11626.37    1888.2153 
   98300     297.3646   -1164.8502    6353.8783    11541.766    1864.3881 
   98400    304.40804   -1162.7535    6459.5347    11799.992    1929.4924 
   98500    298.85367   -1164.2113    6504.0191    11724.358    1924.8219 
   98600    305.19589   -1161.4487    6436.2487    11794.842    1882.3521 
   98700    301.26938   -1156.4279    6548.0148    11827.745    1981.8897 
   98800    298.29664   -1163.9192    6356.9099    11565.641    1897.3105 
   98900    299.08305   -1155.6929    6462.4873    11696.245    1919.2911 
   99000    295.68834    -1159.107    6528.5052    11686.326    1874.4741 
   99100    300.87315     -1165.07    6447.8175    11710.441    1928.5922 
   99200    299.25509   -1160.9567    6400.2913     11632.46    1886.6096 
   99300    298.26633   -1162.2102    6403.1944    11612.987     1863.492 
   99400    304.08417   -1166.0751    6337.4991    11667.716     1891.341 
   99500    296.62469   -1162.3142    6490.8605    11665.478    1897.5151 
   99600    302.86976    -1160.942    6453.5221    11762.928    1850.2964 
   99700    297.30289   -1160.5091    6457.3621    11648.273    1936.6731 
   99800    301.10953   -1163.5588    6317.5945    11586.779    1914.3351 
   99900    298.82514   -1155.5086    6357.5979     11586.03    1868.9793 
  100000    301.82433   -1159.8732    6473.3041    11761.445    1961.2704 
  100100    297.41379   -1164.2207    6427.2594    11616.828    1926.9393 
  100200    301.00558   -1156.4588     6433.767    11707.831    1915.0817 
  100300    299.74949   -1161.7185    6461.3612    11703.331    1958.3645 
  100400    300.68206   -1160.0331    6406.5042    11670.082    1928.5586 
  100500    301.46827   -1158.5858     6379.997    11661.818    1797.4482 
  100600    300.26727    -1163.247    6551.4409    11802.943    1917.2405 
  100700    300.86796   -1161.2187    6422.5579    11688.921    1898.3586 
  100800    298.49067    -1159.652    6343.2698    11560.413     1875.018 
  100900     297.0877   -1160.8551    6529.5865    11715.554    1954.5786 
  101000    299.78618   -1162.1941    6444.8434    11687.121    1904.5805 
  101100    293.84046   -1163.1438    6483.7393    11598.046      1949.12 
  101200    295.96495   -1158.7373    6363.1805     11527.28    1898.3756 
  101300    298.95681   -1159.9546     6381.156    11607.955    1926.4357 
  101400    303.82955   -1166.1672    6446.1751     11770.86    1909.6208 
  101500    297.80482   -1167.1676     6478.665     11673.64    1901.6432 
  101600     302.5716   -1171.0071    6374.9212    11667.892    1857.2785 
  101700    302.27038   -1166.1499    6480.3685    11771.762    1928.8753 
  101800    299.56777   -1162.5698    6488.6292    11725.865    1941.8954 
  101900    298.89782   -1157.7488    6403.8697    11631.614    1938.5606 
  102000    300.10826   -1164.5314    6376.8832    11623.704    1979.2287 
  102100    298.58779   -1161.7772    6409.2444    11626.337    1922.7763 
  102200    303.83135   -1166.6437    6378.7978    11703.045    1867.1969 
  102300    301.46445    -1163.889    6391.7246    11668.161    1897.8012 
  102400    302.32775   -1164.1775    6401.4745    11696.065    1943.7527 
  102500    300.48641   -1168.5939    6529.5178    11780.355    1951.2549 
  102600    297.76166   -1168.6672    6304.6977    11497.251    1828.3897 
  102700    301.03346   -1175.3237    6353.2331    11609.027    1841.7321 
  102800    299.29429   -1165.8601    6480.9537    11709.057    1878.6948 
  102900    301.96843   -1164.2814    6455.0635    11741.874    1884.9643 
  103000    298.32051   -1164.1587    6399.0945    11608.096    1945.3979 
  103100    298.47512   -1167.4123    6408.0368    11617.087    1952.2438 
  103200    303.34098   -1159.6196    6433.0072    11753.802    1875.7026 
  103300    294.53613   -1160.4496    6389.8295    11521.693    1826.0587 
  103400    302.82558   -1160.4173    6475.0615    11784.048    1885.0964 
  103500    299.78009   -1160.3456    6435.8224    11679.819    1896.6487 
  103600    298.40417    -1160.563    6433.8558     11648.24    1915.4374 
  103700    302.99117    -1163.044    6462.4503    11772.348    1970.6394 
  103800    298.25776   -1158.4519    6393.4729     11606.84    1902.7857 
  103900    301.93222   -1157.3353    6515.4674    11808.451    1923.8411 
  104000    297.00485   -1151.9718    6443.9842    11637.065    1899.3859 
  104100    302.97518   -1158.0091    6383.1371    11697.728    1955.7625 
  104200    300.73437    -1153.563    6464.1979    11735.363    2013.1746 
  104300    297.63168   -1155.8273    6322.9583    11525.575    1887.9024 
  104400    292.79667   -1158.2628      6396.05    11492.939    1938.0963 
  104500    294.68706   -1158.0437    6507.5737    11645.067    1938.4184 
  104600    304.21749   -1157.8428     6484.344    11825.641    1866.8869 
  104700    297.41481   -1161.5985     6471.213    11663.425    1891.4009 
  104800    299.85505    -1162.901    6402.2861    11645.328    1861.0622 
  104900    302.38314   -1158.6942    6403.7191    11704.977    1866.7742 
  105000    299.80087   -1155.3172    6516.1078    11765.576    1880.4882 
  105100    302.08259   -1155.0089    6481.6739    11780.196    1916.4783 
  105200    293.36097   -1159.7946    6402.3392    11509.752     1859.956 
  105300     303.6245   -1157.2493    6429.7849    11759.007    1933.7634 
  105400    296.26191   -1164.0063    6435.6644    11600.839    1920.2407 
  105500    293.98574   -1166.6382    6434.5312    11548.447    1873.3723 
  105600    300.22781   -1168.2909    6369.2809    11614.897    1807.8608 
  105700    304.22364   -1172.0805    6473.1038    11800.294    1896.2212 
  105800    299.95401   -1173.0048    6422.0021    11657.054    1867.3984 
  105900    296.66945   -1164.8911    6397.5708    11570.567    1915.9423 
  106000    301.93047   -1166.6169    6396.6509    11680.315    1942.6214 
  106100    297.66827   -1162.5417    6334.5783    11531.262     1834.062 
  106200    301.69113   -1162.7939    6400.4866    11682.861    1881.2997 
  106300    291.24912   -1172.1133     6451.698    11501.675    1898.9201 
  106400    300.27345   -1164.6143    6427.4905    11677.758    1898.1931 
  106500    302.41195   -1170.9305    6398.0785    11687.715    1906.4215 
  106600    299.69997   -1166.1215    6382.9039    11619.412    1898.2005 
  106700    301.11583    -1170.449    6421.5219     11683.95       1854.8 
  106800    301.80632    -1166.749    6444.7893    11725.669    1864.3322 
  106900    298.32443   -1166.6257    6438.1882    11644.806    1889.0211 
  107000    300.11901   -1165.6218    6321.1984    11567.159    1739.1728 
  107100    301.74024   -1155.2958    6529.7927    11820.714     1860.576 
  107200     296.1898   -1161.3854     6393.457    11559.712    1908.3227 
  107300     298.5297   -1159.2194    6357.0289    11575.438    1900.2868 
  107400    299.19656   -1164.3008    6359.5972    11587.172    1891.9817 
  107500    303.16039   -1163.1663    6476.8608    11790.251    1999.2017 
  107600    296.91133   -1154.5603    6351.4703    11539.965    1919.6804 
  107700    298.29591   -1157.7183    6422.9222    11637.838    1914.9257 
  107800    301.47123   -1159.6579    6427.4315    11708.244    1924.3474 
  107900    297.51247   -1149.6053    6342.0505    11548.343    1900.2917 
  108000    300.79402   -1154.7695    6374.6969     11645.93    1919.2511 
  108100    300.19144   -1151.4444     6470.426    11732.111    1919.1973 
  108200    299.97443   -1150.3498    6481.0792    11739.223    1954.8378 
  108300    288.63268   -1154.5269    6446.2914    11457.959    1910.8544 
  108400    302.96345   -1158.9257    6319.5663     11632.99    1880.7177 
  108500    294.33198   -1157.1008    6441.6737    11572.524    1906.5641 
  108600    301.67124   -1157.0076    6535.5206    11823.256    1923.6845 
  108700    298.54833   -1159.3326    6427.9642    11646.659    1865.0636 
  108800    301.19182   -1154.9005    6481.6947    11761.295    1893.8323 
  108900    301.39789   -1156.0769    6415.2477    11698.074    1875.7695 
  109000    295.34812   -1153.0027    6402.1456    11558.802    1882.6054 
  109100    305.32868   -1160.4917    6447.6242    11810.011      1940.27 
  109200     300.9309   -1161.8156    6414.7746    11681.886     1838.114 
  109300    299.08743   -1160.5342    6493.5446    11722.555    1900.5959 
  109400    300.38343    -1165.147    6359.6043    11611.688    1883.4892 
  109500    301.12604   -1164.6651    6335.9447    11604.375    1885.3683 
  109600    295.37203   -1169.5065    6492.2305    11632.894     1879.864 
  109700    296.27752    -1168.385    6384.5871    11545.717    1865.1399 
  109800    301.47242   -1172.7076    6359.1512    11626.939    1857.1659 
  109900    296.06722   -1165.9835    6471.5779    11630.616    1893.3717 
  110000     299.3904   -1163.8608    6377.2247     11609.38    1899.8093 
  110100    301.96835   -1162.2476    6345.0391    11633.882    1941.5313 
  110200    299.94978    -1168.399    6361.8591    11601.427    1898.1957 
  110300    300.99999   -1167.4227    6475.8321    11738.812    1997.0543 
  110400    300.84691   -1168.9324    6383.7541    11641.954    1995.4152 
  110500    299.86263    -1173.196    6433.6656    11666.575    1956.4457 
  110600     300.2278   -1173.5471    6375.4236    11615.783    1820.7077 
  110700    296.88361   -1171.5166    6594.5004    11765.447    1945.3928 
  110800     303.2099   -1169.6404    6363.9025    11671.876    1793.7005 
  110900    300.00184   -1168.7805     6405.198    11645.497    1839.9259 
  111000    298.49924   -1161.9569    6521.8818    11736.903    1885.4549 
  111100    300.59056    -1163.318    6430.6506    11688.989    1875.9035 
  111200    296.78484   -1162.0477     6375.352    11553.657     1889.393 
  111300    303.34749   -1162.6527    6493.5912    11811.492     1985.564 
  111400    295.42289   -1162.3905    6454.4971    11603.363    1895.7202 
  111500     306.6216   -1164.9364    6396.5139    11782.078    1895.4822 
  111600    303.21556   -1165.5984    6459.6079    11771.745    1871.5108 
  111700    299.13491   -1161.3096    6417.8589    11647.108    1931.2145 
  111800    300.47229   -1156.1237    6464.3588    11727.364    1945.5805 
  111900    297.45101   -1157.0308    6332.3684    11529.922    1835.6693 
  112000    303.11822   -1158.3096    6417.4636     11734.81    1886.4433 
  112100    300.62789   -1150.4525    6433.5654    11705.567    1953.0195 
  112200    304.23547   -1154.7032    6488.8143    11833.635    1959.7858 
  112300     298.0297   -1157.1827    6462.3288    11672.093    1935.1736 
  112400    302.60117   -1157.2628    6366.7289    11674.076     1910.364 
  112500    300.65501   -1159.6621    6441.9912    11705.362    1866.3555 
  112600    300.83867   -1160.6647     6459.035    11725.327    1908.9706 
  112700    302.79787   -1155.2512    6513.7842    11827.345    1922.3361 
  112800    297.73268   -1158.0275    6553.8428    11756.417      1907.94 
  112900    302.58302   -1160.8169    6344.1246     11647.53    1919.3846 
  113000    299.88581    -1158.576    6380.4333    11628.457    1955.6363 
  113100    298.87967   -1162.0053    6499.5826    11722.683    1897.1268 
  113200    299.70919   -1158.6465    6387.2931    11631.474    1912.2822 
  113300    301.06256   -1168.8308    6373.3498    11636.259     1960.458 
  113400    298.04574   -1161.5325    6353.8772    11559.635    1823.3727 
  113500    298.40258   -1162.3574    6520.3709    11732.927    1918.4305 
  113600    296.62586   -1168.2456    6421.6841    11590.395    1938.7239 
  113700    304.34766     -1170.84    6315.1918    11646.273    1891.0185 
  113800    299.24773   -1165.1829    6424.2624    11652.048    1858.3833 
  113900    305.33778   -1168.7878    6445.3282    11799.614      1887.95 
  114000    300.38312    -1170.263    6488.8257    11735.787    1925.7544 
  114100    296.58219   -1169.1001    6315.5142    11482.438     1824.058 
  114200    297.76618   -1170.9057    6418.2857    11608.698    1939.4075 
  114300    302.75243   -1160.2211    6434.1962    11741.816    1899.2618 
  114400    304.56141   -1162.5625    6430.7097    11774.634    1894.3301 
  114500     298.4313   -1170.9275    6365.1169    11569.716    1899.5946 
  114600     295.5408     -1161.42    6456.4584    11608.814    1892.8932 
  114700    303.24112   -1166.6947    6436.1503    11747.737    1895.0394 
  114800    295.63886    -1168.877     6359.181    11506.175    1862.7198 
  114900    303.57715   -1166.0732    6479.2079    11798.595    1929.5161 
  115000    296.95498   -1166.5593    6444.1623     11621.59    1834.4031 
  115100    297.73109   -1162.9674    6489.0149    11686.616    1842.3888 
  115200    301.36117   -1164.8567    6511.0529    11784.315    1987.7786 
  115300    305.01147   -1163.3176    6370.6498    11723.434    1935.8506 
  115400    300.98092   -1158.5887    6428.6161    11700.023     1928.718 
  115500    303.01086   -1156.3703    6387.6387     11704.63    1869.2076 
  115600    302.61543   -1156.6299    6401.8285    11710.113    1887.7262 
  115700    299.63659   -1159.1706    6509.5532    11751.659     1969.517 
  115800    301.16914   -1159.4263    6444.4936    11719.084     1951.013 
  115900    296.90347   -1152.8756    6417.6659    11607.677    1949.2006 
  116000    300.21216   -1156.7019    6427.4647    11684.335    1859.6972 
  116100    301.69411   -1158.1095     6456.416    11743.538    1820.7539 
  116200    300.40895   -1153.0576    6444.4205    11709.139     1940.432 
  116300    303.89317   -1160.2502    6410.0311    11741.992     1926.436 
  116400    297.39099   -1152.5304    6441.9573    11642.729    1894.9102 
  116500    301.61948   -1161.8706    6400.1611    11681.928    1915.7478 
  116600    301.84425   -1159.8839    6524.5974    11813.153    1966.8969 
  116700    297.31942   -1160.6162    6392.8122    11583.969    1881.3368 
  116800    302.90662   -1161.1043    6380.7787     11690.81    1943.0491 
  116900    298.38067   -1161.9018    6378.1399    11590.683    1916.3142 
  117000    302.36031    -1164.501    6402.5431    11697.506    1831.9012 
  117100    293.18116   -1159.1973    6452.2004    11556.369    1891.0412 
  117200    300.86639   -1154.9113    6494.7693    11767.407    1945.4769 
  117300    298.35231   -1168.3236    6361.4693    11566.985     1865.437 
  117400    300.14766   -1165.9158    6352.5558    11598.834    1877.5947 
  117500    301.00364   -1163.3542    6465.6511    11732.778    1952.5465 
  117600    301.46906   -1169.0631    6483.2933    11754.654      1944.74 
  117700    300.52031   -1171.6033    6412.2436    11660.796    1829.0444 
  117800    300.07618    -1170.746     6331.249     11571.17    1898.1199 
  117900    301.12329   -1166.9193    6432.3751    11698.493    1928.3062 
  118000    300.23579    -1163.349     6412.466    11663.194    1876.3626 
  118100    295.71494    -1162.912    6418.6693    11573.253    1901.8809 
  118200    302.75661   -1160.0531    6391.2699    11699.147    1890.8634 
  118300    299.77862   -1163.3741    6388.5875    11629.524    1822.4074 
  118400    294.99838   -1164.9382    6446.3396    11583.589     1867.452 
  118500    302.83178   -1163.5368    6465.5312    11771.531    1953.7387 
  118600    300.25486   -1164.8177    6420.1221    11669.789    1827.2721 
  118700    300.81322   -1161.7778    6447.8929    11712.528    1911.7342 
  118800    298.35609   -1165.5527    6403.3312    11611.699    2001.9404 
  118900    295.32478   -1161.4734    6403.0164    11550.704    1895.6703 
  119000    297.61954   -1151.6396    6399.3245     11605.87    1860.4148 
  119100    300.29589   -1158.2532    6519.3197    11776.427    1970.7526 
  119200    301.75922     -1158.31    6434.7926    11723.105    1921.4259 
  119300    301.45724   -1158.6671     6450.405    11731.909    1932.9071 
  119400    297.27638   -1154.2161    6470.1189    11666.757     1933.171 
  119500    304.55697   -1158.8289    6445.1525    11792.716    1907.3729 
  119600     298.9578   -1155.4543    6420.9015    11652.222    1880.5475 
  119700    303.23151   -1156.9861    6597.7829    11918.873    1936.0908 
  119800    298.39778   -1159.1583    6391.2687    11606.921    1892.7711 
  119900    300.55571   -1157.0606    6302.7174    11566.568    1835.1344 
  120000     297.8911   -1156.3128    6542.3559    11750.029    1943.5801 
  120100    299.26343    -1157.251    6466.2037    11702.257    1885.7669 
  120200    302.62656   -1155.3515    6394.1019    11703.903     1910.732 
  120300    300.70275   -1156.9611    6425.2602    11692.352    1909.2543 
  120400    298.80743    -1166.954    6467.3777    11683.986    1952.0466 
  120500    304.22376   -1157.1983    6405.3316    11747.407    1907.9012 
  120600    298.43006   -1163.8604    6437.4662    11649.106    1932.2602 
  120700    303.93521   -1165.1261    6526.9676    11854.951    1989.1685 
  120800    303.99095   -1165.1775    6452.8816    11782.004     1893.774 
  120900    300.44594   -1167.9148    6333.4008    11584.053    1929.0936 
  121000    296.85176   -1166.9459    6410.1443    11584.981    1907.8467 
  121100    298.54158   -1164.5594    6529.7965     11743.12    1912.3021 
  121200    297.39666   -1161.6657    6379.6775    11571.435    1803.0572 
  121300    300.91178   -1167.4759    6394.0025    11655.045    1914.2711 
  121400      298.355   -1170.9513    6509.0536    11711.999    1901.2513 
  121500    301.45505   -1166.9306    6369.2263     11642.42    1812.8754 
  121600    300.21857   -1171.5779      6477.53    11719.661      1951.14 
  121700    298.96418    -1169.428    6416.5579    11634.041    1927.0457 
  121800    295.17443   -1168.1047    6409.6917    11547.536    1890.7086 
  121900    302.52883   -1172.9111    6307.5739    11597.727    1942.0063 
  122000    298.78214   -1161.9874     6459.466    11680.501    2002.7004 
  122100    299.34941   -1160.1925     6445.049    11679.997    1931.9735 
  122200     299.0894   -1163.3498    6363.5615    11589.798    1923.8131 
  122300    305.92213   -1157.6386    6336.8347    11714.753    1962.2508 
  122400    300.86162   -1166.8654    6394.5396    11655.121    1885.1701 
  122500    300.79571   -1165.7945    6414.7829    11675.027    1908.2245 
  122600    299.43819   -1167.4459      6392.74    11622.332    1883.7051 
  122700      293.393   -1163.0974    6525.3045    11630.098    1894.9439 
  122800     298.0562   -1161.7446    6436.3872    11642.156    1889.6277 
  122900    302.49253   -1162.5924    6401.6105    11701.307    1892.1857 
  123000    294.82765   -1160.9171    6349.0895    11486.713    1852.8248 
  123100    301.28497   -1152.4603    6423.1806    11707.211    1876.9514 
  123200     299.5058   -1149.5167    6499.5841    11748.549    1934.6307 
  123300    299.49174   -1155.0635    6509.4884    11752.606    1926.0813 
  123400    299.44027   -1156.6332    6368.2377    11608.686    1903.8038 
  123500    297.34652   -1162.7797    6422.5314    11612.104    1894.3185 
  123600    303.96543   -1161.1894    6506.2971    11838.863    1912.4836 
  123700    301.41234   -1164.1402    6444.6977     11719.77    1870.5874 
  123800    297.55552   -1155.9797    6432.6819    11633.519    1873.2155 
  123900    302.87592   -1158.7919    6432.1101    11743.797    1926.6256 
  124000    298.80129   -1155.4353    6424.4328    11652.429    1900.2358 
  124100    305.91178    -1155.682    6396.8454    11776.499    1906.2268 
  124200    297.76534    -1161.504    6472.2914    11672.087    1987.7833 
  124300    303.83193   -1159.0534    6348.8472    11680.697    1929.8603 
  124400    296.82053   -1162.1601    6404.5641    11583.519    1946.6744 
  124500     297.7096   -1168.0265    6413.5593    11605.642    1937.6965 
  124600    299.51647   -1165.5109    6477.0865    11710.286    1912.6857 
  124700    299.28089   -1167.5872    6345.1206    11571.211    1918.0702 
  124800    300.83846   -1164.0612    6464.0072    11726.898    2060.6962 
  124900    298.58012     -1170.21    6389.9668    11598.463    1927.4915 
  125000     302.0987   -1167.9445    6407.6471    11693.578    1856.2553 
  125100    299.32558   -1162.3903     6455.962    11688.203    1889.2761 
  125200    297.50091   -1164.1406    6459.9868    11651.497    1882.0573 
  125300    305.25803   -1167.6007    6400.4945    11754.263    1874.7436 
  125400    303.21966   -1168.1445    6360.3761    11670.054    1912.1889 
  125500    300.66804   -1165.6774    6397.6778    11655.312    1872.3538 
  125600    300.15114   -1167.0428    6445.8324    11691.058    1843.4903 
  125700    298.97019   -1172.0824    6471.1477    11686.105    1914.9649 
  125800    301.73139   -1172.1518    6299.5088    11573.385    1873.3922 
  125900    293.74727   -1155.1037    6415.5772    11535.933    1883.0034 
  126000    297.93891   -1163.8961    6480.5673    11681.679    1903.2775 
  126100    304.35928   -1157.4007    6481.0917     11825.86    1985.4197 
  126200    298.50655   -1159.7449     6369.329    11586.719    1890.7541 
  126300    301.95998   -1159.0338     6344.984    11636.862    1882.4106 
  126400    301.32738   -1161.1644    6422.9934    11699.226    1869.4364 
  126500    295.68143   -1165.5203    6448.9471    11600.207     1835.402 
  126600    301.50198   -1158.6019    6497.5543     11780.08     1809.862 
  126700    294.58868   -1160.2507     6440.092    11573.276     1819.242 
  126800     301.1357   -1162.4309       6395.6    11666.471    1873.3239 
  126900    293.69468     -1155.44    6421.4683    11540.364    1898.0921 
  127000    301.45855   -1155.9498    6362.7961    11647.046    1841.8101 
  127100    295.38505   -1155.9675    6403.0341    11557.515    1892.0541 
  127200    301.86766   -1156.6468    6425.7288    11718.021    1940.3571 
  127300      302.131   -1158.0561    6410.6664    11707.175    1889.2459 
  127400    298.53259   -1155.3126    6432.3546    11654.733    1921.3736 
  127500    299.68001   -1166.8914    6423.2773     11658.59    1851.8994 
  127600    294.12586   -1162.2779    6496.6818    11617.952    1869.9451 
  127700     299.3337   -1163.5286    6447.2313    11678.508    1923.8827 
  127800    301.20207   -1160.4553    6497.5554     11771.82    1967.3385 
  127900    299.35299   -1167.9835    6382.7851    11610.019    1928.1854 
  128000    300.40675   -1160.9525    6386.2789    11643.056    1901.8981 
  128100    296.36818   -1155.2196    6473.2851    11649.517    1875.5994 
  128200     303.3167   -1163.3612    6349.8627    11666.397     1870.708 
  128300    297.44019   -1162.7705    6446.0039    11637.587    1969.3062 
  128400    301.63882   -1162.1404    6373.6509    11655.561    1889.5406 
  128500    300.79087   -1169.6907    6428.2021    11684.447    1859.8347 
  128600    294.32452   -1177.8681    6425.2802    11535.204    1838.8585 
  128700    302.60307   -1171.0765    6387.8067     11681.38    1865.7126 
  128800    295.40117   -1170.5726    6432.1656    11572.386    1879.1646 
  128900    300.70064   -1166.5937     6486.269    11743.683    1888.8179 
  129000    298.70626   -1169.5953    6332.9381    11544.744    1892.0714 
  129100    297.94019   -1166.1498    6372.0054    11570.891    1948.5166 
  129200    297.59305   -1161.4735     6446.433    11642.578    1862.3958 
  129300    302.40923   -1171.1964    6462.6532    11751.966    1865.6356 
  129400    297.32026   -1158.8754    6342.1833    11535.099    1824.1296 
  129500    303.82511   -1161.8532    6315.1441    11644.048    1788.9007 
  129600    299.82243   -1159.2747    6487.3812    11733.353    1879.9629 
  129700    302.87143   -1164.1807    6493.6372     11799.84    1969.3813 
  129800    298.42229   -1166.1103    6330.9515    11540.176    1873.2464 
  129900    301.87547   -1164.9393    6449.1503    11733.317     1897.181 
  130000    297.04995   -1164.0861    6472.5144    11654.445    1917.7367 
  130100    301.38378   -1165.2759    6329.7175    11603.044    1927.8417 
  130200    298.99127   -1155.6431     6419.166    11651.013     1909.318 
  130300    300.42801   -1161.4498    6375.2808    11632.014    1912.4517 
  130400    301.34316   -1162.5443    6482.4971    11757.687    2000.5842 
  130500    295.54601    -1155.816    6454.6153    11612.686    1994.7735 
  130600    303.99392   -1157.0561    6318.4789    11655.787    1899.8414 
  130700    301.24437   -1155.4863     6455.711    11735.848    1917.6641 
  130800    295.42903   -1153.7386    6484.5476    11642.197    1899.5619 
  130900    300.43299   -1155.8984    6418.4576    11680.849    1890.0774 
  131000    299.93526   -1161.8224    6290.6207    11536.455    1855.7997 
  131100    296.88855   -1159.3159    6461.4427    11644.695    1911.2259 
  131200     305.6305   -1161.8795    6495.6254    11863.073    1937.2426 
  131300    300.96378   -1164.7101    6375.0428    11639.962    1860.9954 
  131400    299.37396   -1159.7873    6439.5597    11675.438      1905.86 
  131500    303.24284   -1162.5616    6510.7554    11826.512     1975.963 
  131600    297.63325   -1161.5789    6360.0272    11556.926    1898.3867 
  131700    301.05735   -1164.7586    6392.9524    11659.822      1919.24 
  131800    299.28272   -1164.2506    6470.8378    11700.303    1943.9324 
  131900     300.2054   -1167.2136    6377.6735    11623.888    1860.0654 
  132000    301.66053    -1167.003    6296.6614    11574.173    1846.0549 
  132100    305.44827   -1162.7908    6515.7982    11878.441    1937.3934 
  132200    303.54567   -1162.1242    6534.3289    11856.992    1913.5663 
  132300    300.70507   -1163.7784    6396.1891    11656.513     1876.594 
  132400    301.50235   -1167.7556    6460.5374    11733.917    1994.5619 
  132500    299.18679   -1174.4397    6396.1978    11613.425    1953.9589 
  132600    302.00312   -1168.2535    6423.3789    11706.959     1919.974 
  132700    296.27821   -1161.0616    6393.9215    11562.389    1932.9772 
  132800    302.12657   -1166.1808    6439.5647    11727.855    1912.0524 
  132900    299.58881   -1160.1123    6480.0611    11720.204    1891.7137 
  133000    300.60637   -1165.4641    6470.9819    11727.512    1941.0217 
  133100    296.59911   -1164.8126     6349.694    11521.266    1922.8743 
  133200    300.46732   -1163.7901    6307.3399    11562.573    1873.1586 
  133300    298.61555   -1167.4705    6383.6262    11595.619    1879.7035 
  133400    297.94575   -1165.3934    6459.1086    11658.869    1950.8161 
  133500    300.17285   -1165.0903    6442.4377     11690.08    1929.0905 
  133600    300.76924   -1159.4277    6336.9181    11602.964    1904.5056 
  133700    294.52936   -1156.9106    6364.5495    11499.807    1911.9112 
  133800    304.85201   -1158.2294    6505.9961    11860.462     1871.213 
  133900     299.7867    -1158.988    6526.7398    11772.235     1859.309 
  134000    299.83336   -1157.9528     6265.532    11513.059    1790.2818 
  134100    303.57565   -1160.2194    6487.6393    11812.848    1868.0896 
  134200    299.12095   -1157.6897    6428.7438    11661.314    1894.0252 
  134300    303.10518   -1154.8167    6394.8007    11715.361    1925.0913 
  134400    298.83439   -1160.0573    6522.9087     11746.99    1935.7131 
  134500    300.03162   -1154.9343    6524.9798    11779.761    1905.0401 
  134600     299.4712   -1158.4838    6355.0791    11594.338    1823.8861 
  134700    298.95215   -1165.4745    6321.3596    11542.539    1893.2057 
  134800    296.59509   -1157.6275    6376.1145    11554.786    1862.8863 
  134900    305.26133   -1158.2319    6543.9764    11907.184    1935.3125 
  135000    297.71984   -1158.0119    6408.5704    11610.886    1898.7933 
  135100    298.46957   -1161.9568    6408.7732    11623.161    1879.2239 
  135200     304.4825   -1164.1157    6497.3931    11838.079    1909.2548 
  135300    297.44488   -1155.0811    6447.5514    11646.924     1901.486 
  135400    299.37581   -1161.5991    6373.5116    11607.617    1849.6547 
  135500    297.86107   -1158.7654    6503.6174    11708.197    1888.5292 
  135600    301.93044   -1167.2001    6379.5075    11662.588    1893.9759 
  135700    300.89474   -1156.9136    6381.5975    11652.838     1909.882 
  135800    298.79128   -1159.1772    6548.8757    11772.916    1920.3754 
  135900    298.93404   -1167.8002    6525.2189    11743.686    1922.6866 
  136000    300.62025    -1167.398    6319.6041    11574.496    1865.0303 
  136100    300.58756   -1168.0193    6386.8454    11640.418    1844.8264 
  136200    300.75093   -1169.2317    6509.5171    11765.367    1880.9533 
  136300    297.61693   -1166.8045    6429.7565    11621.081    1876.6458 
  136400      303.307   -1160.0184      6493.47     11813.14    1927.0912 
  136500    297.14099   -1161.0346    6410.8968    11597.823    1890.1029 
  136600    307.31139   -1159.2776    6289.9901    11695.949    1919.6656 
  136700    298.92661   -1168.8201    6422.7974    11640.086     1914.733 
  136800     297.7331   -1161.3289    6453.9819    11653.264    1907.9444 
  136900    299.09458   -1160.9182    6419.5689    11648.347    1878.5623 
  137000    301.21545    -1168.573     6482.666    11749.099    1927.9533 
  137100    295.33438   -1162.5633    6382.1657    11528.968    1847.9497 
  137200    301.22503   -1165.3314    6390.7517    11660.631    1848.1172 
  137300    300.17233   -1160.6419    6438.8315    11690.911    1901.0763 
  137400    303.58843   -1153.2092    6463.2305    11795.722    1886.8866 
  137500    308.78218   -1160.6513    6446.8579    11882.864    1858.3915 
  137600    297.97747   -1156.4633      6477.32    11686.688    1957.9765 
  137700     298.9918   -1156.2667    6418.0893    11649.323    1907.8168 
  137800    299.46748   -1166.4847    6325.7546    11556.933    1807.5935 
  137900    298.80208    -1163.626    6541.1433    11760.965    1908.2657 
  138000     296.6013   -1159.4669     6532.352    11709.317    1927.2143 
  138100    302.56791    -1157.997    6353.9493    11659.851    1843.4938 
  138200    295.78997    -1159.854    6343.9191    11503.164    1857.8443 
  138300    297.52177   -1153.7297    6354.9999    11557.366    1892.5516 
  138400    301.78391   -1156.5072    6406.6336    11697.277     1885.794 
  138500    300.25805    -1155.581    6356.3633    11615.335    1813.2217 
  138600    298.86092   -1161.4632    6522.8824    11746.124    1945.0106 
  138700    302.20322   -1165.2207    6486.6136    11777.501    1856.1522 
  138800     301.7312   -1165.1926    6383.2152    11664.047    1835.5727 
  138900    297.64477   -1167.2026    6402.0798    11593.601    1890.3888 
  139000    296.05665   -1168.2502    6366.7257    11523.272    1823.4283 
  139100    301.17367   -1160.9373    6401.4703    11674.646    1795.0606 
  139200    296.97848   -1159.3346    6457.2018    11642.357    1847.8763 
  139300    303.78955   -1163.9431    6428.1464    11754.201    1890.1441 
  139400    304.86324   -1155.8485    6396.9491    11754.036    1931.6507 
  139500    297.19716   -1164.9677    6428.6874    11612.881    1934.7893 
  139600    300.96967   -1166.4048    6411.0835    11674.434    1830.3342 
  139700    299.82478   -1163.2485    6405.5382    11647.586    1809.9534 
  139800    299.32432   -1167.4844    6539.8799        11767    1879.7107 
  139900     295.9554   -1170.3984    6382.2379    11534.473    1867.0419 
  140000    294.64911   -1174.0709    6387.6169    11508.272    1879.0715 
  140100    301.01637   -1165.6793     6395.694    11660.768    1854.1512 
  140200    300.00329   -1162.7897    6434.4704    11680.791    1882.7843 
  140300    300.65226    -1156.497    6364.5237    11631.001    1879.0636 
  140400    299.39289   -1165.1218    6382.7927     11613.74    1877.2028 
  140500    298.28312   -1159.2706     6399.337    11612.428    1808.6725 
  140600     297.7088   -1163.9197    6392.3421    11588.514    1871.6901 
  140700    302.09614   -1162.4203     6310.153    11601.553    1859.4638 
  140800    297.67688   -1164.0063    6478.7828    11674.186    1876.3238 
  140900      301.247   -1162.9224    6587.7328     11860.49    1953.8375 
  141000    297.87053   -1162.4305    6391.2019    11592.318    1898.0123 
  141100    303.31626   -1164.3576    6344.9181    11660.447    1849.2264 
  141200    299.94674   -1161.5011    6479.9258    11726.327    1912.9749 
  141300     300.4165   -1160.3991    6412.3486    11669.887    1875.4652 
  141400    302.52628   -1152.4564    6393.3275    11703.881    1904.0761 
  141500    303.86676   -1155.3287     6427.481    11763.799    1898.4209 
  141600    295.55809   -1157.5438    6431.3179    11587.919    1873.3534 
  141700    303.28095   -1158.5357    6367.2009    11687.797    1787.6997 
  141800    301.03792   -1162.6719    6472.9001    11741.442    1844.0275 
  141900    302.10721   -1164.4415    6502.0801    11791.696    1860.3356 
  142000    298.73898   -1163.5126    6299.9944    11518.582    1732.8735 
  142100    298.82294   -1163.8407    6454.9001    11674.953     1786.417 
  142200    303.87833   -1162.2264    6463.4263    11793.094     1917.158 
  142300    298.94211   -1153.9549    6340.5991    11573.084    1846.9542 
  142400    300.84174   -1156.8881    6304.2084    11574.343    1810.6677 
  142500     298.9846   -1155.0031    6576.0355     11808.38    1992.2139 
  142600    301.51164   -1155.5767    6453.6701    11739.427    1835.9184 
  142700    299.34581   -1161.4823     6363.544    11597.126    1824.3567 
  142800    295.99538    -1162.414    6449.9612    11611.034    1845.6335 
  142900    302.84251   -1167.4202    6516.2369    11818.582    1884.4019 
  143000    301.01127   -1170.7039    6438.6628    11698.603    1862.6788 
  143100    297.36138   -1169.1023    6294.2947    11477.862    1793.2609 
  143200    300.44397   -1164.8493    6552.6654    11806.341    1908.8947 
  143300    298.76173   -1164.1303    6493.5229    11711.979     1912.577 
  143400    302.44027   -1161.9243    6353.9486    11653.197    1892.7349 
  143500    299.60677   -1161.0356    6316.4553    11556.059    1864.4861 
  143600    293.66229   -1157.4968    6401.0252    11517.173    1808.7621 
  143700    297.36432   -1170.5007    6496.4519    11678.684    1839.7218 
  143800    296.97397   -1169.7127      6469.14     11643.82    1851.5474 
  143900    298.74202   -1172.3894    6341.3133    11551.089    1793.3339 
  144000    292.93705   -1169.3789    6333.9245    11422.696     1754.668 
  144100    304.16007   -1164.0083    6493.9771    11827.882    1911.5199 
  144200       298.82   -1167.6292    6336.4798    11552.681     1816.893 
  144300    297.18624   -1158.6922     6492.049    11682.285    1848.2455 
  144400    301.41909    -1151.861    6348.6416    11636.137    1869.6427 
  144500    299.41974   -1163.0939      6342.91    11576.459    1961.7667 
  144600     298.1848   -1168.0034    6392.3685    11594.626    1898.2831 
  144700    306.32179   -1164.0637    6467.0361    11847.067     1889.481 
  144800    293.84762   -1166.9357     6461.572     11572.24    1848.7641 
  144900    302.52696   -1172.5063    6462.6613    11753.179    1821.0504 
  145000    295.64368     -1168.02    6497.0903    11645.044    1847.8842 
  145100    297.78767   -1166.9365    6361.6086    11556.449     1878.647 
  145200     308.3659    -1162.789    6415.8106    11840.786    1919.6906 
  145300    298.66984   -1161.8981    6410.3035    11629.028    1898.2041 
  145400     301.3594   -1159.2413    6466.9862    11745.826    1916.0827 
  145500    300.17814   -1153.4925    6458.6655    11718.018    1875.2783 
  145600    302.85158    -1156.888    6415.2853    11728.357    1906.2582 
  145700    297.57805   -1160.8892    6360.5903    11556.999    1923.6196 
  145800    300.55403   -1162.0405    6424.5154    11683.351    1864.5703 
  145900    300.54004   -1162.1724    6446.4485    11704.853    1821.5696 
  146000    298.07757   -1166.0111     6405.485    11607.444    1782.9065 
  146100     296.8635   -1161.2278    6583.4425    11764.248    1895.3697 
  146200      302.185   -1161.4274    6405.8476    11700.139    1788.5921 
  146300    293.34544   -1157.7719    6414.3528    11523.456    1845.5199 
  146400    298.11247    -1154.805    6411.6887    11625.599    1916.0896 
  146500    305.27105   -1157.5581    6391.1496    11755.239    1942.2698 
  146600    298.65588     -1153.45    6389.6256      11616.5    1882.9474 
  146700    303.35461   -1160.9879    6465.9511    11785.669    1876.2916 
  146800    299.33871    -1167.539    6491.3027    11718.676    1887.0689 
  146900    296.85996    -1167.102    6385.0089    11559.864    1857.8273 
  147000    301.17317   -1165.9279    6449.3358    11717.511    1877.4952 
  147100    300.46812   -1164.8444     6439.611    11693.807    1856.7594 
  147200    301.92422   -1164.8769    6341.1392     11626.41    1806.9137 
  147300    298.61233     -1166.48    6447.1513    11660.066     1855.015 
  147400    296.85643   -1156.8495    6472.7097    11657.742     1843.696 
  147500    300.66033   -1165.0347    6403.8586     11661.97    1863.0515 
  147600    298.59077   -1165.2757    6284.0981    11497.756    1833.6648 
  147700    299.62014   -1167.0562    6386.7798    11620.648    1824.9283 
  147800    303.02668   -1166.7474    6370.1424    11677.095    1788.5896 
  147900    301.70002    -1168.752    6535.4864    11812.092    1885.3185 
  148000     302.6566   -1170.7017    6410.6231    11705.715    1813.3001 
  148100    297.48365   -1166.6793    6368.3502    11556.953     1766.016 
  148200     299.8435   -1165.8498    6375.7525    11615.599    1861.4381 
  148300    302.19662   -1157.2034    6510.6268    11809.391    1942.0357 
  148400    294.56749    -1161.626    6401.8081    11533.165    1867.4069 
  148500    302.85007   -1158.4061    6407.8104    11719.331    1847.6074 
  148600    297.74862   -1160.1914    6423.9624    11624.713    1886.9577 
  148700    298.80688   -1169.5138    6365.9873    11580.024    1815.3704 
  148800    304.22827   -1169.9879    6391.5901    11720.972    1800.2908 
  148900    296.01819   -1161.6935    6526.2018    11688.483     1871.995 
  149000    301.18962   -1168.3322    6522.2689    11788.391    1851.5291 
  149100    297.07715   -1162.6894    6465.8168    11649.725    1864.4335 
  149200    302.51837   -1163.2056    6343.3519    11642.987     1888.968 
  149300    301.19686   -1162.4361    6288.3234    11560.496     1818.907 
  149400    304.20918   -1162.7788    6547.8764     11884.06      1875.56 
  149500    302.78351   -1159.6271     6516.686    11825.564    1887.7118 
  149600     296.2152   -1159.9368    6381.5925    11549.839    1858.4257 
  149700    301.09392   -1160.9532    6482.5353    11753.992     1938.824 
  149800    299.80709   -1169.4944    6368.7304    11604.154    1867.4674 
  149900     294.6925   -1163.4855    6420.4226     11552.59    1876.3922 
  150000    298.01163   -1165.2489    6462.3192    11663.632    1878.3806 
  150100    300.29828   -1168.0167    6436.1877    11683.583    1911.9625 
  150200    302.51706   -1171.7577    6362.4511    11653.506     1826.358 
  150300    300.65915   -1163.6024     6452.726    11712.245    1906.1399 
  150400    299.92476   -1166.6629     6429.469    11670.238    1893.7058 
  150500    304.81393   -1165.1206     6378.974    11725.735    1874.2338 
  150600    295.47599    -1163.616    6481.7202    11630.495    1899.5644 
  150700    299.85793   -1160.1946      6342.63     11588.44    1838.8577 
  150800    299.16039   -1165.6956      6438.67    11664.077    1848.2714 
  150900    300.63053   -1170.7607    6405.0983    11656.848    1812.9422 
  151000    299.01079   -1169.8832    6390.7039    11608.727    1874.6834 
  151100    302.19241   -1169.4476    6372.8176    11659.247    1852.1293 
  151200    300.04796   -1166.4872    6506.3364    11749.913    1924.2224 
  151300    301.51807   -1171.6213     6482.741    11752.591    1949.3444 
  151400    295.39791   -1163.3601    6331.6579    11479.021    1852.0153 
  151500    305.28443   -1164.3076    6438.9107    11796.537    1852.8333 
  151600    297.65212   -1165.9356    6431.5434    11624.489    1878.4107 
  151700    299.93541   -1165.9407    6333.7414    11575.461    1869.7797 
  151800    303.73602   -1167.3661    6419.6558    11741.144    1821.4892 
  151900    299.71722   -1169.7498     6459.452    11692.701    1858.8075 
  152000    298.23536   -1167.4976     6390.599    11594.442    1872.2771 
  152100    298.99384   -1165.2792    6329.1058    11551.371    1796.9633 
  152200    301.69759   -1161.9783    6458.8344    11742.162    1856.0019 
  152300    296.60068   -1166.8655    6457.6985    11627.251    1907.5059 
  152400    302.51924   -1165.4254    6503.0597    11800.494    1886.4515 
  152500     301.6644   -1161.7717    6413.9228    11696.748    1867.6196 
  152600    296.65241   -1165.4322    6327.6341    11499.726    1899.0854 
  152700    302.10031   -1163.5859    6399.6782    11690.002    1911.4256 
  152800    297.90295   -1163.0388    6451.3195     11652.52    1845.0719 
  152900    302.80721   -1163.9979    6341.1435    11646.157     1847.645 
  153000    295.29683   -1166.1675    6494.9754    11637.372    1920.5668 
  153100    300.76863   -1167.3298    6464.6081    11722.739    1870.5941 
  153200    302.27085   -1164.2864    6386.7221    11679.989    1883.1433 
  153300     295.6899   -1168.7313    6359.1306     11507.36    1904.7392 
  153400     302.9885   -1169.5903    6389.3957     11692.69    1889.4863 
  153500     301.4592   -1167.1851    6370.3804    11643.409    1876.8734 
  153600    303.48784   -1164.1775     6501.266    11820.641    1876.8528 
  153700    304.42343   -1168.8606    6512.9359    11847.615    1877.8461 
  153800    296.73378   -1166.7135     6348.891    11521.439     1822.861 
  153900    302.00332   -1167.2669    6515.4561    11800.027    1940.1204 
  154000     298.0012   -1164.5166    6414.3723    11616.194    1840.1366 
  154100     297.0406   -1168.7833     6377.019    11554.052    1852.4826 
  154200    300.70265   -1170.0421    6435.9238    11689.932    1953.2586 
  154300     299.6825    -1167.536    6381.1575    11615.878    1932.2251 
  154400    305.55395    -1170.279    6466.3022    11823.715    1921.3062 
  154500    299.10375   -1168.1038    6488.1582    11709.947     1881.181 
  154600    296.38564   -1168.3621     6388.605    11552.067    1861.0429 
  154700    302.80964   -1164.6665    6397.0466    11701.443    1905.3916 
  154800    305.48886   -1164.9501    6391.5549    11752.906    1926.8565 
  154900    298.92241   -1168.7981    6318.7155    11535.936    1884.2042 
  155000    302.74474   -1163.7229    6484.0421    11787.996    1875.3056 
  155100     304.2276   -1169.7911    6444.5964    11774.161    1820.7706 
  155200    298.32357   -1166.8414    6331.9379    11538.322    1832.4742 
  155300    300.23285   -1164.7373    6443.1561    11692.433    1896.5242 
  155400    300.36712   -1161.4334    6479.4557    11734.905    1910.6406 
  155500    296.50696   -1161.1575    6338.2851    11511.544    1979.1475 
  155600    305.83859   -1160.8461    6452.6108    11825.537     1951.216 
  155700    296.83103   -1164.2625    6412.2616    11589.339     1948.241 
  155800    298.95221   -1163.8582    6375.8877    11598.685    1924.1788 
  155900    302.56995   -1160.9411    6406.2067    11709.208    1906.7546 
  156000    297.18302   -1164.6836    6462.5598    11646.735    1823.3506 
  156100    298.02709   -1161.2053    6419.0541     11624.74    1812.7268 
  156200    303.45121   -1166.2575    6427.9992    11744.511    1893.6453 
  156300    297.56619   -1166.2791     6313.073    11503.839    1824.1055 
  156400    303.18911   -1160.4302      6516.28     11833.02    1948.0306 
  156500    298.26493   -1162.1814    6502.1409    11711.932    1873.9444 
  156600    300.36328   -1163.5895    6384.8694    11638.081    1898.8322 
  156700    300.04467    -1165.105    6386.4619    11631.351    1894.5457 
  156800     302.0161   -1167.9161    6468.1691    11752.364    1920.9925 
  156900    298.64555   -1165.1045    6523.5398    11738.539    1905.4123 
  157000    302.73827   -1168.1137    6458.4888    11757.914    1946.1927 
  157100     300.6709   -1167.5248    6473.8257    11729.673    1937.7957 
  157200    298.35875   -1164.5684    6367.8636    11577.272    1844.3857 
  157300    303.99482      -1168.2     6463.747     11789.93    1925.7277 
  157400     296.8739   -1167.9055    6389.4191    11563.769    1855.6553 
  157500    304.82344   -1167.5816    6399.5064     11744.01    1825.3245 
  157600    300.82915    -1169.005    6463.8386    11721.587    1883.7793 
  157700    301.84415   -1169.7454    6372.1048    11650.796    1837.8085 
  157800    298.94724   -1172.1286    6436.0467    11650.467    1915.3338 
  157900    302.56519   -1167.7918    6349.0148    11645.064    1902.1268 
  158000    297.42328    -1160.862    6384.0104    11577.141    1862.2033 
  158100    300.06714   -1163.4832    6529.6064    11776.597    1950.7061 
  158200    297.92795   -1162.2281     6337.224    11539.769    1894.8507 
  158300    299.56952   -1164.5969    6310.8044    11546.051    1927.3202 
  158400    300.16468   -1163.5516    6359.9305    11608.937    1877.9292 
  158500    297.83464   -1160.4566    6462.4507    11664.774    1913.1161 
  158600     303.1568   -1166.6348    6582.3999    11892.245    1903.9409 
  158700    298.37209   -1161.5355    6408.6862    11621.413    1817.7922 
  158800    298.91989   -1165.7061    6320.9415      11541.2    1854.3737 
  158900    303.13256   -1170.4975    6469.1117    11774.576    1859.9201 
  159000     293.7906   -1164.7361    6513.8601    11625.509    1809.5476 
  159100    302.63454   -1161.0648    6499.1422      11803.4    1859.9829 
  159200    301.67162    -1160.324    6361.5198    11645.947    1900.7318 
  159300    295.60808   -1156.8521    6389.2715    11547.632    1863.3455 
  159400    294.52566   -1161.0519     6460.459    11591.496    1928.9063 
  159500    303.30775   -1159.7924    6480.3094    11800.222    1939.0215 
  159600    295.36864   -1162.4458    6329.3712    11477.023    1877.8514 
  159700    299.31023    -1161.495    6344.1008     11576.91    1869.5138 
  159800    300.32612   -1162.5905    6558.9933     11812.41    1901.8254 
  159900    297.54764   -1160.0156    6387.7856    11584.419    1858.5954 
  160000    298.70847   -1163.1713     6421.355    11639.632    1892.8851 
  160100     303.9174   -1163.0502    6432.4046    11762.083     1899.816 
  160200    300.58932   -1162.2257    6337.4267    11596.831    1824.3642 
  160300    300.86006   -1159.8219    6492.5131    11760.105    1919.9504 
  160400    299.30888   -1167.4496    6491.3926    11718.218    1907.7612 
  160500    307.10246   -1164.8802    6385.8563    11781.749    1922.6288 
  160600    298.07966   -1165.7352     6309.407    11511.686    1841.1987 
  160700    302.35541   -1161.7787    6478.2444    11775.825    1939.9682 
  160800    303.88502   -1167.6516    6480.8915    11805.277    1891.5788 
  160900    301.40909   -1164.5398    6454.4974      11729.1    1888.4881 
  161000    296.47115   -1163.9275    6390.1992    11559.923    1866.4823 
  161100    305.15705   -1172.3012     6403.345    11750.256    1860.5761 
  161200    296.40656   -1165.6763    6394.7988    11561.394    1825.7652 
  161300    302.78081   -1165.7957    6460.3049    11762.957    1921.7002 
  161400     300.9288   -1167.8521     6445.964    11706.994    1901.7555 
  161500    299.82547   -1166.3938     6361.547    11600.464    1823.3685 
  161600    297.28302   -1166.2433    6367.0177     11551.77    1845.0816 
  161700    296.88495   -1171.4032    6483.4883    11654.576    1937.3501 
  161800    306.36188   -1167.7502    6347.2514    11724.453    1918.1565 
  161900    298.79422   -1165.0441    6404.7555    11622.991    1885.6972 
  162000    296.18413   -1158.9061    6491.2056    11659.819    1894.6074 
  162100    303.33364   -1167.0134    6472.1143    11785.359    1902.1662 
  162200    296.78466   -1162.8679    6379.9319    11557.413    1840.4647 
  162300    303.72947   -1163.9307     6457.256    11782.039    1929.7774 
  162400    300.83039   -1162.9959    6386.3906    11650.174    1832.3203 
  162500    304.85368   -1161.6498    6442.4408    11793.522     1850.665 
  162600    296.82036   -1165.7772    6428.0614    11603.396    1864.0688 
  162700      300.342   -1165.3363    6391.2235    11642.233    1820.1873 
  162800     297.5135   -1164.4929     6506.038    11697.464    1832.0043 
  162900    299.13143   -1162.8302    6390.3825    11618.036    1868.5577 
  163000    303.42419   -1159.8371    6323.9018    11646.257    1899.0158 
  163100    296.53645   -1160.7664    6441.7143    11615.994    1868.2805 
  163200    300.78435   -1161.3975    6492.7836    11757.182    1818.5401 
  163300     300.4459   -1165.1784    6490.3103    11743.698    1865.5698 
  163400    300.22115   -1165.3351    6318.8283    11567.257    1816.5009 
  163500    300.84072   -1165.0439    6424.2926    11686.249    1938.0213 
  163600    295.80478   -1165.8673    6461.4528    11615.001    1916.9601 
  163700    306.06677   -1161.6241    6464.8012    11841.824    1894.9044 
  163800    291.25501   -1158.1845    6397.9647    11461.996     1893.536 
  163900    301.95822   -1161.2337    6414.5386    11704.179    2008.9945 
  164000    299.87213   -1157.9824     6311.226    11559.552    1890.7538 
  164100    301.14279   -1159.0327    6361.1464    11635.567     1861.222 
  164200    300.46481    -1156.006    6522.7187    11785.682    1951.3505 
  164300    297.25005   -1165.4801    6519.0114    11703.822    1881.5157 
  164400    303.81913   -1168.6394    6376.3597     11698.35    1856.8117 
  164500    295.68586   -1165.4975    6365.7148    11517.092    1845.7458 
  164600    305.97924    -1163.637    6415.8314    11788.971    1852.7097 
  164700    298.94091   -1161.2955    6489.9904    11715.109    1833.0173 
  164800    299.94371   -1166.7002    6378.5868    11619.724    1885.7937 
  164900     292.9912   -1167.5794    6267.0257    11358.754    1887.2792 
  165000    300.79159   -1159.6277    6467.8556    11734.179    1906.5747 
  165100    300.98302   -1163.8675    6372.1435    11638.316    1855.6901 
  165200    303.93437   -1167.7491    6466.5698    11791.912    1935.7109 
  165300    300.52071   -1163.0635    6331.9872    11589.088    1873.8729 
  165400    301.76566   -1169.1053    6363.3814    11641.036    1887.9536 
  165500    299.85765   -1163.7291    6473.0275    11715.297    1895.0878 
  165600    296.29948   -1164.2736    6515.8937    11681.604    1873.3318 
  165700    300.63137   -1163.5047    6471.4052    11730.428    1862.6032 
  165800    299.18566   -1169.5234    6488.4872    11710.606     1900.738 
  165900    298.36505   -1164.9096    6365.6145    11574.816    1928.9661 
  166000    302.95888   -1162.8782    6314.6038    11623.977    1866.0941 
  166100    297.54748   -1157.3218    6417.4872    11616.811    1919.8263 
  166200    304.41786   -1161.8233    6450.3551    11791.952    1912.5166 
  166300     299.3467   -1164.4325    6433.9693     11664.62    1876.6942 
  166400    296.55291   -1165.5103    6366.9867    11536.874    1825.1766 
  166500    299.91019   -1162.6969    6424.6497    11669.074    1829.1493 
  166600     300.5806   -1161.2399    6545.7459    11805.949    1873.2027 
  166700    300.10176    -1163.368    6429.9875    11677.833    1829.8552 
  166800    301.99318   -1158.6773    6355.1587    11648.102    1794.8421 
  166900    297.88354    -1156.911    6385.7686    11592.682    1892.8804 
  167000    298.95442   -1154.7397    6364.8059    11596.769    1854.6639 
  167100    299.86535   -1158.5343    6488.1982    11735.827    1908.8431 
  167200    301.63962   -1161.6833    6446.3718    11728.756    1846.3534 
  167300    298.62637   -1157.5711    6390.8531    11612.976    1847.2785 
  167400    306.36706   -1155.5611    6393.5136    11783.015    1897.9782 
  167500    298.78992   -1164.4404    6441.1835    11659.931    1869.1894 
  167600    302.56795   -1160.5157    6452.9564    11756.341    1884.4389 
  167700    298.06765   -1165.0579    6409.5138    11612.214    1881.3137 
  167800    299.20116   -1164.0491    6482.8748    11710.799    1966.8998 
  167900    301.29106   -1161.1343    6427.2392    11702.726    1950.3715 
  168000    296.98595   -1160.5768    6354.1125    11538.185    1896.4142 
  168100    295.44098   -1156.1178    6455.9614    11611.487    1932.8603 
  168200    302.15371   -1164.4208    6394.5968    11685.226     1937.993 
  168300    301.42984   -1163.7202    6459.4441     11735.31    1944.6069 
  168400    294.40236   -1160.2418    6431.7733    11560.986    1824.5776 
  168500    302.10149   -1172.1422    6427.1997    11708.992    1858.9074 
  168600    300.73627   -1170.9964    6415.8392    11669.612    1862.8019 
  168700    301.40115   -1166.3646    6523.9265    11796.535    1899.6626 
  168800    299.91351    -1167.437    6362.9514    11602.706    1863.5042 
  168900    295.48917   -1169.9684    6430.9659     11573.67    1882.0795 
  169000    296.93924   -1168.0926    6303.4986    11479.057    1778.7695 
  169100    300.71121    -1157.044     6396.018    11663.208     1891.169 
  169200    298.84869   -1162.1803    6463.7007    11685.964    1887.4713 
  169300    297.60876   -1163.2935     6377.525    11572.186    1787.6814 
  169400    305.18837   -1163.7738    6397.9122     11754.02    1907.8455 
  169500    298.22273   -1169.6486    6417.5647    11618.987    1898.3913 
  169600    303.93036   -1163.2238    6493.0841    11822.866    1873.2715 
  169700    299.26169   -1166.6158    6377.8667    11604.518    1866.7853 
  169800    295.24801   -1157.8242     6380.676    11530.372    1884.7746 
  169900    298.46786    -1163.683    6356.8691    11569.494    1817.3894 
  170000    302.16665    -1158.029    6476.8713    11774.169    1914.8647 
  170100    295.51918   -1155.6119    6354.8274    11512.529    1903.2556 
  170200    302.96696   -1157.0942    6347.2383    11662.568    1892.6167 
  170300    298.36085    -1158.448    6485.5921    11701.166    1962.5141 
  170400    297.10915   -1156.6558    6493.1403    11683.766    1901.7532 
  170500    299.73253   -1158.6741    6355.8195    11600.471    1843.8388 
  170600      297.353   -1155.8915    6348.1601    11544.759    1886.7483 
  170700    302.55983   -1160.1441    6414.2157    11717.798    1897.9514 
  170800    298.01729   -1158.0896     6556.253    11764.846    1901.7031 
  170900    298.53886   -1158.4544    6444.4208    11663.791    1890.2469 
  171000    301.72624   -1157.5864    6381.1867    11669.519    1915.0841 
  171100    297.70083   -1159.8292    6368.5005    11568.593    1900.1319 
  171200     300.3905   -1149.1638    6389.4112    11657.629    1901.8277 
  171300    301.62348    -1154.544    6451.6808     11740.86    1896.2583 
  171400    300.36235   -1158.8185    6476.7644    11734.727    1907.8552 
  171500    301.63727   -1165.9207     6354.565    11632.662     1865.887 
  171600    295.38981   -1171.8919    6426.9448    11565.603    1873.9644 
  171700     300.2176   -1166.4653    6472.5099    11719.733    1802.4105 
  171800    296.29529   -1161.1399    6470.9607    11639.715     1861.884 
  171900    301.02637   -1164.1921    6280.0367    11546.811    1861.3463 
  172000    301.30623    -1162.424    6473.9687     11748.49    1937.6225 
  172100    297.40481   -1161.7443    6342.2593    11534.112    1894.3799 
  172200    300.43113   -1163.5564    6364.8442    11619.538     1912.637 
  172300    301.12612   -1171.6272    6396.3797     11657.85    1933.7063 
  172400    293.18567   -1165.4261    6414.0863    11512.122    1912.8047 
  172500    302.17714    -1174.936    6422.7647     11703.38    1868.4366 
  172600    298.27275   -1171.1588      6537.56    11738.541    1872.0496 
  172700    300.94349   -1165.2661    6348.4644    11612.394    1797.7984 
  172800    302.64778   -1164.7199    6375.4749    11676.361    1866.8243 
  172900    298.00178   -1164.9847    6465.2995    11666.665    1822.0472 
  173000    306.22833   -1170.4054     6426.782    11798.475    1835.9319 
  173100    296.95173   -1158.2521    6436.4911    11622.157    1845.8013 
  173200    298.85254   -1163.0195    6425.5806    11647.087     1846.447 
  173300    301.37432   -1167.7585    6430.0682     11700.71    1897.8034 
  173400    299.09522   -1164.4854    6327.1495    11552.374    1866.7804 
  173500    299.12582   -1165.3288    6449.3802    11674.416    1928.0078 
  173600    301.14188   -1164.9915    6481.6565    11750.099    1888.5762 
  173700    297.80125    -1160.515    6415.9925    11617.544    1877.0714 
  173800    301.62721   -1156.3315    6406.8539    11694.325    1954.0454 
  173900    295.13602   -1156.0854     6472.044    11621.087    1982.8782 
  174000      297.469   -1154.3666    6401.8621    11602.464    1899.6451 
  174100    303.83205   -1156.0953      6437.26     11772.07    1875.5892 
  174200    298.02274   -1160.9086    6377.0851    11582.975    1849.6462 
  174300     302.8633    -1161.697    6466.1527    11774.665    1963.3017 
  174400    301.45902   -1160.4371    6340.2985    11620.071    1875.5032 
  174500    303.05875   -1159.5701    6433.5835    11748.398    1935.8289 
  174600    301.75072   -1158.8426    6477.0526    11764.651    1957.0059 
  174700    303.35266   -1157.8427    6437.4764    11760.298    1861.4323 
  174800    299.74609   -1156.3123    6453.8711    11701.174    1850.5373 
  174900    302.37128    -1161.535    6499.6124    11797.776    1959.4651 
  175000    296.00668   -1164.4412    6457.8778    11617.165    1901.2569 
  175100    298.95117   -1166.2518    6381.6897    11602.071    1858.0798 
  175200     298.5591   -1170.0356    6486.8379    11695.059    1942.0047 
  175300    303.94832   -1168.8431    6371.8624    11696.409    1805.1269 
  175400    301.86712   -1171.8486    6464.5416    11741.621    1884.9124 
  175500    298.00398    -1162.275    6405.4813    11609.604    1988.6695 
  175600    299.84947   -1161.3072     6331.772    11576.289      1924.41 
  175700    297.58632   -1159.2296    6453.5104    11651.756    1887.3726 
  175800    302.99562   -1161.8487    6474.1654    11785.353    1935.4568 
  175900    300.18538   -1170.4247    6456.0611    11698.636    1933.3842 
  176000    301.07668   -1170.0054    6338.5649    11600.601    1801.8582 
  176100    296.09169   -1169.2619    6508.7952    11665.078    1904.6398 
  176200    304.85459   -1173.0775    6370.1117    11709.785    1925.5218 
  176300    299.44711   -1165.2495    6326.9513     11558.93    1838.6399 
  176400    300.73341   -1171.2507    6450.6392    11704.096    1909.8966 
  176500    302.46924     -1167.33    6443.9842    11738.445    1966.5431 
  176600    295.52846   -1158.7726    6481.4878    11636.227    1907.4951 
  176700    305.78994   -1163.9471    6411.4874    11780.273    1906.4245 
  176800    297.66589   -1163.6627     6451.706    11647.218    1912.3308 
  176900    302.74948   -1160.0074    6466.2289        11774    1923.9637 
  177000    301.63374   -1165.7088    6353.4705    11631.704    1839.1408 
  177100    296.45558   -1162.8724    6326.7209    11497.167    1840.8414 
  177200    304.62517    -1157.585    6551.4546    11901.719    1912.0013 
  177300    304.42002   -1162.9978    6422.9054    11763.374    1837.0543 
  177400    296.27903   -1159.9127    6304.7166    11474.351    1913.2709 
  177500    300.71559   -1160.8892    6475.9226     11739.36    1936.2319 
  177600    297.00797   -1152.8227    6521.6209    11713.918    1916.7995 
  177700    299.34254   -1160.0327    6425.6947    11660.656    1914.5104 
  177800    307.23472     -1161.13     6427.225    11829.693    1986.3677 
  177900    299.43083   -1165.4955    6488.8131    11720.198    1924.5481 
  178000    299.73992   -1164.6275    6320.0255    11558.881    1829.8358 
  178100    300.19191   -1164.3163     6442.379    11691.202    1849.4283 
  178200    297.44927   -1164.2245    6464.0422    11654.365     1893.143 
  178300    302.82045   -1164.5515     6436.524    11741.267    1911.4261 
  178400    295.73315   -1160.2332    6378.8619    11536.514    1911.2615 
  178500    302.47147   -1162.8845    6507.2421    11806.196    1984.9964 
  178600    297.02875   -1160.5306    6409.0894    11594.122    1879.1875 
  178700    301.09643   -1164.7203    6411.2645    11679.007    1932.2109 
  178800     300.9282   -1166.5295     6405.604    11667.944    1971.4074 
  178900    299.59449    -1166.535    6319.1849    11553.026    1901.4534 
  179000    298.14223   -1171.7491    6403.0995    11600.702    1861.8185 
  179100    296.86491   -1162.1622    6488.9099    11668.811    1956.5605 
  179200    298.63402   -1164.3156     6425.276    11640.818    1989.0906 
  179300    301.79691   -1165.3996    6279.1609    11561.189    1890.7938 
  179400    303.55052   -1167.6313    6380.0572    11697.317    1975.4503 
  179500    296.84233   -1166.2519    6531.0516    11706.381    1883.6617 
  179600    299.73695   -1166.4764    6444.4029    11681.347    1884.4245 
  179700    302.12148   -1169.4314    6323.5374    11608.468    1926.0901 
  179800    302.49869   -1165.3237    6410.7561    11707.853    1915.5405 
  179900    298.56202     -1156.51    6429.5128    11651.322    1937.3299 
  180000     301.7105   -1158.7046    6420.7018    11707.579     1965.708 
  180100    302.19958   -1161.4945     6353.984     11648.52    1887.4694 
  180200    296.85207   -1159.2092    6447.0909    11629.671    1926.0519 
  180300    300.93713    -1165.871    6446.7806     11709.97    1887.8905 
  180400    301.97799   -1165.1054    6398.3875    11684.578     1851.873 
  180500    299.46282   -1165.1044    6330.4148    11562.874    1711.7452 
  180600     300.4969   -1165.3959    6482.1675    11736.427    1896.9647 
  180700    296.01633   -1163.8194    6356.9934    11517.109    1856.0699 
  180800    301.50936   -1160.5179    6364.4326      11645.2     1885.277 
  180900     306.2709   -1157.4242    6496.0238    11881.607    1965.9343 
  181000    301.19857    -1156.758    6430.0713    11707.959    1893.1265 
  181100    297.75231   -1162.5278     6459.637     11658.13    1951.9869 
  181200    306.63982   -1159.7867    6315.8011    11706.904    1939.8719 
  181300     300.5464   -1164.2171    6410.8693    11667.365    1909.8966 
  181400    297.18061   -1163.3456    6395.9105    11581.372    1794.8882 
  181500     301.6171   -1166.1264    6492.3276    11769.788    1870.7412 
  181600     300.5633   -1163.6788    6444.4231    11701.818    1921.7979 
  181700    301.06416   -1164.0395    6356.7458     11624.48    1875.8034 
  181800    295.69068   -1162.6896    6368.8758    11523.164    1938.3263 
  181900    299.79251   -1156.3871    6415.7522    11663.972    1961.1602 
  182000    301.61464   -1159.8348    6425.3841    11709.083    1932.3035 
  182100     298.2871   -1166.1497    6410.6458    11616.942    1897.2313 
  182200    302.99794   -1165.9171    6452.4668    11759.636    1909.2083 
  182300    297.16165   -1169.0657    6467.5043    11646.841    1894.3699 
  182400    304.17711   -1169.6032    6383.7474    11712.421    1866.1476 
  182500    296.18523   -1171.5149    6373.8658    11529.894    1835.2628 
  182600    302.32762   -1165.5161    6427.1001     11720.35    1906.6378 
  182700    299.23574   -1161.7687    6489.7618    11720.705     1924.971 
  182800    302.88187   -1164.9272     6411.367    11717.046    1903.7374 
  182900    299.51652   -1159.9733     6360.703     11599.44    1905.3221 
  183000    299.94389   -1167.1236    6380.8199    11621.537    1906.4426 
  183100     300.5136   -1175.8156    6369.4192    11613.616    1921.2788 
  183200    300.91947   -1166.3838     6444.571     11706.87    1928.4353 
  183300    293.42221   -1165.9016    6367.3089    11469.922    1771.3004 
  183400    302.58748   -1168.7319    6367.6486    11663.234    1838.8064 
  183500    301.03418   -1164.8471    6501.0537     11767.34    1923.8789 
  183600    296.29269   -1162.2675    6349.3801    11516.951     1886.624 
  183700    298.29002   -1162.0414    6402.4187    11612.886    1913.3776 
  183800    301.71779   -1162.8947    6444.8396    11727.683    1936.5248 
  183900    298.77998   -1161.5315    6471.6792    11693.124    1887.9673 
  184000    297.88573    -1158.307    6480.2718    11685.836    1936.5385 
  184100    299.43344   -1164.6816    6294.2055     11526.46    1867.1144 
  184200    301.91166   -1163.8112    6348.4543    11634.523    1874.4191 
  184300    296.41962   -1164.8399    6504.0282    11671.739    1902.5554 
  184400    301.27485   -1162.2333    6422.4054    11696.447    1875.9376 
  184500    299.37619   -1164.2241    6522.4713     11753.96    1999.4035 
  184600    304.02934   -1162.2272    6405.4103    11738.303    1931.5811 
  184700    298.46005   -1164.0335    6309.7101    11521.818     1877.547 
  184800    300.58654   -1158.9541    6425.2049    11687.821    1942.6956 
  184900    301.34997   -1164.0982    6468.3167    11742.098    1917.4931 
  185000    299.61596   -1164.2315    6390.5343    11627.138    1875.2033 
  185100    302.23035   -1165.2198    6385.9625     11677.43    1978.9733 
  185200    300.41685   -1162.0125    6438.4671      11694.4     1944.775 
  185300    301.39233   -1163.2072    6353.8404    11629.418    1944.8258 
  185400    298.89515   -1163.6463    6468.6939    11690.484    1944.4279 
  185500      299.389   -1158.7024    6453.2556     11690.54    1930.5333 
  185600    297.53198    -1167.383    6404.7114    11593.643    1958.0237 
  185700    299.19209   -1163.8992     6385.886    11613.767    1997.3782 
  185800    300.33675   -1162.4413    6434.1203    11687.913    1949.5037 
  185900    301.74245   -1164.0375    6437.7493    11719.976    1925.9271 
  186000    300.11578   -1169.8151    6502.4367    11744.135    1993.1991 
  186100    298.78195   -1171.6167    6406.6526    11618.054    1969.1969 
  186200    299.03161   -1170.2084    6413.6514    11631.794    1957.3185 
  186300    301.34029   -1166.8831    6401.2467    11672.037    1942.1324 
  186400    299.75148   -1157.6483     6444.781    11690.863    1944.9957 
  186500    299.08464   -1167.8221    6447.1329    11668.795    1882.7056 
  186600    303.35193   -1154.3813    6437.0033     11763.27    1933.3806 
  186700    298.58301   -1163.2115    6409.6839     11625.24    1949.1485 
  186800    295.21609   -1165.5037    6406.4589    11547.794    1938.0348 
  186900    302.33906   -1164.8605    6421.1243    11715.274     1968.187 
  187000    296.96417   -1171.6276    6399.1277    11571.684    1940.7041 
  187100     300.5492   -1160.7605    6480.1233    11740.135    1938.7042 
  187200    299.57383   -1164.9962    6424.2874    11659.226    1858.7625 
  187300    298.56514   -1164.5537    6451.5438    11665.376    1955.5725 
  187400    300.54182    -1164.845    6399.3626    11655.132    1946.6626 
  187500    301.14088   -1164.6522    6397.8063    11666.567    1924.0441 
  187600    297.45136   -1157.1976    6463.2246    11660.619    1959.3045 
  187700    301.03338   -1161.0772    6399.2546    11669.294     1985.654 
  187800    296.74862   -1160.8524    6348.8148    11527.541    1907.9648 
  187900    302.60779     -1166.62      6461.63    11759.761    1965.9865 
  188000    300.48508   -1165.2802    6465.8585    11719.981    1921.1967 
  188100    297.76763   -1167.1258    6380.4074     11574.63    1876.5779 
  188200    301.16453   -1164.2236    6387.7266    11657.421    1909.5677 
  188300    300.91106   -1164.6232    6491.4198      11755.3    1942.6744 
  188400    295.25173   -1158.2959    6388.4771    11537.781    1876.9758 
  188500    302.10347    -1165.418    6529.9194    11818.479    2007.6274 
  188600    305.76308   -1158.6112    6325.7332    11699.281    1902.3424 
  188700    296.22545   -1158.8704    6453.2649    11622.797     1983.639 
  188800    301.93483   -1159.9664    6456.1944    11746.602    1940.8919 
  188900    297.29094   -1161.6449    6410.2128    11599.733    1956.8251 
  189000    301.45832   -1166.3698     6230.519    11504.344    1923.8926 
  189100     299.1046   -1166.6337    6404.5938    11627.871    1886.1783 
  189200     297.3642   -1163.8842    6529.8012    11718.647    1955.3809 
  189300    303.89522   -1169.0134    6425.8891    11749.131    1957.4053 
  189400    297.60653   -1161.2135    6356.6198    11553.313    1875.7174 
  189500    304.38188   -1163.4739    6405.4681    11744.646    1921.2842 
  189600    297.57056   -1163.8353     6579.976    11773.279     1986.117 
  189700    304.18958   -1160.6635    6354.9174    11692.797    1849.7604 
  189800    302.75443   -1162.2734    6358.3324    11663.943    1977.6412 
  189900    296.67655   -1164.6468    6342.8531    11516.246    1943.3928 
  190000    299.89589    -1166.259    6477.7049    11718.261    1922.0321 
  190100    301.94027   -1167.1176    6475.8944    11759.267    1886.4137 
  190200    301.47787   -1166.4041    6430.7514    11704.959    1893.1377 
  190300    300.98392   -1167.9052    6379.0218    11641.176    1946.1549 
  190400    296.33275   -1164.5696    6359.2903    11525.415    1896.5883 
  190500    302.43012   -1162.2754    6434.8617    11733.542    1968.1293 
  190600    294.74515   -1165.8046    6441.2967     11572.27    2000.9994 
  190700    301.89791   -1151.0598    6459.3461    11757.872    2034.3541 
  190800    300.54764   -1160.6167    6385.8846    11646.007    1971.2649 
  190900     304.7739   -1155.3957    6448.0874    11803.718    1991.9621 
  191000    297.15216   -1163.2052    6384.9871    11569.982    1929.7874 
  191100    301.18663   -1163.4796    6495.5994     11766.51    1929.7377 
  191200    294.10725   -1166.1161    6502.1635    11619.198    1917.8523 
  191300    300.21071   -1164.0601    6455.7829    11705.264    1901.3548 
  191400    302.36364    -1165.182    6396.9189    11691.272    1914.6252 
  191500    296.92804    -1168.197    6399.0197    11574.235    1928.4672 
  191600    295.95507   -1165.9624    6500.8133    11657.477    1917.5475 
  191700    296.59777   -1165.0402    6377.1786    11548.495    1860.7606 
  191800    301.60601   -1162.8017     6459.235    11739.783    1974.7804 
  191900    300.43058   -1163.4543    6355.7123    11610.496    1940.4531 
  192000    298.71858   -1164.2041    6515.6846    11733.145    1958.8778 
  192100    305.90214   -1165.6065    6484.3908    11853.914    1982.1069 
  192200    299.13979   -1172.1026    6362.6758    11581.236    1948.3079 
  192300      298.562   -1166.5357    6462.5168      11674.3    1992.8704 
  192400    299.99983   -1165.3219    6492.8725    11736.587    1922.7622 
  192500    300.61214   -1163.5916    6455.7384    11714.264    1970.1866 
  192600    299.51259    -1164.051    6348.1456    11582.722    1924.4221 
  192700    296.70426   -1162.2288    6346.2988    11522.701    1901.6393 
  192800    296.85742   -1163.6675    6450.8426    11629.078    1934.7702 
  192900    302.70272   -1161.3509     6440.869    11746.297    1899.5942 
  193000     299.5722   -1167.7293    6457.0602    11689.231    1910.4382 
  193100    294.90589   -1171.4163    6344.9848     11473.78    1893.9974 
  193200    304.07728   -1167.8897     6455.421    11783.676    1999.1055 
  193300    298.81634   -1168.0802     6523.976    11739.648    2036.5987 
  193400    303.25686   -1168.5478     6355.756    11665.826     1946.971 
  193500     299.2987   -1165.8782    6376.3878    11604.567    1915.5518 
  193600    298.76529   -1167.2288    6455.1165     11670.55    1918.9337 
  193700    301.42956   -1165.4509    6560.5027    11834.632    1946.7666 
  193800    305.65018   -1161.5756    6436.7246    11804.896    1920.1399 
  193900    295.55884   -1166.2751    6259.3283    11407.214    1896.2028 
  194000    300.13276   -1168.7616    6459.9712    11703.085    2002.6182 
  194100    302.37589   -1166.4933    6539.2129    11832.517     1937.613 
  194200    298.07247   -1165.9665     6452.662    11654.556    1940.7559 
  194300    301.76333   -1165.8415    6409.9243    11690.793    1964.0689 
  194400    299.29443   -1165.8181     6337.503    11565.651    1849.1049 
  194500    296.63691   -1163.3076    6399.6168    11573.502    1933.8973 
  194600    300.42412   -1165.7278    6394.8898    11647.262    1904.4463 
  194700    303.58041   -1172.5293    6451.3888    11764.389    1926.8512 
  194800    299.09904   -1166.3559    6368.3015    11591.738    1878.8111 
  194900    292.84616   -1168.3294    6415.8187    11503.698    1924.0938 
  195000    302.17718   -1169.2907    6399.2507    11685.512    1881.9341 
  195100    300.02876    -1167.691    6388.6371      11630.6    1867.3614 
  195200    298.22426   -1171.3124    6330.1945    11529.986    1891.2558 
  195300    304.31288   -1168.1017    6489.4809    11822.557    1934.1552 
  195400    298.33217   -1167.3717    6551.6907    11757.728    1921.9131 
  195500    299.64002   -1165.1794    6358.3022    11594.472    1891.5386 
  195600    307.28361   -1170.6508    6331.4735    11725.466    1918.2206 
  195700    299.08697   -1168.1515    6374.0596    11595.442    1911.2875 
  195800    299.46431   -1168.0144       6471.7    11701.281    1895.4663 
  195900    296.22287   -1171.2205    6483.1824    11640.309      1894.56 
  196000     299.0629   -1169.0236    6353.3715    11573.368    1847.5603 
  196100    305.09404   -1165.9602    6508.9142     11860.82    1988.4518 
  196200     296.4992   -1167.4157    6451.5652      11618.4    1929.9649 
  196300     301.4431     -1168.25    6453.4826    11725.102    1877.2322 
  196400    297.00629   -1168.7851    6455.2839    11631.583    1889.4704 
  196500    299.64912    -1171.242    6431.0049    11661.307    1941.8463 
  196600    296.98412   -1169.0215    6351.8786    11527.467    1854.1782 
  196700    302.48961   -1168.7957    6389.8659    11683.297    1906.2535 
  196800    294.46905    -1163.972    6509.3641    11636.271    1932.9441 
  196900    301.52207   -1165.1872    6389.5878    11665.957    1928.6153 
  197000    296.93936   -1165.5423    6427.5504    11605.662    1958.0982 
  197100    300.39962   -1163.8517    6392.7191    11646.444    1966.0397 
  197200      302.024    -1166.354    6431.2805    11717.206    1918.7144 
  197300    296.77616   -1161.5461    6418.6159    11597.237    1846.0092 
  197400    298.66168   -1165.6048    6372.2124    11587.056    1848.7423 
  197500    301.53077   -1160.0286    6536.3364     11818.05    1893.7723 
  197600    300.50006   -1160.2617    6451.5632    11711.024    1858.1989 
  197700    296.95573   -1166.9115    6323.5432    11500.635    1865.5979 
  197800    301.46633    -1163.496    6412.3484    11689.218    1929.9644 
  197900    295.52053   -1163.0404    6429.2285    11579.531    1791.1719 
  198000    300.48893   -1168.5818     6452.405    11703.308    1866.7254 
  198100    300.85665   -1165.7719    6526.7503    11788.319    1911.8501 
  198200     299.3779   -1167.0602    6393.1716    11621.861    1857.6428 
  198300    304.16502   -1166.9267    6423.1401    11754.232    1870.3266 
  198400    301.08165   -1160.5096    6420.6211    11692.259      1953.85 
  198500    303.53635   -1162.9063    6461.0236    11782.706    1935.9363 
  198600    299.09839   -1165.4443    6524.3101    11748.644    1908.5263 
  198700    297.51842   -1167.8555    6346.8289    11534.998    1868.7196 
  198800     304.2678   -1166.5282    6334.4678    11668.154    1898.0928 
  198900    303.05696   -1167.1653    6466.2325    11773.414    1880.5289 
  199000    299.30135   -1167.4814    6545.8968    11772.529    1946.8405 
  199100    299.44443   -1171.8424    6356.3255    11581.654    1834.1049 
  199200    294.76871   -1165.8751    6438.2345    11569.641    1843.3095 
  199300    301.90612   -1166.6479    6439.9074     11723.02    1904.2474 
  199400    303.88336   -1164.2639     6338.489    11666.227    1933.2989 
  199500    300.24522   -1160.8728    6308.3308    11561.736    1903.3538 
  199600    299.54979   -1158.9502    6441.0247    11681.496    1922.1471 
  199700    306.26198   -1156.1613    6558.4929    11945.149    1979.0401 
  199800    299.64172   -1166.7163    6474.7412     11709.41    1932.7775 
  199900    301.41995   -1162.8775    6358.5085    11635.006    1898.1322 
  200000    298.53843   -1160.0358    6404.8231    11622.603    1883.7366 
  200100    302.15114   -1169.4396    6416.5799    11702.136    1877.8102 
  200200    300.60927   -1162.3695    6493.5925    11753.279    1900.7704 
  200300    298.46672   -1162.8879    6361.8125    11575.208    1843.2507 
  200400     300.6136   -1157.9202    6452.3314    11716.559    1850.7808 
  200500    297.73815   -1159.5659    6414.8649    11616.018    1864.3062 
  200600    298.54418   -1159.7638    6349.0415    11567.216    1932.6535 
  200700    297.73828   -1156.9885    6454.4131    11658.146    1883.0733 
  200800    302.16227   -1163.1243    6470.5382    11762.647    1874.5122 
  200900    303.09441   -1160.7707    6348.7827    11663.159     1840.132 
  201000    293.43292   -1160.0113    6517.6386    11626.371      1916.75 
  201100    301.80238   -1161.5174    6475.3386    11761.366    1848.7281 
  201200    296.78215   -1161.6729    6255.6331    11434.256    1782.5402 
  201300      301.982   -1164.3884    6367.0526    11654.046    1864.5054 
  201400    299.45542   -1162.4314    6487.3288    11722.303    1857.6181 
  201500      297.599   -1161.0174     6516.329    11713.058    1868.5368 
  201600    305.05647   -1155.1843    6417.7584    11779.637    1900.3803 
  201700    294.36148   -1163.0608    6408.7007    11534.221    1865.6114 
  201800    301.68779   -1165.9185    6407.1951    11686.373    1888.6296 
  201900    298.67667   -1169.2506    6421.1949    11632.713    1922.6691 
  202000    303.65095   -1162.2455    6489.0984     11813.89     1906.854 
  202100    299.18946   -1169.6243    6423.8159    11645.915    1916.6431 
  202200    297.92693   -1168.6362    6363.6285    11559.744    1880.0967 
  202300    301.11472   -1167.4047    6507.6817    11773.131    1991.9324 
  202400    295.47254   -1167.7529    6367.0465    11511.611     1856.861 
  202500    301.47099   -1170.7124    6385.8885    11655.641     1866.157 
  202600    297.97239   -1166.8732    6444.2665    11643.116    1908.9734 
  202700    297.87767   -1159.9788    6435.3986    11639.119    1874.0218 
  202800    306.10843    -1157.738    6515.4095    11897.208    1908.4854 
  202900    296.92483   -1161.2228    6445.8781    11627.999     1894.181 
  203000    304.83759   -1166.8792    6260.3448    11605.853     1936.471 
  203100     295.2367   -1163.7015     6391.228    11534.806    1937.7921 
  203200    306.89266   -1163.8128    6489.4141    11881.892    1885.7556 
  203300    300.84676   -1159.7293    6522.1068    11789.507    1874.3154 
  203400     299.9145   -1159.8808    6373.9009    11621.233    1808.0077 
  203500    300.97798    -1159.717    6331.7399    11601.956    1876.6444 
  203600    298.68346   -1154.7153    6390.9456    11617.144    1947.3109 
  203700    301.79258   -1158.1792    6454.6263    11743.782    1886.4939 
  203800    304.92174   -1158.8279    6511.9343    11867.291    1849.0588 
  203900    300.81124   -1156.7292    6335.2821    11604.924     1778.067 
  204000     298.4869   -1161.0143    6450.6659    11666.366    1888.9119 
  204100     300.2671   -1161.5612    6418.1841    11671.369    1882.3335 
  204200    299.47245   -1157.7716    6381.5367    11621.534    1869.3937 
  204300    297.16593   -1157.3006    6370.8997    11562.093    1844.5198 
  204400    301.98526   -1153.2174    6454.6663    11752.901    1885.8405 
  204500    301.48613    -1157.632    6523.4015    11806.558    1876.4782 
  204600     302.9823   -1158.2117    6391.8467    11706.387    1872.1628 
  204700    302.15486   -1158.6998    6332.2766    11628.652    1833.6028 
  204800    294.70912   -1160.3397    6371.3372    11507.006    1825.0102 
  204900    297.60694    -1159.321    6553.0849     11751.68    1894.7362 
  205000     300.3029   -1161.6316    6484.5687    11738.448    1866.2438 
  205100    302.24341    -1160.556    6388.9754    11685.386    1930.5338 
  205200    300.37143   -1155.3091    6382.1814    11643.847    1921.5915 
  205300      298.822   -1159.8041    6370.6222    11594.692    1911.6392 
  205400    300.51938   -1161.8163    6393.8526    11652.172    1907.9944 
  205500    302.60317   -1157.4921    6429.2624    11736.423    1908.9607 
  205600    293.93019   -1161.0894    6461.8188    11580.097    1882.8936 
  205700    301.77257   -1167.3821     6474.763    11754.289    1926.7235 
  205800     301.8654   -1165.4448    6479.6676    11763.114    2013.6541 
  205900    295.29704   -1159.1544    6324.5359     11473.95    1919.8617 
  206000     303.0393   -1166.7921    6333.0718    11640.249    1912.0212 
  206100    303.25497   -1161.3068    6459.2698     11776.54    1941.5443 
  206200    299.26637   -1166.7873    6448.6067    11675.186    1967.4887 
  206300    297.92157   -1162.4135    6459.5952    11661.819    1924.3089 
  206400    302.37878   -1165.6083    6376.0453    11670.296    1846.2222 
  206500    293.95874   -1167.3852    6403.2229    11515.815    1856.2173 
  206600    300.74641    -1162.365    6436.7124    11699.333    1882.9922 
  206700    300.01882   -1160.8264    6421.1382    11669.754    1847.4594 
  206800    299.13796   -1160.9091    6387.6504    11617.365    1840.3727 
  206900    301.94319   -1155.2817    6400.7708    11696.042    1869.5728 
  207000    296.27389   -1165.6923    6338.6136    11502.358    1860.1589 
  207100    300.53415   -1162.9102    6580.9412    11838.482    1972.5173 
  207200    301.56751    -1160.528    6444.5145    11726.514    1929.5889 
  207300    298.61672   -1161.9162    6268.0201    11485.592    1863.0201 
  207400    303.74532   -1161.0827    6490.2474    11818.217    1952.1173 
  207500    300.01536   -1162.1573    6439.6283    11686.839    1965.1981 
  207600    302.45182   -1159.2652    6422.0111    11724.165    1960.1189 
  207700    300.74114   -1165.1105    6471.6733    11731.436    1915.5749 
  207800    299.82601   -1166.3704    6368.5803    11607.533    1872.9015 
  207900    298.33015   -1157.3262    6312.6783    11528.718    1923.2489 
  208000    299.68791   -1166.2043    6399.8367    11636.005       1915.1 
  208100    297.33756   -1162.4781    6484.4396    11674.122    1878.5262 
  208200    301.74069   -1165.6859    6299.8075    11580.349    1815.3367 
  208300    294.72482   -1161.9825    6404.4004    11538.761    1916.1789 
  208400    300.90069   -1162.0267    6418.9988    11685.254    1940.0325 
  208500    301.45199   -1165.0931    6500.6613    11775.627    1874.6316 
  208600    303.10163   -1166.5023    6475.9425    11784.741    1978.2457 
  208700     298.5335   -1160.2394    6267.2533    11484.724    1881.8157 
  208800    297.94051   -1161.5597    6452.6519    11656.134    1948.1986 
  208900    307.22663   -1164.3321    6392.0528    11791.146    1959.4806 
  209000    297.53545   -1162.3423    6388.0273    11582.073    1915.8772 
  209100    301.77341    -1164.028    6412.1664    11695.064     1859.841 
  209200    306.57709   -1165.2644    6451.6511    11835.936    1880.8268 
  209300    299.05817   -1166.2771    6466.7405    11689.382     1854.722 
  209400    301.85897    -1161.047    6526.7564    11814.463    1887.1258 
  209500    294.31003   -1162.4813    6427.8792     11552.88    1841.2126 
  209600    302.61094   -1160.2097    6470.7572    11775.366     1918.784 
  209700    298.38173   -1160.5394    6414.5042    11628.433    1866.5895 
  209800    303.24969   -1164.5379    6436.5858    11750.512    1910.9685 
  209900    296.95087   -1162.9474    6356.4428    11537.395    1885.6801 
  210000    297.74329   -1164.5114    6393.9689    11590.286    1894.5878 
  210100    299.32399   -1161.1944    6407.5167     11640.92      1909.29 
  210200    300.42831   -1163.7592    6414.6166    11669.047     1903.485 
  210300     303.4371     -1159.12    6496.2603    11819.608    1931.6999 
  210400    304.14566   -1163.1833    6419.5801    11754.002    1918.3781 
  210500     296.8149   -1161.9296    6362.5581    11541.623    1813.0335 
  210600    303.14967   -1162.3574    6442.7779    11756.748    1896.6724 
  210700    295.69356   -1164.2095    6407.9504     11560.78    1818.0893 
  210800    299.84904   -1156.1553    6345.4801     11595.14    1821.1272 
  210900    304.93859   -1163.3692    6420.2157    11771.392    1913.2126 
  211000     295.6037   -1164.3016    6432.5971    11583.415    1905.2791 
  211100    296.89665   -1169.4277    6460.0075    11633.321     1950.855 
  211200    298.12057   -1172.3658     6458.895    11655.418     1986.902 
  211300    305.32965   -1166.6481    6371.4265    11727.678     1924.205 
  211400    298.04465    -1167.094    6394.3322    11594.505    1873.2383 
  211500    298.87825   -1160.5087    6500.5842    11725.151    1901.2687 
  211600    301.36778   -1165.7883    6405.4256    11677.897    1845.4583 
  211700    295.59661   -1162.4102    6445.4519     11598.01    1943.8393 
  211800    303.03932   -1169.6309    6380.8686    11685.208    1903.8558 
  211900    292.71602   -1167.6211    6407.2434    11493.051    1867.0185 
  212000     298.2422   -1163.2116    6329.4412    11537.717    1894.1975 
  212100    293.47665   -1160.7511    6553.8546    11662.782    1878.5634 
  212200    300.54607   -1171.7119    6467.8333    11716.827    1878.9505 
  212300    301.30694   -1166.1354    6317.9435    11588.769    1868.9384 
  212400     299.6499   -1164.8203     6416.739    11653.479    1927.6752 
  212500    296.82404   -1166.1655    6501.5484    11676.573     1908.139 
  212600    300.53572   -1161.5804    6401.5595    11660.464    1912.1054 
  212700    301.78326   -1161.1733    6386.5869     11672.55     1953.643 
  212800    303.86431   -1159.7292    6432.7496    11764.615    1875.7466 
  212900    298.53812   -1160.6127    6469.5311    11686.727    1843.3211 
  213000    302.08346   -1160.6069    6461.5474     11754.49    1854.1725 
  213100    300.42534   -1161.5127    6477.8181    11734.432    1880.5455 
  213200    300.47066   -1163.6018    6337.9644    11593.457    1889.7029 
  213300    298.80581   -1164.1331    6399.9513    11619.346    1906.2289 
  213400      302.659   -1159.5714    6503.1152    11809.389     1842.113 
  213500    297.88947   -1161.3309    6459.2232    11661.844    1849.1089 
  213600    298.63402   -1165.3758    6290.0706    11504.552    1894.8394 
  213700    304.87343   -1158.8795    6405.6458    11759.919     1940.202 
  213800    306.05026   -1158.3723    6408.8005    11788.722    1900.8498 
  213900    298.96739   -1158.2838    6400.7759    11629.472    1907.9871 
  214000    301.03095   -1158.8373     6418.366    11690.593    1897.0748 
  214100    297.78631   -1163.1329    6432.5401    11631.155    1949.8819 
  214200    297.98234    -1165.691    6439.3847    11639.629    1902.5264 
  214300    298.37096   -1165.2992    6382.6068    11591.545    1864.7686 
  214400    299.99334    -1167.995    6432.7211    11673.623    1868.6613 
  214500    297.25053   -1167.6471    6478.3574    11661.012     1872.863 
  214600    300.59096   -1163.1465    6420.1263    11678.644    1881.9614 
  214700    299.02324   -1165.6547     6368.434    11590.952    1957.5484 
  214800    307.46217   -1163.3684    6396.7239    11801.813    2005.5346 
  214900    296.81313    -1165.276    6363.5514    11539.232    1911.4494 
  215000    295.02082   -1166.0543    6376.6358    11513.249    1889.4039 
  215100    302.37961   -1160.3249    6566.1163    11865.668    1930.1633 
  215200     301.4394   -1167.2492    6392.3429    11664.884       1892.8 
  215300    298.29697   -1169.6184    6335.8365    11538.875    1907.1591 
  215400    299.61378    -1171.241     6417.355    11646.903    1872.3009 
  215500    301.93817   -1166.3325    6481.4667     11765.58    1871.3279 
  215600    301.08534   -1163.6504     6415.161    11683.737    1850.4436 
  215700    298.25872    -1162.106    6372.5118    11582.246    1810.2939 
  215800    301.81474   -1162.7771    6458.3026    11743.334    1824.6099 
  215900    299.79673   -1163.8863    6464.9972    11705.808    1895.6495 
  216000    298.51038   -1164.7275    6411.5496    11624.038    1959.7636 
  216100    299.21528   -1165.0513    6326.0542    11553.278    1929.4526 
  216200    300.49755   -1162.4476    6502.6202    11759.842    1981.5584 
  216300    299.82377   -1161.3135    6407.9912    11651.952    1902.7641 
  216400    295.75114   -1163.8709    6455.7297    11610.128    1884.4777 
  216500    303.53167   -1156.2886    6361.4878    11689.688    1886.6889 
  216600    297.71183   -1159.9434    6373.1445    11573.357    1939.1015 
  216700    303.49375   -1159.7548    6479.0909    11803.015    1980.9856 
  216800    294.68028   -1160.8417    6490.8082    11625.359    1913.5023 
  216900    299.81028   -1163.3359    6415.5172    11657.168    1912.5016 
  217000    298.65756   -1163.3561    6512.0355     11729.04    1964.7348 
  217100     300.2285   -1165.1962    6436.5408    11685.266    1911.8876 
  217200     305.8553   -1165.0804    6363.7985    11732.847     1863.664 
  217300    295.95146   -1160.0721    6383.8527    11546.329    1930.2872 
  217400    300.92433   -1161.9527    6483.7991    11750.633    1933.4221 
  217500    304.54241   -1158.0911    6424.0371    11772.027    1874.4673 
  217600    300.87989     -1162.54    6479.0228     11744.32    2015.0946 
  217700    298.38178   -1163.9658    6302.7475    11513.251    1899.7849 
  217800     298.5084   -1167.8318    6432.0996    11641.442    1909.7935 
  217900    296.96332   -1170.6092    6478.5724    11652.129    1947.4863 
  218000    298.43475   -1171.4957    6401.6709    11605.776    1924.7614 
  218100    300.20501    -1172.137    6456.8733    11698.156    1850.4898 
  218200    295.76104   -1167.6116    6428.0982    11578.967    1823.7697 
  218300    301.45583   -1162.7829    6398.8168    11676.175    1864.1009 
  218400    304.43524   -1159.5419    6403.3495    11747.599    1902.6836 
  218500    298.18195   -1166.4576    6409.6389    11613.381     1927.101 
  218600    307.05649   -1163.4052    6331.0148      11727.4    1908.5458 
  218700    301.43826   -1164.2559    6539.2471    11814.757    1897.2585 
  218800    298.54954   -1162.2523    6391.0058    11606.806    1839.4462 
  218900    301.30991   -1169.1194    6467.7459     11735.65    1923.9505 
  219000    300.65374   -1165.0127    6392.0613    11650.054    1909.6363 
  219100    301.01169   -1162.8623    6473.2239    11741.014     1911.775 
  219200    300.71355     -1159.49    6334.2271    11599.021    1823.5236 
  219300    298.83051   -1158.9519    6436.6792    11661.783    1936.3652 
  219400    303.35352   -1153.7788    6441.1567     11768.06    1924.6546 
  219500    297.50671   -1160.2145    6446.5138    11642.074    1864.2984 
  219600    304.56459   -1157.0321    6428.4108    11777.934    1872.6892 
  219700    300.18238   -1159.2948    6377.0958    11630.737    1894.4411 
  219800    299.93186   -1159.0073     6399.856    11648.433    1913.3142 
  219900    304.32522   -1161.9552    6502.2411    11841.727    1979.8449 
  220000    297.59392   -1155.8177    6404.3514    11606.171     1935.552 
  220100    304.23225   -1160.5557    6365.6387    11704.538    1858.8637 
  220200    297.11557   -1156.7278    6395.7407    11586.431    1872.4989 
  220300    300.74161   -1153.9184    6439.9913    11710.956    1879.8523 
  220400    300.17986    -1160.108    6467.0146    11719.789    1882.9994 
  220500    301.44292    -1159.421    6392.2464    11672.691    1889.5479 
  220600    297.08913   -1163.8156    6413.2384    11596.276    1871.3938 
  220700      301.264   -1164.0318    6458.7641    11730.775    1910.2432 
  220800    295.89465   -1168.0874     6464.995    11618.243    1894.1604 
  220900    298.51793   -1166.7599    6437.3333    11647.951     1907.684 
  221000    305.91902   -1163.8618    6329.0465    11700.675    1898.0007 
  221100    301.24319   -1163.9171    6375.6855    11647.367    1901.1745 
  221200    302.66287    -1162.908    6512.1727    11815.192    1881.4794 
  221300    300.78206   -1164.6085    6414.4698    11675.609    1901.8066 
  221400    298.95777    -1170.287    6326.1843    11542.671    1940.8956 
  221500    301.62199   -1177.0117    6394.3546    11661.034    1936.9198 
  221600    300.87052   -1176.3383     6520.833    11772.132    1870.0573 
  221700    295.66416   -1170.5397    6484.3591    11630.231    1868.6716 
  221800    299.19406    -1170.858     6416.209    11637.173    1921.3018 
  221900    296.65466   -1164.4009    6301.7857    11474.956    1909.6151 
  222000    302.42223   -1162.0868    6361.4325    11660.133    1939.8976 
  222100    294.52468   -1151.7527    6580.2363    11720.552    1933.4094 
  222200    297.10239   -1167.3002    6348.0184    11527.855    1912.8973 
  222300    301.50744   -1165.4901    6331.9969    11607.751    1959.3668 
  222400    299.59111   -1173.1267    6484.3148    11711.493    1954.0174 
  222500    297.48743   -1165.3255    6475.3171    11665.354    1870.3151 
  222600    301.37834   -1163.9517    6399.4924    11674.027    1816.7256 
  222700    300.92183   -1165.5234    6394.8819    11658.092    1936.6406 
  222800    299.11207   -1159.8359    6362.6155     11592.85    1939.2955 
  222900     298.6525   -1154.8304    6424.1721    11649.594     1899.518 
  223000    300.13841    -1156.254    6446.3731    11702.116    1910.7801 
  223100    299.87441   -1159.1647    6399.8007    11646.993    1937.7708 
  223200    299.79264   -1159.1877    6495.5991    11741.021    1934.9251 
  223300    297.60737   -1154.8927    6442.3172    11645.349    1839.7282 
  223400    298.19743   -1154.4566     6467.636     11683.71    1905.0023 
  223500     299.9279   -1162.0968    6397.0926    11642.495      1913.11 
  223600    301.39627   -1159.4479    6487.7663    11767.187    1891.2294 
  223700     300.3988   -1157.4482    6436.6483    11696.759     1852.745 
  223800    306.31808   -1155.2224    6506.3223    11895.116    1929.6403 
  223900    298.52857   -1161.3821    6429.1063    11645.329    1876.8328 
  224000    301.85623   -1158.4803    6366.0379    11656.253    1946.9926 
  224100    299.83427   -1158.2882    6416.6232    11663.834    1945.8805 
  224200    304.50185   -1161.9969    6459.1244    11802.342    1953.8076 
  224300    300.62975   -1163.7915    6479.7733    11738.475    1960.6995 
  224400    303.16713   -1165.5773     6416.662    11727.785    1976.9582 
  224500    298.20783   -1163.8366    6377.8361    11584.752    1964.7512 
  224600    302.83721   -1166.8533    6459.6003    11762.399    2033.8338 
  224700    298.90988   -1166.5772     6407.262    11626.436    1956.1257 
  224800    297.69185   -1161.3325    6455.3279    11653.725    1920.6482 
  224900    298.99779    -1163.828    6437.7481    11661.549    1908.6424 
  225000    297.66262   -1169.0931    6412.1019    11602.114    1906.0889 
  225100    304.10576   -1166.6171    6465.0664    11795.202    1958.0077 
  225200    294.55319    -1170.643    6494.5182    11616.552    1894.2138 
  225300    302.24802   -1167.1574    6351.1751    11641.083    1886.4854 
  225400    293.92494   -1169.3261    6359.3492    11469.279    1946.7285 
  225500    302.85516   -1164.2667    6499.6192    11805.388    2012.0533 
  225600    297.18165   -1167.8444    6380.0068    11560.992    1897.9706 
  225700    296.24954   -1167.2129    6556.6099    11718.314    2005.4868 
  225800     302.0878   -1168.0386    6405.9181    11691.522     2019.477 
  225900    297.90275   -1163.4378    6332.9372    11533.735     1886.319 
  226000     300.2375   -1164.7429    6496.0095     11745.38    1965.5888 
  226100    302.05434   -1166.4026    6449.1562    11735.681    1903.5642 
  226200    298.60705   -1168.7189      6557.87    11768.432    1886.7238 
  226300    298.36756   -1173.8783    6430.6689    11630.956    1855.2317 
  226400    303.33603   -1167.9427    6383.4072    11695.773    1918.2772 
  226500    300.25489   -1162.8286    6490.8633     11742.52    1974.3011 
  226600     303.0678   -1162.0977    6447.4446    11759.925    1930.0156 
  226700    299.62847   -1156.1384    6442.9109    11687.875    1941.4632 
  226800    302.90613   -1158.5996    6417.3782    11729.903    1961.9296 
  226900    297.82213   -1155.4234    6349.9237    11557.013    1905.9312 
  227000    300.51764    -1160.131    6478.5612    11738.528    1916.5419 
  227100    303.59561   -1162.4112    6427.2008    11750.644    1948.0727 
  227200    295.51665   -1160.8785    6427.5197    11579.901    1873.7135 
  227300    300.23685   -1161.7483    6552.8445    11805.196    1933.2727 
  227400    302.35065   -1167.5107     6461.546    11753.293    1869.9362 
  227500    299.24457   -1166.5334    6454.6555    11681.023    1897.4887 
  227600    302.24432   -1160.4438    6335.1235    11631.666    1915.0929 
  227700    298.24632   -1158.2929     6525.342    11738.624    2000.0473 
  227800    303.31605   -1160.8671    6370.1216    11689.136    1912.9873 
  227900    300.20117   -1154.0329    6395.7679    11655.072    1946.2434 
  228000    298.58016    -1154.342    6385.7579    11610.123    1894.5007 
  228100    296.26656   -1163.1452    6393.0907    11559.226    1873.9539 
  228200    302.04149   -1167.0996    6376.2088    11661.762    1953.5146 
  228300    298.82157   -1162.7378    6494.3063    11715.433    1923.8395 
  228400    299.07245   -1164.2828    6476.9644    11701.906    1817.7381 
  228500    302.17773   -1166.4047    6481.8681    11771.027    1920.5548 
  228600     300.8865   -1161.6093    6407.2755    11673.644    1913.6513 
  228700    299.61306   -1162.0331    6382.6218    11621.362    1877.3998 
  228800    295.56805   -1162.6253    6356.9145    11508.647    1948.4873 
  228900    299.44782   -1165.9154    6387.0592    11618.387    1929.1151 
  229000    303.84167    -1162.061    6396.7838    11725.834    1869.3537 
  229100    299.46646   -1163.0348    6505.0245    11739.631    1911.6507 
  229200    300.58732   -1170.0606    6421.0181    11672.544    1893.2429 
  229300    299.52902   -1165.0395     6327.296    11561.234    1853.2126 
  229400    304.11391   -1165.6448    6331.0175      11662.3    1885.5081 
  229500    297.72096   -1168.9915    6515.3787    11706.739    1901.8616 
  229600    303.12184   -1165.1128    6450.6776    11761.298    1828.7711 
  229700    297.37338   -1167.7359    6477.1355    11662.326    1906.7051 
  229800    302.86273   -1168.4639    6295.3245    11597.058    1896.9223 
  229900    297.79628   -1165.3186     6379.244    11575.886    1925.8547 
  230000    301.67124   -1163.6894    6442.9027    11723.956    1896.1461 
  230100    299.75169     -1161.12    6414.9307    11657.546    1886.1694 
  230200    296.03666     -1166.87    6431.5279    11589.027    1930.3664 
  230300    301.01783   -1169.9749     6456.792    11717.601    1949.4817 
  230400     298.9668   -1168.3525    6362.4712    11581.086    1900.4024 
  230500    299.90057   -1172.0181    6388.9653    11623.863    1923.4191 
  230600    292.33588   -1164.8197    6454.0843    11534.572    1872.4607 
  230700     301.3046   -1165.8363     6460.714    11731.788    1848.5097 
  230800    301.45402   -1160.3606    6447.1826    11726.925    1902.5149 
  230900    303.42662   -1159.0041    6382.6971    11705.937    1893.3517 
  231000    296.01648   -1165.4537    6369.9825    11528.467    1833.1461 
  231100     299.9592   -1161.0172    6420.9901    11668.141    1880.8847 
  231200    296.50895   -1163.9985    6465.0952    11635.555    1891.7632 
  231300    302.62905   -1165.5002    6511.5708    11811.276    1860.1287 
  231400    298.00494   -1165.7168     6398.355    11599.057    1825.4318 
  231500    303.34852   -1162.5418     6450.882    11768.916    1888.9075 
  231600    298.57963    -1161.381    6371.8525    11589.167    1813.0593 
  231700     302.9444   -1158.8527    6563.5437    11876.633    1953.2204 
  231800    299.74917   -1157.6021     6500.674    11746.753    2009.1927 
  231900    299.80689    -1156.548    6299.6189    11547.985    1884.6749 
  232000    294.70993   -1157.9292    6426.4926    11564.589    1889.9709 
  232100     302.5896   -1157.6209    6510.8206    11817.562    1875.3602 
  232200    299.99016   -1157.7606    6536.6214     11787.69    1865.2375 
  232300    300.93303   -1166.8346    6370.0101    11632.148    1818.9254 
  232400    299.87405   -1165.1231    6372.7316    11613.957    1899.3594 
  232500    297.69571   -1160.3025    6424.9064    11624.416    1880.5144 
  232600    303.36385   -1160.6185    6346.5151      11666.8    1813.2238 
  232700    301.17361   -1157.5957     6509.692    11786.208    1935.0509 
  232800    300.20621   -1156.7702    6433.8025    11690.477    1940.4436 
  232900    299.55276   -1163.0258    6363.2341    11599.693    1918.0148 
  233000    301.37584   -1163.0254    6391.4203    11666.827    1921.9533 
  233100    299.26607   -1162.4716    6453.8087    11684.697    1930.1937 
  233200    301.28728   -1168.1106    6379.4913    11647.921    1847.0744 
  233300    298.74678   -1171.0135    6512.3548    11723.608    1927.3331 
  233400    300.19225   -1170.7515    6406.3793    11648.775     1894.428 
  233500    294.89589   -1168.5464    6384.5063    11515.958    1795.1256 
  233600     301.3012   -1168.7345    6458.6419    11726.745    1914.9607 
  233700    298.25125   -1163.5387    6455.8401    11663.982    1949.6913 
  233800     296.8785   -1166.2394    6362.5894    11538.704    1831.5438 
  233900    298.54612   -1169.0966     6418.534    11627.417    1897.8183 
  234000      305.858   -1161.1477    6463.5229    11836.562     1996.919 
  234100    301.38245    -1165.018    6440.4352    11713.991    1897.4459 
  234200    301.09446   -1169.0697    6310.6065    11573.958    1838.5781 
  234300    300.61756   -1164.7311    6352.3508    11609.853    1966.5577 
  234400    299.13027    -1165.923    6502.4097    11726.946    1951.1769 
  234500    303.32855   -1163.7084    6485.2356    11801.676    1919.3701 
  234600    298.59089   -1164.4445    6369.6088    11584.101    1951.6848 
  234700     298.2587    -1161.903    6491.4399    11701.376     1932.425 
  234800    304.57167   -1159.2565    6444.7188    11792.169    1811.8812 
  234900    302.88365   -1156.7898    6475.2602    11789.115    1910.7987 
  235000     298.7123   -1160.8077    6373.9448    11594.667    1903.8222 
  235100    293.15482   -1157.1252    6411.9153    11517.593    1885.2083 
  235200    299.00589   -1158.5308    6422.8967    11652.168    1869.3897 
  235300     302.4428   -1155.3491    6434.1245    11740.002    1868.0104 
  235400    300.17432   -1159.0173    6365.5498    11619.296     1861.161 
  235500    298.77447   -1152.3682    6431.2799     11661.77    1879.0677 
  235600    300.76787   -1153.6248    6498.8263    11770.646    1896.9802 
  235700    302.91054   -1155.7489    6434.4262    11749.896    1889.7276 
  235800    296.50606   -1160.8392    6403.4026     11576.96    1861.1437 
  235900    302.25673   -1158.8516    6428.9601     11727.36    1895.5108 
  236000    293.64328   -1160.1807    6440.7543    11553.812    1902.1375 
  236100    298.15204   -1163.7057    6324.8893    11530.745    1843.5163 
  236200    302.57742   -1167.2205     6444.545    11741.427    1948.8448 
  236300    295.02283   -1160.8584    6545.2715    11687.123    1950.8323 
  236400    299.67798   -1161.2428    6417.2348    11658.152    1890.4976 
  236500        307.7   -1161.9435    6385.2785    11796.873    1920.5185 
  236600    294.47079   -1168.2693    6380.7515    11503.399    1914.2349 
  236700    302.24543   -1169.0831    6331.5818    11619.508    1874.5645 
  236800    297.09258   -1165.9226    6575.8816    11756.886    1972.9229 
  236900    301.97495   -1169.6925    6461.7666    11743.306    1929.3693 
  237000    300.13434    -1168.342    6265.5934    11509.161    1887.3454 
  237100    301.38731   -1175.3511    6341.1771    11604.503    1911.3697 
  237200    301.30621   -1167.0879    6517.7299    11787.587    1933.5953 
  237300    296.19074   -1166.3281    6481.8148    11643.147    1906.4293 
  237400    299.43726   -1167.0766    6336.1784    11566.119    1860.5004 
  237500    299.90935    -1167.867    6366.0174    11605.253    1949.0918 
  237600     302.9126    -1169.633    6313.1976    11614.828    1898.4717 
  237700    299.28551   -1170.5216     6459.275    11682.529    1893.3941 
  237800    295.85177   -1166.4787    6479.6654    11633.606    1855.5296 
  237900    295.87996   -1165.3264    6442.2282    11597.923    1842.1614 
  238000    303.84292    -1172.281    6450.8568    11769.714    1906.4945 
  238100    301.68216   -1167.6789    6395.0677    11672.365    1896.9833 
  238200    298.91686   -1160.9408    6393.7232    11618.682     1889.273 
  238300    301.96832   -1158.5143    6350.4147     11642.99    1804.6429 
  238400    299.25708   -1155.1407    6398.7509    11636.779    1876.5648 
  238500    306.37538   -1158.0235    6443.5802    11830.797    1878.7547 
  238600     296.3071   -1158.8306    6549.0654    11720.381    1927.2586 
  238700    305.32536   -1156.9804     6416.753    11782.581    1908.1139 
  238800    301.62979   -1153.3485    6440.8004     11731.31    1887.7072 
  238900    298.21279   -1157.0132    6335.8737    11549.719    1850.6248 
  239000    302.60392   -1155.2134    6400.3246     11709.78    1849.3888 
  239100    304.65204   -1152.1805    6574.2984    11930.541    1869.6214 
  239200    299.29383   -1155.3983    6492.9176    11731.473    1883.0058 
  239300    298.83439   -1157.8089    6401.4882    11627.817    1851.9008 
  239400     299.8181   -1152.8157    6455.7407    11708.079    1939.3647 
  239500    305.45921   -1159.8068    6207.5587    11573.419    1858.9899 
  239600     299.8316   -1157.1919    6400.2662    11648.516    1865.5065 
  239700    302.60772   -1155.5619    6542.1943    11851.382    1846.4623 
  239800    298.17839   -1167.4447     6545.743    11748.422    1877.2847 
  239900      299.549   -1168.9834    6322.2527    11552.674    1811.7006 
  240000    303.04534   -1167.0344    6359.9649    11667.029    1826.8707 
  240100     296.2959   -1173.0463    6437.2985     11594.16    1878.4181 
  240200    301.90512   -1169.7628    6409.4859    11689.463    1869.6245 
  240300    295.89726   -1168.7141    6479.2244    11631.901    1873.7388 
  240400    302.44447   -1168.2078    6489.3749    11782.429    1930.0843 
  240500    300.15208    -1171.482    6362.1634     11602.97    1867.2942 
  240600    297.50886    -1165.134    6365.3247    11556.011    1834.8902 
  240700     302.1937   -1171.0581    6450.1198    11734.966    1899.5589 
  240800    294.67335   -1173.5432    6453.0773    11574.778    1924.6622 
  240900    301.48085   -1174.5995    6480.8962    11746.973    1851.2667 
  241000    294.84273   -1173.0995    6450.7104    11576.473     1919.134 
  241100    300.83185   -1175.4591    6358.8628    11610.215    1934.1222 
  241200    303.66662    -1171.825    6382.5899    11698.136    1861.3454 
  241300    297.52697   -1168.2534    6396.7559     11584.71    1880.5486 
  241400    298.24997   -1170.3179    6334.1735    11535.509    1855.0478 
  241500    302.14353   -1165.7409    6436.7725    11725.865     1828.529 
  241600    298.76052   -1159.9881    6535.2749    11757.847     1929.669 
  241700    299.57381   -1161.7915    6327.3426    11565.486    1929.5292 
  241800     297.4035   -1163.9597    6291.5176    11481.127    1864.5185 
  241900     297.2237    -1165.928    6460.8332    11644.634    1976.9665 
  242000     301.6136    -1166.014    6374.5857    11652.084    1897.1394 
  242100      298.484   -1158.7019    6444.1762    11662.127    1899.8153 
  242200    298.61022    -1163.045    6450.3537    11666.658    1841.5017 
  242300     302.7239   -1157.8178    6484.6566     11794.07    1899.1335 
  242400     303.0961    -1157.067    6382.5307    11700.647    1902.7146 
  242500    296.41877   -1158.3188     6385.489    11559.702    1915.7941 
  242600    297.83988   -1156.0669    6351.9259    11558.751    1927.8961 
  242700    301.85166     -1152.02    6479.5963    11776.174    1912.2037 
  242800    296.44046    -1154.782    6544.4658    11722.679    1910.9962 
  242900    295.07689   -1156.5981    6473.3593    11620.626    1857.8076 
  243000     294.7292   -1164.6443    6346.9664    11478.759      1878.52 
  243100    301.82014   -1157.8404    6401.3008    11691.384    1911.0234 
  243200    300.24358   -1165.3428    6385.5095     11634.41    1878.0902 
  243300    298.43071   -1162.1315    6453.7314    11667.114    1916.5148 
  243400    301.08962   -1155.2049    6434.6694    11711.782    1913.9029 
  243500     299.7217   -1156.8537    6424.8152    11671.056    1877.7089 
  243600    302.51758   -1162.0084    6394.7842      11695.6     1945.187 
  243700    294.47954   -1164.9794    6411.9286    11538.053    1890.4832 
  243800    301.64864   -1162.4851     6350.734    11632.509    1843.9387 
  243900     302.9495   -1166.0742    6498.3758    11804.353     1964.266 
  244000     302.4431    -1162.913    6484.7385    11783.058    1868.5556 
  244100    300.74673   -1167.9098    6497.1554    11754.238    1866.5173 
  244200    300.05963   -1169.6361    6396.8071    11637.485     1890.557 
  244300    301.38755   -1171.2864    6333.4634     11600.86    1886.9682 
  244400    301.78792   -1168.7026    6456.8386    11735.372    1907.0532 
  244500    297.94239   -1168.6879    6477.6258     11674.02    1927.3616 
  244600     306.0518   -1165.8382    6488.0755    11860.564    1968.2019 
  244700    295.64438   -1165.7258    6358.7359    11508.999    1891.5201 
  244800    301.07961   -1164.5654    6401.9433    11669.482    1954.0814 
  244900    298.12102      -1161.6    6450.9272    11658.225    1884.6053 
  245000    305.98718   -1165.0566    6419.0278    11790.918    1926.1517 
  245100     299.0077   -1171.4324    6376.1173    11592.526    1928.7347 
  245200    302.29068   -1171.6913    6301.8936    11588.179     1832.257 
  245300    299.68389   -1168.8104    6496.3781    11729.854     1904.681 
  245400     297.2298   -1159.0304    6513.0503    11703.879    1921.9635 
  245500    305.55997   -1163.3896    6409.9324    11774.363    1912.6526 
  245600    299.26468   -1161.3345    6352.9465    11584.943    1889.9138 
  245700    301.15805   -1159.3054    6317.4536    11591.928    1868.1447 
  245800    298.55188   -1162.2217    6415.2793     11631.16    1892.8565 
  245900    299.76487   -1156.1883    6474.7629    11722.591    1897.4095 
  246000    302.23715   -1160.9475    6408.6984    11704.584    1898.9255 
  246100    302.00191   -1161.3411    6435.5477    11726.014    1900.8561 
  246200    294.21468   -1162.3699    6433.4904    11556.566    1860.0402 
  246300    301.11947   -1162.4552    6396.4177    11666.918    1839.0287 
  246400    300.82455   -1160.0665    6443.1641    11709.752    1872.2913 
  246500    299.11933   -1158.7596    6439.8805    11671.347    1859.4777 
  246600    300.41001   -1158.2443    6468.2896    11727.844    1884.7888 
  246700    292.69728   -1153.6906    6516.1318    11615.469    1860.2921 
  246800    300.55778   -1157.2732    6438.0785    11701.761    1882.5433 
  246900    300.47855   -1161.2558    6360.8495    11618.857    1891.6201 
  247000    301.00679   -1164.0135    6400.8535    11667.388    1941.6571 
  247100    295.38319   -1166.1267    6511.8479     11656.13    1923.8907 
  247200    305.89821   -1166.6995    6405.4382    11773.785    1910.7627 
  247300    297.75149   -1164.4348    6395.2877    11591.857    1914.8771 
  247400    299.72615   -1162.8971    6403.3026    11643.595    1897.6772 
  247500    303.19333   -1165.1822    6405.9301    11718.008    1946.0669 
  247600    302.39656   -1158.0274    6483.0891      11785.3    1920.4256 
  247700    296.73009   -1162.1844     6380.111     11557.11    1884.7138 
  247800    299.55912   -1161.5447    6387.0031    11625.079     1971.891 
  247900    299.56865   -1166.8666    6387.7454    11620.703    1887.5027 
  248000    299.69347   -1163.8896    6515.4118    11754.013    1914.3969 
  248100    298.73118   -1169.7366    6399.3547    11611.551    1912.0527 
  248200     300.5788   -1172.5657      6406.66    11655.499    1908.2353 
  248300    301.09078   -1165.9804    6349.6733    11616.035    1868.4372 
  248400    299.49524   -1164.8128    6408.1255    11641.569    1960.8173 
  248500    299.04493   -1168.6509    6454.0691    11674.054    1898.0962 
  248600     305.4061   -1162.5329    6429.3254    11791.325    1852.6101 
  248700    301.35877   -1165.7083    6395.0137    11667.373     1931.896 
  248800    296.45878   -1162.8764    6362.8373    11533.348    1847.8589 
  248900    299.59098   -1161.8037     6418.143    11656.641    1844.4705 
  249000    301.25226   -1163.2979    6416.4206    11688.915    1852.5377 
  249100    296.90394   -1165.6226    6428.2349     11605.51    1840.0275 
  249200    305.44746   -1163.6802    6521.0668    11882.803    1907.1515 
  249300    294.39857   -1164.8849    6380.0967    11504.585     1867.796 
  249400    303.29037    -1165.955    6286.1006    11599.479    1904.6186 
  249500    302.92525   -1164.6298    6362.6921    11669.595    1854.7196 
  249600    295.83475    -1160.774    6574.3309    11733.612    1888.7559 
  249700    302.15514   -1160.2038    6479.4566    11774.334    1870.1235 
  249800    297.16687   -1161.5201    6419.4695    11606.464    1811.3316 
  249900    304.83446   -1158.4984    6292.8263    11646.648    1835.3441 
  250000    298.84653   -1162.3006    6482.8783    11704.975    1940.5834 
  250100    303.16074   -1163.7279    6487.8902    11800.726    1939.9094 
  250200    295.81891   -1166.5884    6409.6441    11562.773    1893.5356 
  250300    299.92379    -1166.891     6396.956    11637.477    1953.8151 
  250400    300.06912   -1164.2223      6455.11    11701.404    1951.1561 
  250500    293.95421   -1163.7142     6435.522    11551.688    1881.8418 
  250600    304.67983   -1165.9218    6432.0424    11775.138    1847.2762 
  250700    298.55013   -1161.0755    6440.3407    11657.331    1896.6189 
  250800    297.60695   -1167.7748     6413.903    11604.044    1884.4429 
  250900    301.09082   -1164.0023    6453.9071    11722.248     1897.967 
  251000    298.74598   -1164.3544    6451.7118    11669.607    1882.0614 
  251100    299.79594   -1171.0063    6358.2481    11591.922    1871.4932 
  251200    300.72976   -1167.6929    6385.2842    11642.221    1936.8426 
  251300    303.63741   -1160.6711     6584.685    11910.761    2029.3862 
  251400    295.77429   -1161.4993    6436.7624    11594.027    1913.9979 
  251500    303.74548   -1162.1689    6400.4244    11727.312    1947.9979 
  251600    299.56417   -1166.8588    6328.6645    11561.535    1915.1801 
  251700    296.94107   -1170.6591    6395.1249    11568.156    1846.2684 
  251800     300.1267   -1164.7116    6538.4589    11785.494    1840.2864 
  251900    306.94732   -1169.7958    6462.7709    11850.434    1860.9043 
  252000    295.82866   -1165.7603    6409.3842    11563.549    1782.4114 
  252100    301.11171    -1163.034    6470.2811    11740.037    1829.3137 
  252200    293.25406   -1165.7273    6291.2967    11390.492    1877.7433 
  252300     294.4326   -1162.2192    6399.1599    11527.041    1848.5091 
  252400    304.76123   -1155.0616    6644.6471    12000.341    1924.9851 
  252500    300.49746   -1158.8565     6407.998    11668.809    1909.5549 
  252600    300.66273   -1161.1906    6359.9843    11621.992    1892.4404 
  252700    298.97483   -1165.2829    6412.6258    11634.481    1881.7398 
  252800    303.11254   -1161.9909    6398.0099    11711.553    1844.8336 
  252900    298.04543   -1157.2139    6511.0968    11721.166    1896.7097 
  253000    305.82101   -1159.4434     6569.694    11943.647    1885.7344 
  253100     299.3427   -1161.8594    6414.8954    11648.034    1840.9827 
  253200    299.73539   -1165.0963    6448.1633    11686.454     1927.815 
  253300    303.24297   -1159.9975    6417.5354    11735.859    1912.9687 
  253400    295.85894   -1154.4281    6402.3604    11568.504    1944.2471 
  253500    302.40097   -1160.5938    6395.9757    11695.715    1969.2428 
  253600    308.16018   -1164.2235    6532.2466    11951.393    1923.3698 
  253700    297.55161   -1159.1136    6480.2024    11677.822    1873.8324 
  253800    302.91174    -1164.234    6374.5218    11681.532    1945.3951 
  253900    300.70283   -1170.8713    6337.1643    11590.348    1919.4258 
  254000    294.42877   -1169.3494    6373.4314    11494.101    1819.1411 
  254100    303.25861   -1165.7137    6463.4057    11776.347    1847.0789 
  254200    297.97456   -1163.5922    6472.2181    11674.395    1863.6522 
  254300    308.00199   -1163.3682    6447.5898    11864.211    1850.8883 
  254400    299.34483   -1164.0644     6404.353    11635.332    1893.6072 
  254500     299.5447   -1159.9821     6323.402    11562.733    1913.5601 
  254600    302.64742     -1163.24    6496.5124     11798.87    1976.3986 
  254700    296.33975   -1165.0055    6405.8093    11571.648    1838.8806 
  254800    303.51873   -1162.1996    6408.9006    11730.913    1898.6586 
  254900    295.56822    -1170.283    6374.6733    11518.752    1874.5878 
  255000    299.03971   -1167.2273    6396.3357    11617.633    1815.2614 
  255100    306.03199   -1161.5658    6452.6058    11828.944    1912.4701 
  255200    298.56971    -1163.224    6410.6914    11625.951    1910.0902 
  255300    299.21929   -1158.9786    6444.1511    11677.533    1877.2929 
  255400    304.64014   -1155.8872     6421.683    11773.965    1897.4261 
  255500    304.52824   -1160.6637    6503.5432    11848.658    1932.9222 
  255600    299.54299   -1161.3082    6363.2218     11601.19    1829.4946 
  255700     298.0169   -1161.9312    6397.6337    11602.376    1892.7639 
  255800    295.70141   -1161.2023    6495.1172    11651.122    1988.4199 
  255900    299.92681   -1160.3563    6425.2136    11672.333    1953.7429 
  256000    298.37021   -1163.9257     6425.705    11636.001    1920.2066 
  256100      295.643   -1161.1478    6486.6393    11641.451    1921.6878 
  256200    301.56115   -1158.1045    6433.7365    11718.023    1913.4943 
  256300    299.14016   -1157.6327    6459.4872    11692.525    1878.3461 
  256400    300.58818   -1152.0559    6477.2601    11746.809    1936.9094 
  256500    298.16274   -1161.2163    6297.9226    11506.496    1906.2617 
  256600    298.36282   -1161.9525    6386.9216    11599.033    1886.7958 
  256700    306.02364   -1153.6999    6442.9263    11826.952    1863.6053 
  256800    299.47968    -1165.209    6502.8548     11735.57    1917.0578 
  256900    297.55975   -1165.2053    6298.6649    11490.367    1866.3278 
  257000    303.23953   -1161.7174    6323.8068    11640.337    1846.6323 
  257100    303.04883   -1165.3274    6454.9949    11763.841    1921.3205 
  257200    303.00138   -1167.8361    6468.9561     11774.28     1983.521 
  257300    300.43165   -1160.0269    6452.2153     11710.45    1870.2665 
  257400    291.63293   -1166.3534    6462.7028    11526.639    1886.3777 
  257500    301.13157   -1160.5244    6391.9278    11664.617    1948.9826 
  257600    300.30648   -1166.2572    6289.3055    11538.635    1903.0194 
  257700    294.62334   -1165.7859     6361.223    11489.613    1923.1653 
  257800    300.36127   -1165.9239    6477.2319    11728.066    1943.0496 
  257900    304.59114   -1161.9347    6462.9153    11808.103    1899.8959 
  258000    297.94262   -1167.3409     6386.014     11583.76     1806.773 
  258100    301.03673   -1163.7123       6458.3    11725.776    1963.8022 
  258200    299.95293   -1165.5707    6424.5121    11666.976    1946.6241 
  258300    302.00073   -1165.9989     6310.786    11596.569     1867.471 
  258400    298.09166   -1161.5172    6462.3623    11669.116     1939.092 
  258500    303.90043   -1164.2103    6548.8576    11877.014    1953.6545 
  258600    297.40489    -1165.928    6459.3065    11646.978    1916.6788 
  258700    303.08441   -1164.3182     6386.295     11696.91    1928.0939 
  258800    301.96874   -1168.4324    6358.3478    11641.014    1943.9092 
  258900    298.37548   -1169.4884    6426.9587    11631.804    1888.8692 
  259000    304.44635   -1167.6719    6475.4277    11811.785    1814.7221 
  259100    299.33345   -1160.9375    6530.6498    11764.512    1874.0182 
  259200    302.76496   -1159.2978    6525.4084    11834.219    1929.3494 
  259300    299.69071   -1169.2978     6330.996     11564.13    1876.1517 
  259400    301.78467   -1159.9164    6468.3744    11755.624    1948.4125 
  259500    304.15293   -1163.7707    6520.9119    11854.902    1955.4827 
  259600    297.57458    -1159.952    6420.8753    11618.147    1891.4625 
  259700    301.54681   -1166.6145    6373.6052    11649.076    1866.7457 
  259800     299.0932   -1157.5407    6453.9784    11686.105     1912.552 
  259900    298.48928   -1162.7023    6384.2308    11598.294     1931.113 
  260000    300.57899   -1163.3227    6367.3616    11625.448    1878.1923 
  260100    297.30837   -1164.7714    6542.1369    11728.903    1903.5871 
  260200    300.03851   -1164.7182    6428.0494    11673.193    1865.9653 
  260300    305.98542   -1162.0352    6303.7232    11678.597    1870.1363 
  260400    303.93576   -1163.7017    6404.9629    11734.382     1952.378 
  260500    297.76991   -1157.0773    6450.8219    11655.142    1933.6827 
  260600    301.98066   -1158.0307    6464.2809    11757.604    1935.4931 
  260700    297.91227   -1160.7671    6386.7616    11590.433    1944.4315 
  260800     297.1993   -1164.8356    6425.2451    11609.617    1884.7389 
  260900    301.50038   -1163.2387    6428.5523    11706.407    1936.3541 
  261000    302.53888   -1161.8339    6368.9848     11670.43    1979.0288 
  261100    299.66919   -1161.8805    6456.1016    11696.193    1946.3224 
  261200    297.53752   -1167.8107    6512.5481     11701.17     1954.558 
  261300    301.11238   -1161.0728    6416.4828    11688.214    1906.3299 
  261400    295.63097   -1157.7056    6435.8177    11593.814    1866.1096 
  261500    296.44774   -1157.4955      6426.95    11602.606     1911.501 
  261600    301.09656    -1154.611     6303.859    11581.714    1898.2838 
  261700    298.22637   -1157.5159    6473.7427    11687.376     1932.209 
  261800    298.56677   -1168.4651    6393.4951    11603.451    1852.7341 
  261900     305.0941   -1162.8914    6512.0361    11867.012    1960.2223 
  262000    302.81939   -1163.7749     6420.033     11725.53    1859.3627 
  262100    297.17264   -1166.8567    6459.5451    11641.326    1853.0227 
  262200    302.21746   -1170.0381    6355.1977    11641.572    1876.4542 
  262300    297.05984    -1166.034    6465.9115    11646.105    1911.2751 
  262400    294.83499   -1164.7791    6396.6904    11530.608    1817.7528 
  262500    303.12194   -1157.2607    6466.5166    11784.991    1892.8829 
  262600    297.72609   -1164.2992    6516.9981     11713.16     1941.981 
  262700    301.73719   -1162.6154    6450.4945    11734.031    1906.3207 
  262800    300.77916   -1168.7423    6347.2269     11604.17    1911.6959 
  262900    297.77441   -1167.8454    6344.2252    11537.873    1945.2073 
  263000    304.19711   -1165.7818    6471.8939    11804.817    1912.8788 
  263100    300.26474   -1162.9627    6452.3601    11704.093    1838.8578 
  263200    298.30064   -1165.9713    6442.1092    11648.873    1912.2063 
  263300    299.28326   -1170.4467    6353.5946    11576.876    1932.0699 
  263400    299.74561   -1166.7827    6340.9904    11577.813     1843.315 
  263500    303.16687   -1167.2241     6439.213    11748.684    1935.0924 
  263600    300.34057   -1157.5699    6418.3604    11677.106    1878.8798 
  263700    294.83536   -1158.5944    6434.2722    11574.383     1854.534 
  263800    302.72477   -1165.4246    6293.5715    11595.397    1865.0923 
  263900    299.75119   -1161.5233    6453.4467    11695.648    1942.6779 
  264000    296.99412   -1165.5123    6522.7118    11702.023    1879.1774 
  264100    300.69293   -1157.1577    6439.0203    11705.706    1871.9132 
  264200     296.4295   -1158.2561    6358.3869    11532.892    1889.0837 
  264300    294.87063    -1159.156    6423.0711    11563.374    1941.5185 
  264400    301.59698    -1157.794    6370.2741    11655.637    1899.1621 
  264500    301.10453   -1155.3404    6485.2848    11762.581     1952.663 
  264600    296.10219   -1152.7211    6414.2199    11587.268    1835.2816 
  264700    300.82651   -1157.0368    6411.4197     11681.08    1834.8595 
  264800    306.96357   -1155.5885      6428.24    11830.457    1925.6562 
  264900    293.61183   -1150.9736    6367.9302    11489.523    1882.4958 
  265000    303.35348   -1153.3077    6496.8681    11824.242    1901.6511 
  265100    300.59936   -1164.6543    6465.3487    11722.539    1915.8047 
  265200    298.47959   -1158.3561    6363.5168    11581.719     1899.597 
  265300    300.12794   -1162.0714    6413.3247    11663.026    1880.0278 
  265400    303.80038   -1160.5882    6454.5164    11784.157    1906.2181 
  265500    296.23417    -1164.285    6501.3936    11665.697    1947.8427 
  265600    303.69786   -1158.1856    6430.1986    11760.052    1891.8243 
  265700    298.28066   -1161.3685    6455.3413    11666.282    1935.7133 
  265800    297.56998   -1164.9441    6381.7718    11573.954    1954.1988 
  265900    305.34364   -1160.7663    6360.6625    11723.095    1871.8733 
  266000    302.29085   -1163.5071    6426.5554    11721.029    1871.2549 
  266100    298.37062   -1169.6999    6462.5176    11667.048    1926.7661 
  266200     300.7999   -1166.5785    6432.5521    11692.102    1926.8543 
  266300     291.8705     -1170.57    6380.5876    11445.383    1891.6797 
  266400    303.90971   -1173.6805     6359.972    11678.856     1892.192 
  266500    298.09111   -1169.8893    6414.8352    11613.205    1910.9913 
  266600     299.9146   -1167.7977    6468.4241    11707.842    1935.9779 
  266700    295.26322   -1170.6805    6388.9012    11526.066    1942.4719 
  266800     301.5492   -1170.0334    6396.9808    11669.083    1915.9728 
  266900    300.35153   -1166.3665    6396.1432    11646.326    1931.2613 
  267000    296.77205   -1165.3225    6398.4135     11573.17    1910.2104 
  267100    303.57326    -1162.949    6469.2177    11791.646    1972.5819 
  267200    293.44388   -1167.6205    6304.6143    11405.972    1848.3518 
  267300    304.42069   -1174.4167    6373.3977    11702.462     1851.685 
  267400     299.1818   -1168.8097    6500.5317    11723.282    1855.2553 
  267500    298.93053   -1169.8735    6506.8717     11723.19    1873.2255 
  267600     301.3926   -1166.8632    6432.2591    11704.186    1915.7495 
  267700    302.30702   -1164.9684    6337.8277    11631.185    1913.5167 
  267800    298.80919   -1159.2237    6470.7575    11695.134    1916.7481 
  267900    296.65339   -1158.3165    6504.4118     11683.64    1937.2722 
  268000    296.87449   -1152.6304    6394.7787    11584.416    1864.0155 
  268100    297.93968   -1160.9895    6379.6086    11583.643    1887.7432 
  268200    299.90759   -1162.8313    6427.5475    11671.782    1897.5703 
  268300    298.31925   -1165.6138    6390.3318    11597.851    1763.9387 
  268400    299.86149   -1164.3154    6495.1696    11736.935    1807.9337 
  268500    299.58318   -1162.3745    6437.4223    11675.183     1827.402 
  268600    300.42033   -1168.9722    6458.0597    11707.107     1915.753 
  268700    301.30187   -1163.9987    6415.4866     11688.34    1830.1202 
  268800    299.59368   -1163.7494    6552.8926    11789.502     1949.343 
  268900    296.35402   -1160.4715    6375.2405    11545.918    1924.3422 
  269000    302.24214   -1160.4463    6346.5499    11643.043    1917.2875 
  269100    303.20493   -1164.1411    6419.6816    11733.048    1938.4136 
  269200    296.74752   -1159.4231    6434.2193    11614.352    1895.5024 
  269300     300.7362   -1171.0508    6375.5438     11629.26    1865.4042 
  269400    305.01391   -1167.0329    6343.8323    11692.954    1886.9019 
  269500    300.23826    -1168.187    6476.4938    11722.436    1893.4662 
  269600    297.71348   -1165.5262     6441.706    11636.371    1824.1201 
  269700     293.5089   -1163.8946    6517.7906    11624.263      1891.93 
  269800    301.15227   -1162.6972    6403.2044    11674.163    1894.6782 
  269900    293.39761   -1164.5426    6303.1764    11406.624    1870.2752 
  270000     298.8156    -1169.335    6425.3361    11639.738    1950.8406 
  270100    305.33111   -1170.3257    6439.1246     11791.73    1907.5757 
  270200    295.98169   -1170.0113    6525.5057    11678.689     1954.812 
  270300    297.94923   -1167.2615    6423.6364    11621.603    1890.2308 
  270400    301.55215   -1163.9841    6450.7647    11728.979    1935.1273 
  270500    300.06956   -1163.7657    6438.2674    11685.027    1886.0836 
  270600    298.34937   -1161.7488    6346.4495    11558.477    1855.9552 
  270700    305.43421   -1161.0958    6460.6698    11824.707    1923.2112 
  270800    297.37366   -1162.9731    6534.7461    11724.705    1907.0916 
  270900    302.09766   -1159.4322    6378.0715    11672.492    1925.7823 
  271000    297.41683   -1164.2092    6359.4648     11549.11    1890.1861 
  271100    301.27293   -1161.8738    6433.6824    11708.042    1899.3087 
  271200    305.17963   -1156.7816    6459.7603    11822.673    1972.4814 
  271300    294.77007   -1159.0049    6344.0834    11482.389    1887.0718 
  271400    304.86682   -1161.3607    6472.2056    11823.857    1967.8495 
  271500    295.12547   -1160.7547    6384.1275    11528.276      1899.66 
  271600    298.34013   -1158.7051    6427.5674    11642.441    1896.7943 
  271700    301.39423   -1159.5052    6451.8714    11731.191    1944.1957 
  271800    299.07818   -1164.5189      6367.44    11592.268    1876.2445 
  271900    296.97433   -1163.7345     6517.814     11698.48    1934.2822 
  272000    302.57235    -1158.087    6663.8439    11969.751    1948.6567 
  272100    302.48727   -1168.3578    6302.4418    11596.261    1860.7976 
  272200     298.4012     -1162.71    6289.1802    11501.354    1865.5385 
  272300    298.16988   -1164.8107    6412.8635    11617.995     1922.536 
  272400    303.35613   -1161.6556    6486.1407    11805.223    1952.9641 
  272500    298.10045   -1163.7725    6494.6903    11699.377    1906.0145 
  272600    302.40352   -1165.3005    6430.3038    11725.391    1890.8181 
  272700    297.92867   -1167.2869    6420.2009    11617.703    1924.9743 
  272800    301.15606    -1167.649    6429.6787    11695.767    1850.8168 
  272900    301.15259   -1172.7832    6457.1565    11718.036    1867.5605 
  273000    305.37754   -1170.0115    6427.6701    11781.581    1906.8749 
  273100    297.99708   -1170.0701    6462.0267    11658.207    1955.2523 
  273200    301.07395   -1165.1238    6271.6365    11538.496    1875.9603 
  273300    298.96942   -1163.5818    6418.3708    11641.812    1850.3489 
  273400    301.10524   -1160.2482    6515.0085    11787.412    1863.0004 
  273500    300.11416    -1159.347    6406.3415    11658.473    1810.7179 
  273600     294.8404   -1169.0635    6415.1281    11544.877    1859.5171 
  273700     304.7316   -1162.5151    6429.4332    11777.041     1890.762 
  273800    297.63168   -1161.1525    6376.1643    11573.456    1812.0075 
  273900    299.89067   -1165.4086    6449.9709    11691.266    1809.5266 
  274000    297.54505   -1155.5077    6549.0977    11750.184    1907.8619 
  274100     299.4798   -1161.3428    6363.2597    11599.843    1895.4825 
  274200    297.76826   -1153.1469    6312.0781    11520.293    1909.1988 
  274300    300.73043   -1155.3963    6448.0807    11717.329     1918.753 
  274400    293.14939   -1156.8074    6515.2569    11621.136    1868.0604 
  274500     301.0724   -1155.0077    6504.3688    11781.311      1827.79 
  274600    304.05479   -1158.5836    6334.5746    11671.655    1803.2439 
  274700     297.3959    -1164.493    6364.0694    11552.983    1801.2944 
  274800    292.86816   -1162.2704    6479.4796    11573.888    1854.9704 
  274900    296.45735   -1159.2069    6382.3912    11556.541    1868.2766 
  275000    303.58712   -1156.5179    6456.0405    11785.196      1938.76 
  275100    295.71074   -1156.5143    6351.3036    11512.195    1919.7324 
  275200    299.77327    -1157.396    6383.4829    11630.283    1922.1257 
  275300    300.28037   -1158.6054    6514.7537    11771.178    1947.6419 
  275400    300.25363   -1165.1038    6382.0351    11631.389    1887.0532 
  275500    300.52773   -1168.9202    6434.3492    11685.743    1874.5414 
  275600    296.67247   -1167.3515    6535.5327    11706.133    1861.4761 
  275700    300.82317   -1169.6994    6511.3341     11768.26    1859.0823 
  275800     301.6136   -1170.9826    6423.3539    11695.883    1869.5768 
  275900    294.55447   -1166.4983    6454.7346    11580.941     1906.562 
  276000    301.62779   -1167.5438    6369.6386     11645.91    1866.0101 
  276100    300.21285   -1157.8278    6472.1871    11727.946    1946.0715 
  276200    306.06371    -1158.865    6503.5233     11883.24    1976.8349 
  276300    299.76949   -1166.6792    6455.9229    11693.359    1966.1929 
  276400    302.55016   -1166.9002    6303.8803      11600.5    1915.2311 
  276500    298.75172   -1168.0318    6377.3222    11591.662    1893.6508 
  276600    300.46836   -1175.0276    6465.7447    11709.763    1871.5591 
  276700    296.78298   -1175.5895    6552.2111    11716.935    1881.6798 
  276800    297.03392   -1168.2068    6422.3243    11599.792    1863.3679 
  276900     299.8649   -1163.0261    6323.8484    11566.976    1915.5639 
  277000    300.17531   -1154.4185    6385.8115    11644.178    1939.4211 
  277100    300.04781   -1153.4412    6452.4564    11709.076     1918.671 
  277200    300.05223   -1158.0604    6399.0228    11651.118    1925.3024 
  277300    301.80616   -1153.7358    6359.9487    11653.838    1942.5986 
  277400    297.75435   -1161.4459    6339.6922    11539.311    1838.0331 
  277500    298.39046   -1160.9541    6528.5731    11742.273    1906.2346 
  277600    301.07146   -1157.5717    6433.2692    11707.627    1802.7086 
  277700    298.69749   -1157.9118    6401.6737    11624.975    1811.9695 
  277800    298.83283   -1158.0966    6474.8176    11700.826    1911.0098 
  277900    299.31396   -1153.4928    6418.8357    11659.726    1881.2527 
  278000    304.22031   -1149.6342    6475.5941     11825.16     1932.985 
  278100     297.0759   -1155.9086    6405.8172    11596.479    1864.0929 
  278200    299.71477   -1153.1677    6422.5667    11672.345    1822.6033 
  278300     301.6184    -1153.632    6441.5894    11731.572    1874.1861 
  278400    297.29903   -1154.1927    6419.7554      11616.9    1917.7195 
  278500    299.81243    -1154.099    6408.0235    11658.957    1815.7572 
  278600    304.55488   -1158.5341    6465.7996    11813.613    1824.5608 
  278700    299.50977   -1160.8828     6471.229    11708.913    1858.0854 
  278800    299.63168   -1155.4339    6437.2097    11682.947    1791.9342 
  278900    300.94127   -1157.6036    6464.4246     11735.97    1798.1221 
  279000     301.9899   -1160.0593    6402.4253    11693.917    1872.2931 
  279100     294.9991   -1159.8952    6406.3446    11548.653    1879.0104 
  279200     302.4765   -1159.6575    6380.3485    11682.637    1857.8898 
  279300    299.12523   -1159.0905    6304.9641    11536.225    1921.7111 
  279400     301.5134   -1154.9791     6382.404    11668.796    1908.1265 
  279500    298.89439   -1152.2444    6619.9893    11853.165    1947.5821 
  279600    301.97101   -1163.5523    6384.3041    11671.899    1853.8458 
  279700    297.49809   -1164.1358     6368.591    11560.045    1862.2546 
  279800    304.41702   -1164.2086    6410.6425    11749.836    1859.8453 
  279900        301.5   -1165.2672    6501.9383    11777.756    1864.1596 
  280000    300.42605   -1164.4589    6442.3641    11696.047    1875.8689 
  280100    299.66318   -1165.9594     6384.623    11620.508    1827.3383 
  280200    301.15989   -1160.0225    6393.7688    11667.565     1879.442 
  280300      300.186   -1156.6663     6396.132    11652.479    1915.0919 
  280400    299.30782   -1155.4558    6455.4028    11694.199    1926.0573 
  280500    300.44762   -1152.3953    6453.2325     11719.44    1936.4483 
  280600    303.54074   -1157.6352    6476.4874    11803.534    1980.1969 
  280700    295.96828   -1160.1115    6365.0108    11527.808    1910.9769 
  280800    297.55767    -1161.175    6460.1977    11655.886    1855.7602 
  280900    295.11574   -1163.6863    6413.4652    11554.474    1849.6729 
  281000    301.16432   -1163.6078    6423.9801    11694.286    1838.8635 
  281100    299.23102   -1155.7541    6515.7258    11752.583    1862.5642 
  281200    300.51176   -1157.1157    6483.0604    11745.917    1913.8913 
  281300    302.24782   -1160.3843     6388.323        11685    1911.0933 
  281400    296.65902   -1152.1225    6402.5534    11588.096    1932.2931 
  281500    305.55015   -1156.6731    6424.6347    11795.572    1970.3908 
  281600    298.29595   -1151.2809    6343.1572    11564.512     1886.904 
  281700    301.61726    -1158.785     6467.083    11751.888    1957.8523 
  281800    299.61064    -1161.776    6364.3431    11603.289     1846.966 
  281900    299.90839   -1163.3812    6448.7121    11692.413     1856.589 
  282000     300.8472   -1167.3475    6444.5547    11704.346    1832.9006 
  282100     303.8385   -1167.3122    6501.1804    11824.912    1831.0228 
  282200    295.47504   -1159.2841     6446.031    11599.118    1813.3975 
  282300    298.55126   -1167.8351    6424.4419    11634.696      1863.22 
  282400    299.52409   -1160.9448    6523.3635    11761.291    1897.1876 
  282500    301.25965   -1158.5574    6371.8458    11649.239    1867.8597 
  282600    297.80374   -1163.4033    6359.3209    11558.038    1930.8416 
  282700    306.36879   -1159.3673    6359.8547    11745.586    1869.4646 
  282800     299.1687   -1167.4317      6456.31    11680.158    1893.4913 
  282900    297.55239   -1165.5249    6459.7685    11650.994    1924.8427 
  283000     299.7556    -1162.106    6328.2901    11570.003    1909.4652 
  283100    300.97537    -1167.758    6469.9938    11732.113    1922.1905 
  283200    298.32333   -1172.1762    6376.1326    11577.177    1882.5689 
  283300     300.0384   -1162.1443    6458.2091    11705.925    1905.0942 
  283400     299.8619   -1161.4806    6432.2819    11676.891    1862.5036 
  283500    300.07853   -1167.2113    6473.7029    11717.209    1936.2625 
  283600    305.90235   -1157.8173    6350.5635    11727.881     1840.993 
  283700     296.3129   -1156.2702    6452.1773    11626.177    1836.2184 
  283800    302.51075   -1160.2176    6448.9603    11751.421    1901.6448 
  283900    298.84685   -1161.7547     6528.663    11751.313    1940.7861 
  284000    303.89235   -1163.8036    6349.0489    11677.439    1866.8019 
  284100    300.07365   -1158.3735    6429.2671    11681.507    1922.3769 
  284200     299.0657   -1155.2619    6475.0925     11708.91    1842.9493 
  284300     301.8747   -1155.0222    6541.0338    11835.101    1842.5167 
  284400    295.51513   -1158.3909    6428.0703    11582.907    1840.9131 
  284500    299.29128   -1153.5671    6379.4705    11619.802     1863.979 
  284600    296.39714   -1155.6703    6426.0214    11602.421     1847.088 
  284700    302.61032    -1159.351    6410.3754     11715.83    1860.3389 
  284800    297.45481   -1158.6853    6525.0368    11721.017    1899.0936 
  284900    303.54285   -1164.5624    6464.2359    11784.401    1854.5545 
  285000    298.40228   -1162.0594    6481.0898    11693.937    1819.7156 
  285100    302.58532   -1159.7382    6358.6829    11663.216     1872.068 
  285200    300.45426   -1165.9738    6400.2821    11653.053    1913.8315 
  285300    295.91821   -1165.5669    6412.9916    11569.263    1914.3778 
  285400    302.58868    -1160.114    6465.9785    11770.207    1940.1907 
  285500    300.72201   -1157.8455    6481.5626    11748.181    1903.4999 
  285600    305.73668   -1162.7381    6395.8775    11764.734    1920.6329 
  285700    299.50425   -1162.4862    6341.7536    11577.716    1948.3703 
  285800    295.83602    -1169.168    6384.0216    11534.936    1935.8892 
  285900    301.17931   -1176.0567    6384.4488    11642.626    1801.0377 
  286000    298.91726   -1166.8774    6514.0575    11733.089    1925.7958 
  286100    306.22958   -1167.4561    6403.2662    11777.935    1945.5105 
  286200    300.17501   -1167.3202    6391.0421      11636.5    1892.6321 
  286300    300.47795   -1167.8181    6383.8512    11635.283    1905.6875 
  286400     297.7481   -1156.4645    6430.4791    11634.946    1911.6619 
  286500    300.64916   -1152.1466     6440.065    11710.826    1827.9825 
  286600    300.24865   -1162.0931    6447.5993    11699.858     1855.384 
  286700    297.36057   -1172.6084     6442.987    11623.031    1933.3303 
  286800    301.42827    -1170.718    6323.0685    11591.903    1862.5649 
  286900    304.59815   -1165.5496    6446.7634    11788.486     1918.201 
  287000    296.71928   -1163.0057    6573.3874    11749.334    1912.6234 
  287100    303.51824    -1161.446    6391.1261    11713.882    1863.4465 
  287200    299.77695   -1161.8914    6477.6746    11720.058    1950.1243 
  287300    302.61451    -1160.795    6291.6884    11595.788    1874.2951 
  287400    296.92889   -1160.1983    6446.2165    11629.448    1940.4496 
  287500    299.05342   -1157.3451    6473.0135    11704.486    1861.8561 
  287600    301.33859   -1153.0411    6401.0424    11685.638    1900.6525 
  287700    298.19879   -1158.1262      6438.19    11650.623    1933.4452 
  287800    307.67387   -1159.5121    6450.7137    11864.182    1936.0744 
  287900    298.46633   -1156.3649    6478.3315    11698.242    1943.9431 
  288000    302.61034   -1161.2844    6391.7992    11695.321    1895.6499 
  288100    299.72858   -1158.5485    6428.7358    11673.428    1917.6458 
  288200    295.15115   -1154.8869    6468.2473    11618.812    1905.2268 
  288300    300.34965   -1163.0275     6436.393    11689.875    1933.9073 
  288400    303.73396   -1156.8358    6341.6105    11673.585    1903.4051 
  288500    296.72289   -1159.3916    6382.8754    11562.513    1890.4088 
  288600    298.32496   -1160.5841     6474.419     11687.09    1941.1388 
  288700    297.86787   -1161.9714    6401.0965    11602.615    1869.3566 
  288800    305.12281   -1163.8151    6399.9657    11754.631    1911.8465 
  288900    303.35973   -1160.1416    6409.6269      11730.3    1966.2942 
  289000     296.6965   -1165.8505    6356.1271    11528.742    1959.0083 
  289100    304.53408   -1159.3751    6506.4116     11852.94    2001.5646 
  289200    296.87869   -1165.7635    6338.9401    11515.534     1898.581 
  289300    305.15599   -1163.2053    6462.9697    11818.954    1969.9741 
  289400    296.41364   -1167.8138    6403.0567    11567.666     1942.466 
  289500    298.82987   -1169.3529    6323.9648    11538.653    1880.5343 
  289600    304.29035   -1165.3083    6411.7807    11747.169    1864.2261 
  289700    298.20079    -1168.073     6534.085    11736.614    1879.8968 
  289800    293.98551   -1161.7967    6420.0964    11538.849    1840.9551 
  289900     302.3816   -1162.0265    6323.2822    11621.175    1866.1959 
  290000    300.01543   -1161.6862    6402.9486    11650.632    1947.9306 
  290100     300.1411   -1160.7591    6405.5211    11656.816     1919.919 
  290200    300.32765   -1170.1497    6508.9421    11754.832    1940.0545 
  290300    297.57449   -1163.0812    6379.0609    11573.202    1854.6786 
  290400    303.38447   -1162.9762    6477.7412    11796.109    1905.2173 
  290500    296.67808   -1164.1294    6463.7235    11637.666    1847.2875 
  290600    298.95129    -1165.084    6450.4473    11671.999    1839.9681 
  290700    299.43078   -1159.5412    6443.0671    11680.405    1922.5073 
  290800    300.55589   -1161.6776     6394.832     11654.07     1878.907 
  290900    295.33592   -1161.4095    6573.2527    11721.242    1998.8755 
  291000    297.78063   -1157.2466    6460.9293    11665.309    1921.9125 
  291100    302.09742   -1165.3753    6439.0457    11727.518    1925.7976 
  291200    294.72153    -1160.494    6433.4147    11569.194    1897.9593 
  291300    302.40099   -1162.7522    6449.4031    11746.984    1932.7598 
  291400    297.26199   -1166.7178    6379.8483    11563.677    1876.2216 
  291500    294.75135    -1164.089    6421.4363    11554.258    1905.8881 
  291600    302.30293   -1159.9783    6497.9246    11796.185    1962.4493 
  291700     303.5427   -1169.3256     6457.408    11772.806    1953.6417 
  291800    297.88996   -1167.9569    6407.5991    11603.604     1878.574 
  291900    299.71362    -1163.278      6452.85    11692.494    1941.3186 
  292000    300.45418   -1164.5966    6284.7875    11538.934     1869.926 
  292100    298.15513   -1165.2702    6418.0467    11622.403    1892.1333 
  292200    305.21222   -1161.5376    6413.2392    11772.092    1943.5321 
  292300    297.80478   -1169.0631    6442.6547    11635.734    1925.4575 
  292400     299.6531   -1171.5615    6506.7011    11736.768    1915.2682 
  292500    300.29327   -1162.8083     6457.373     11709.87    1873.0685 
  292600    299.84139   -1167.9306     6418.949     11656.67    1968.0695 
  292700    298.08879   -1167.5454    6356.4831    11557.147    1909.7025 
  292800    302.52786   -1167.5598     6404.719    11700.203    1865.9708 
  292900    299.29687   -1160.8591    6528.1504     11761.31    1951.6506 
  293000    300.59962   -1164.2619    6481.9929    11739.581    1893.8758 
  293100    303.65775   -1165.6601    6309.3727    11630.895    1889.1268 
  293200    298.89095   -1169.2225     6339.014    11555.138    1944.8281 
  293300    304.57148   -1165.8092    6450.1239    11791.017    1966.9808 
  293400    303.66696   -1158.5962    6402.9195    11731.702     1828.307 
  293500    297.48412   -1165.1359    6535.3394    11725.495    1944.8239 
  293600    303.61805   -1163.4519    6366.7043    11689.586    1925.7845 
  293700    298.17459   -1156.2222    6340.1127    11553.933    1844.3839 
  293800    299.50181   -1159.8537    6502.6788    11741.222    1930.4368 
  293900    296.59094   -1160.9635    6521.8022    11697.049     1960.508 
  294000    299.87885   -1156.2729    6437.7494    11687.928    1926.1842 
  294100    302.99233   -1159.4815    6345.6382    11659.123    1853.8161 
  294200     300.9363   -1160.0948    6393.8274    11662.775    1948.6027 
  294300    299.11859   -1158.0939    6482.5812    11714.697    1932.3709 
  294400    300.98054   -1157.6002       6348.7    11621.087    1866.4547 
  294500    298.13601    -1160.736    6412.9907    11621.473    1846.4122 
  294600    300.04688    -1158.135    6487.0703    11738.977    1873.0983 
  294700    300.81723   -1164.3899      6454.51    11716.619    1822.3123 
  294800    296.60264   -1170.0243    6426.2216    11592.658    1898.4541 
  294900    297.86411   -1164.6277    6394.3461    11593.128    1918.2224 
  295000    298.01108   -1160.4596    6333.8908    11539.981    1854.4376 
  295100    302.00216    -1160.642     6489.583    11780.754    1968.4499 
  295200    300.03982   -1158.1155    6464.3384    11716.113    1905.5547 
  295300    300.60948   -1159.9714    6453.7135    11715.802    1888.8407 
  295400    298.23636   -1168.0814    6398.3299    11601.611    1903.6701 
  295500    300.58917   -1175.1538    6372.8056    11619.278    1890.9794 
  295600    298.88083   -1173.7586    6427.9964    11639.368    1882.3743 
  295700    300.42917   -1171.3808    6528.5318    11775.359    1878.6645 
  295800    299.79652   -1168.0615    6497.1225    11733.754    1895.3276 
  295900    300.64598   -1166.8055    6372.3005    11628.335    1992.3763 
  296000     298.9365   -1163.4206    6243.8441    11466.743    1965.0854 
  296100    298.87785   -1161.4713    6325.4774    11549.073    1896.6001 
  296200    303.23531   -1167.4706    6480.0511    11790.737    1915.7736 
  296300    297.80971   -1160.9118    6566.7365    11768.072    1934.8613 
  296400    302.43303   -1164.1054    6375.6183    11672.531     1862.669 
  296500     302.3003   -1169.6067    6344.9337    11633.509    1907.9779 
  296600    294.47186   -1164.5051    6442.7472    11569.181    1883.8121 
  296700    302.98732   -1170.1434     6508.514     11811.23    1904.3184 
  296800    297.47162   -1160.0141     6361.435    11556.446    1869.0172 
  296900    300.90854   -1160.8424    6309.8614    11577.468    1951.4809 
  297000    300.71752   -1159.7799    6406.3662    11670.955    1981.1521 
  297100    297.79933   -1159.8471    6509.7581    11711.937    1933.1293 
  297200    301.82679   -1157.1928    6334.5849    11625.458    1875.4353 
  297300    295.78779    -1157.778    6360.2874    11521.562    1868.5919 
  297400    304.35012   -1155.8226    6420.3908    11766.541    1923.7053 
  297500    299.24931    -1157.125    6510.4011    11746.278    1979.3017 
  297600    297.62716   -1163.4679    6403.7033    11598.583    1899.9247 
  297700    302.40454   -1167.3552    6430.7442    11723.798    1907.8884 
  297800    305.40554   -1169.5811    6376.5973    11731.537    1873.6664 
  297900     299.7881   -1165.9844    6463.2443    11701.773    1898.4412 
  298000    299.15764   -1163.4893    6418.1346    11645.689    1913.5977 
  298100    296.97928   -1162.0406    6328.1598    11510.626    1874.5366 
  298200    301.52259   -1153.4409    6403.1289    11691.256    1937.1901 
  298300    296.91501    -1160.958    6429.2387    11611.414    1880.5034 
  298400     304.3297   -1162.7037    6414.6164     11753.45    1915.9266 
  298500    298.71009   -1161.7301    6348.1988    11567.952    1872.8728 
  298600     296.2506     -1166.81    6500.3799    11662.509    1919.2331 
  298700    299.12517   -1174.2693     6384.821    11600.902    1858.4019 
  298800    295.72723    -1169.556    6472.0759    11620.278    1902.2407 
  298900    298.59466    -1173.028    6421.4195    11627.408    1883.9212 
  299000    300.47775   -1169.7377    6414.9674    11664.476    1862.0044 
  299100    299.71137   -1163.2353    6500.5998    11740.238      1921.72 
  299200    305.27909    -1162.878    6338.6284     11697.57    1902.7831 
  299300    296.13207   -1160.7921    6347.3434    11512.959    1846.5048 
  299400    303.30679   -1165.1416    6378.6201    11693.163    1848.6178 
  299500    304.98136   -1164.7624    6443.6679    11794.364    1919.1123 
  299600    296.97325   -1171.9992    6408.9553    11581.334     1876.832 
  299700    304.77222   -1172.4238    6373.1385    11711.706    1856.6194 
  299800    299.81267   -1170.6965    6465.3792     11699.72    1934.8221 
  299900    303.02137   -1169.6741    6351.6307    11655.543    1831.3658 
  300000    302.03638   -1161.4965    6475.9402    11766.987    1919.2813 
Loop time of 283.45 on 8 procs for 300000 steps with 7168 atoms

Pair  time (%) = 137.956 (48.6702)
Bond  time (%) = 80.9958 (28.575)
Neigh time (%) = 19.5983 (6.91419)
Comm  time (%) = 30.1961 (10.6531)
Outpt time (%) = 0.460396 (0.162426)
Other time (%) = 14.2437 (5.02514)

Nlocal:    896 ave 901 max 891 min
Histogram: 2 0 0 1 1 0 0 1 2 1
Nghost:    2842.5 ave 2850 max 2837 min
Histogram: 2 0 2 1 0 1 0 0 0 2
Neighs:    23617.5 ave 24019 max 23124 min
Histogram: 1 0 0 1 2 0 2 1 0 1

Total # of neighbors = 188940
Ave neighs/atom = 26.3588
Ave special neighs/atom = 157.056
Neighbor list builds = 3053
Dangerous builds = 0
unfix           NVT
# −−−−−−−−−−−−−−− Equilibration in nve −−−−−−−−−−−−−−−−−
fix             NVE all nve
run             300000
Memory usage per processor = 11.5453 Mbytes
Step Temp E_pair E_mol TotEng Press 
  300000    302.03638   -1161.4965    6475.9402    11766.987    1919.2813 
  300100     300.4205   -1158.8144     6507.821     11767.03    1898.0391 
  300200     299.9328   -1156.9567    6516.3284    11766.976    1966.2955 
  300300    304.52319   -1164.3405     6425.685    11767.015    1941.3907 
  300400    303.19695   -1157.6322     6447.241    11766.946    1888.0102 
  300500    299.68369   -1157.1225    6521.8662    11767.026    1953.6865 
  300600    307.86273   -1163.1325    6353.1565    11767.039    1920.0488 
  300700    301.18612   -1159.9711    6492.6149    11767.023    1896.3372 
  300800    302.66254   -1161.1191    6462.2303    11767.032    1949.6065 
  300900    301.36005   -1162.1343    6491.0007    11766.962    1999.0163 
  301000    303.52568   -1158.1427     6440.802     11767.02    1914.5703 
  301100     299.9881   -1157.9254    6516.1843    11767.044    1901.0441 
  301200    301.96944   -1150.0778    6465.9752    11767.011    1945.4037 
  301300    304.91602   -1160.0276    6412.9583    11766.994    1924.7243 
  301400    301.48634   -1156.5659    6482.8384    11767.066    1904.4886 
  301500    303.78185    -1157.137    6434.3254    11767.022    1891.1814 
  301600    301.36763   -1160.0326    6488.7797    11767.004    1966.8098 
  301700     302.6612   -1163.0927    6464.2032    11767.003    1928.5655 
  301800    300.99925   -1163.5791    6500.2041    11767.012    1988.8548 
  301900    305.31468   -1168.9958     6413.518    11767.102    1875.8389 
  302000    301.76161   -1168.7061    6489.1004    11767.068    1878.7572 
  302100    302.37705   -1163.7206    6471.0585     11767.16    1926.2049 
  302200    302.39193    -1163.906    6470.9358    11767.169    1957.3191 
  302300    303.33852   -1166.3011    6453.0305    11767.091    1909.7478 
  302400    304.53964   -1157.9003    6418.9726    11767.095    1898.2153 
  302500    302.40982   -1161.3604    6467.8895    11767.051     1897.795 
  302600    303.29051   -1164.9376    6452.7228    11767.122    1899.7119 
  302700     303.0492   -1164.9502    6457.9305    11767.161    1912.1759 
  302800    302.50115   -1163.9101    6468.6042    11767.167    1874.8243 
  302900     300.4676   -1165.1232     6513.156    11767.062    1843.1743 
  303000    301.68883   -1168.7316    6490.7268    11767.114    1907.9128 
  303100     303.2013   -1165.4859    6455.1878    11767.132    1936.8367 
  303200    303.99453   -1165.0955    6437.7023    11766.983    1916.5253 
  303300    302.64693   -1166.5977    6468.0225    11767.012    1919.3272 
  303400    302.76044    -1156.932    6455.9341    11767.014    1954.1469 
  303500    299.83638   -1153.9373     6515.391    11766.998    1971.7484 
  303600    307.57624   -1161.7555    6357.8265    11766.965    1937.0544 
  303700    300.53739   -1160.7495    6507.1934    11766.964     1929.057 
  303800    301.13146   -1162.5565    6496.3482    11767.003    1890.7799 
  303900    303.48332   -1168.0506    6451.5145    11766.919    1938.0582 
  304000    300.24705   -1162.8364    6515.4808    11766.962    1954.4844 
  304100    302.98234   -1160.4627    6454.7513    11767.041    1866.4125 
  304200    302.08475   -1164.8506    6478.2754    11767.002    1894.8706 
  304300    301.52508    -1163.311    6488.7023    11767.012    1902.4941 
  304400    303.19033   -1160.8325    6450.6116    11766.975    1903.6543 
  304500    299.18849   -1158.9969    6534.3753    11767.081    1911.3377 
  304600    297.98566   -1160.3269    6561.3782    11767.058    1928.7234 
  304700     304.0454   -1162.7853    6434.3917     11767.07    1902.1486 
  304800    300.67718   -1160.8513    6504.4255    11767.081    1897.5548 
  304900    299.39628    -1164.868    6535.8647    11767.139     1911.528 
  305000    302.67941   -1167.4188     6468.386    11767.248    1954.8829 
  305100    304.48639   -1163.9787    6426.3096    11767.215    1943.4191 
  305200    301.69083   -1166.9124    6488.8547    11767.104    1961.1444 
  305300    303.80118   -1163.5416    6440.3556     11767.06    1925.3175 
  305400    302.29262   -1165.0709    6474.2417    11767.189     1851.302 
  305500    303.16402   -1164.2374    6454.7429     11767.14    1885.7579 
  305600    302.52903   -1164.6034    6468.6944     11767.16    1940.6874 
  305700    303.32435   -1164.0623    6451.1211    11767.118    1896.1887 
  305800    300.18126   -1162.8862     6517.108    11767.134    1942.7236 
  305900    303.38542   -1172.2324      6457.97    11767.102    1928.4028 
  306000    302.03245   -1163.9136    6478.3804    11766.927    1917.2485 
  306100    304.09149   -1160.4967    6431.0855    11767.037    1920.0484 
  306200    302.89056   -1169.6633    6465.8779    11767.007    1927.9234 
  306300    297.69264    -1154.834     6562.106    11767.019    1963.8763 
  306400    304.96092   -1160.7576    6412.7296    11766.994    1851.7166 
  306500     302.5272   -1162.4889    6466.4472    11766.988    1889.8784 
  306600    303.91888   -1160.3718    6434.6758    11767.065    1882.8946 
  306700    301.11859   -1165.0822    6499.0952     11766.95    1865.2454 
  306800    303.02689   -1157.3363    6450.5842    11766.952    1840.3257 
  306900    301.38078    -1162.895    6491.3515    11766.994    1917.3788 
  307000    302.88377   -1157.9181    6454.2389    11766.968    1951.2308 
  307100    301.41523   -1151.2502     6478.904    11766.928    1935.1451 
  307200    301.09677   -1156.2448    6490.6822    11766.908    1956.8404 
  307300    300.59094   -1157.3229    6502.6132    11766.955    1984.7494 
  307400    302.64989   -1155.7865    6457.0277    11766.892    1921.7034 
  307500    299.44588   -1156.8969    6526.6524    11766.957    1938.3099 
  307600    301.16883   -1166.0093    6498.9942    11766.995    1951.5486 
  307700    302.98768   -1158.6083    6452.7744    11767.033    1956.4838 
  307800    298.17254   -1165.7126    6562.7298    11767.016    1923.2719 
  307900    302.19571    -1164.171    6475.3281    11767.105    1956.7165 
  308000     303.5954    -1169.859    6451.0939    11767.085    1896.8234 
  308100    303.01221   -1168.1156    6461.8754    11767.151    1973.2911 
  308200    303.28675   -1157.0457    6444.8357    11767.046    1928.6446 
  308300    299.06047   -1158.3448    6536.5112    11767.134    1943.2444 
  308400     305.0729   -1162.1574    6411.8022    11767.059    1963.9841 
  308500    303.16115   -1165.6445    6456.2685    11767.197    1995.2215 
  308600    302.82131   -1167.9819    6465.8461    11767.177    1866.9167 
  308700    301.32095   -1164.6908    6494.6573    11767.226    1767.7967 
  308800    302.14853   -1171.3325     6483.633     11767.24    1782.4274 
  308900    302.71624   -1172.2099     6472.392     11767.25    1897.3196 
  309000    301.69997   -1171.9217    6493.7661    11767.201    1958.8066 
  309100     305.3892   -1165.2113    6408.2232    11767.184    1931.1521 
  309200    304.27424   -1171.6697    6438.5763    11767.259    1958.7296 
  309300    302.79051   -1162.9605    6461.4326    11767.127    1874.4469 
  309400    300.42824    -1159.396     6508.302    11767.094    1955.6821 
  309500    302.40665   -1165.0381    6471.6782    11767.094    1996.0775 
  309600    306.54061   -1161.9091    6380.2376    11767.098    1928.3122 
  309700    302.93082    -1161.568    6456.9614    11767.046    1877.3559 
  309800    298.01084   -1163.6313    6564.0983    11767.011    1885.8692 
  309900    302.06285    -1163.319    6477.1796     11766.97    1867.1234 
  310000    301.37807    -1161.453     6489.941    11766.968    1902.0103 
  310100     304.3362   -1159.6023    6424.9052    11766.979    1939.2022 
  310200    302.64656   -1159.3775    6460.6891    11766.891    1944.8277 
  310300    303.28585   -1158.2738    6446.0427    11767.006    1905.4322 
  310400    302.13529   -1156.3607    6468.6759    11766.972    1950.8541 
  310500    300.30437   -1161.3654    6512.7553    11766.932    1969.9771 
  310600    302.75355   -1159.0581    6458.1769    11766.984    1956.8412 
  310700    305.65667   -1156.8473    6393.9539    11766.992    1897.8959 
  310800    298.09482   -1158.9386     6557.601    11767.001    1935.3839 
  310900     303.8376   -1161.3924    6437.3679        11767    1923.8695 
  311000    299.24604   -1162.1187    6536.2652    11767.079    1916.5214 
  311100    302.25128   -1159.6009    6469.5627    11767.097    1889.9268 
  311200    302.60664   -1161.0166    6463.3363    11767.046    1954.3479 
  311300    305.32566   -1169.0652     6413.291     11767.04    1878.8908 
  311400    303.34121   -1169.4262    6456.1454    11767.139    1890.0207 
  311500    299.26447    -1168.887    6542.7601    11767.199    1886.5579 
  311600    303.51022   -1172.9724    6456.1063    11767.164    1849.1206 
  311700    301.31513   -1164.4681    6494.5659    11767.233    1916.7099 
  311800    306.37078   -1165.6682    6387.6835    11767.157    1945.8036 
  311900     302.3402   -1164.3139    6472.4267    11767.147    1942.1754 
  312000     298.7494   -1163.8738    6548.7299    11767.179    1925.3937 
  312100     305.0136   -1162.7748    6413.8529    11767.226    1888.4738 
  312200     305.1111   -1168.8794    6417.8393     11767.19    1964.4129 
  312300    302.67653   -1173.3217    6474.3424     11767.24    1941.2908 
  312400    303.99642   -1171.4759    6444.2488     11767.19    1922.4077 
  312500    301.93076   -1171.7555    6488.6616    11767.193    1946.9501 
  312600    299.18387   -1161.1594     6536.679    11767.124    1916.8192 
  312700     303.9303    -1167.248    6441.3716    11767.128    1904.1565 
  312800    301.29371   -1161.6201    6492.1778    11767.235    1931.4936 
  312900    303.52681   -1159.1384    6441.8965    11767.143    1911.7355 
  313000    304.18535    -1161.736    6430.3323     11767.05    1873.0211 
  313100    302.21607   -1161.8312    6472.4904    11767.042    1909.0926 
  313200    299.33925   -1164.2555    6536.4287    11767.097    1890.6744 
  313300    304.04402   -1163.4053    6434.9775    11767.006    1915.5062 
  313400    301.14629   -1160.9188    6494.4288    11767.038    1929.1087 
  313500    299.09183   -1158.8436    6536.1363    11766.931     1939.521 
  313600     302.8466   -1157.4012    6454.4541    11766.906    1910.4797 
  313700    306.12682   -1155.2992    6382.2262    11766.857    1854.7046 
  313800    297.96347    -1155.145    6556.6011    11766.988    2022.4411 
  313900    302.98863   -1160.0277    6454.1019    11766.961    1947.2215 
  314000    302.33552   -1158.8367    6466.8373    11766.935    1921.6295 
  314100    301.66372   -1158.2917    6480.6681    11766.959    1940.5839 
  314200    302.70289   -1161.9324    6462.1756    11767.026    1957.6028 
  314300    300.39539    -1158.374    6507.8205    11766.933    1910.5971 
  314400    304.51333   -1160.0805    6421.6222    11767.002    1915.1702 
  314500    302.80527   -1167.0786    6465.1675    11767.059    1963.7336 
  314600    301.93929   -1162.9355    6479.5582    11767.092    1994.8494 
  314700    301.72979   -1167.8344    6488.9038    11767.063    1947.7673 
  314800    302.11186   -1164.9559    6478.0153    11767.216     1966.515 
  314900    298.10071   -1172.1254    6570.8884    11767.227    1931.3448 
  315000     301.8205   -1173.8744    6493.1223     11767.18     1884.726 
  315100    304.48939    -1166.714    6429.0047    11767.239    1864.7032 
  315200    303.16057   -1168.9577    6459.7364    11767.339    1914.9797 
  315300    303.61862   -1162.8822    6443.8091    11767.273    1930.4486 
  315400    305.14643    -1164.442    6412.7175    11767.261    1962.8139 
  315500     301.5514   -1164.0583    6489.1843    11767.309    1959.5369 
  315600    299.69707   -1170.7671    6535.5286     11767.33    1962.6836 
  315700    304.86058   -1174.6727    6429.0331    11767.239    1918.4649 
  315800    300.95128   -1172.9984    6510.8215    11767.185    1955.3908 
  315900    302.49139   -1173.0611    6477.9506    11767.154    1853.5471 
  316000    304.20698   -1172.6513    6440.9157     11767.18    1891.7448 
  316100    301.86617   -1171.0073    6489.3081    11767.208    1917.5191 
  316200    305.21941   -1167.0303    6413.6132    11767.127    1904.3348 
  316300    305.09622   -1158.0563    6407.1797    11767.036    1944.2172 
  316400    301.89683   -1158.2301    6475.7735    11767.106    1990.6032 
  316500    301.24846   -1155.9883     6487.363    11767.086    1956.9291 
  316600    300.56103   -1157.1492    6503.1488    11767.025    1983.7352 
  316700     304.5074   -1160.2036    6421.8414    11766.971    2034.9612 
  316800    300.53766     -1163.29    6509.6766    11766.913    1963.3113 
  316900    299.35541   -1158.7257    6530.4388    11766.982     1930.173 
  317000    302.29047   -1155.6406    6464.6523    11766.984    1993.0099 
  317100    303.86659   -1154.1159    6429.3327     11766.86    1977.2426 
  317200    301.03202   -1154.1474     6490.029    11766.969    1890.5744 
  317300    301.64574   -1154.7865    6477.4585     11766.87    1931.8164 
  317400    298.15585    -1154.541    6551.8058    11766.907    2002.7628 
  317500    303.38642   -1152.8054    6438.3057    11766.886    1878.2445 
  317600    302.77241   -1151.5009    6450.1371    11766.904    1915.1164 
  317700    302.15383   -1161.7196    6473.6233    11766.957     1970.645 
  317800     303.1289   -1159.5312    6450.6599    11767.013    1945.3536 
  317900    301.49981   -1161.4523    6487.4029    11767.031     1920.005 
  318000    303.02139   -1165.0523    6458.5813    11767.116    1907.1583 
  318100    301.21894   -1163.9601    6495.9656    11767.086     1904.521 
  318200    304.39916   -1162.1042    6426.1236     11767.04    1928.9177 
  318300    303.92921   -1163.7371    6437.8798    11767.124    1923.0265 
  318400    300.31728   -1167.5263    6518.8687     11767.16    1918.8573 
  318500    298.99832    -1174.389    6554.0683     11767.32    1980.0666 
  318600    308.04967   -1171.7016    6357.8774    11767.184    1906.0316 
  318700    300.60851   -1166.6778    6511.9301    11767.292    1934.4105 
  318800    304.89801   -1168.1697    6421.7531    11767.261    1895.3719 
  318900    299.24143   -1164.4308    6538.8991    11767.302    1931.5191 
  319000    301.48342   -1168.0841    6494.6862    11767.333    2012.6219 
  319100    301.15547   -1168.0639    6501.6349    11767.295    1966.0054 
  319200    304.79168   -1171.5914    6427.5119    11767.327    1897.4834 
  319300    302.97473   -1168.7278     6463.421    11767.284    1965.3786 
  319400    301.94828   -1166.4276    6483.0631    11767.297    1942.2577 
  319500    306.84748   -1167.4961    6379.4441    11767.274    1904.4255 
  319600    301.25414   -1166.3205    6497.6943    11767.206    1903.4925 
  319700    298.64743   -1160.2973    6547.2656    11767.112     1982.839 
  319800    303.96804   -1161.0587    6434.2429    11766.995    1889.7714 
  319900    296.36899   -1155.3895    6590.8821    11766.961    1979.4776 
  320000    304.93683   -1152.2485    6404.6525    11766.911    1983.2824 
  320100    300.67386    -1156.836    6500.2783    11766.878    1977.6547 
  320200    302.75728   -1153.2867    6452.2058    11766.864    1929.8505 
  320300    302.70153   -1157.8145    6457.9193    11766.858    1935.8997 
  320400    298.36458   -1156.5557     6549.264     11766.81    1880.1556 
  320500    300.43219   -1158.0449    6506.5621     11766.79    1927.8279 
  320600    303.05644   -1157.3807    6449.7668    11766.722    1956.4453 
  320700    303.61205   -1153.1527    6433.6738    11766.727    1924.1584 
  320800     303.4307   -1149.9142    6434.3803    11766.797    1927.1479 
  320900    299.67398   -1154.4934    6519.1662    11766.748    1942.6073 
  321000    299.32971   -1155.9256     6527.951    11766.745    1958.4672 
  321100    305.61219   -1153.7235    6391.6787    11766.891    1880.2712 
  321200    303.20697   -1159.1014    6448.4399     11766.89     1920.889 
  321300    300.88561   -1159.9784    6499.0967    11767.078    2017.6803 
  321400    302.15849   -1160.7029     6472.669    11767.119    1930.5891 
  321500    304.11503   -1168.3805     6438.541    11767.111    1890.8517 
  321600    301.76575   -1163.1648    6483.5782    11767.176    1887.3265 
  321700     300.8895   -1170.1791    6509.3711    11767.235    1878.2567 
  321800    301.72407   -1163.4699    6484.8148    11767.217     1905.298 
  321900    304.62859   -1170.2225    6429.4914    11767.191    2009.2267 
  322000    300.74311   -1160.7599    6503.0869    11767.242    1931.7112 
  322100     302.8657   -1160.8629    6457.8664    11767.265    1883.1618 
  322200    301.17287   -1161.5732    6494.7707    11767.294    1920.8041 
  322300    304.67951   -1169.1296    6427.3368    11767.217    1885.2872 
  322400    301.78803   -1169.6814      6489.71    11767.267    1872.3685 
  322500    303.31177   -1169.3943    6456.8668    11767.263    1851.6129 
  322600    303.65314   -1176.2293    6456.5079    11767.362    1862.8254 
  322700    301.20268   -1168.0721    6500.6288     11767.29    1898.5523 
  322800    301.82268   -1166.0592    6485.2488    11767.168    1903.0243 
  322900    304.65354   -1160.2941    6418.8578    11767.019    1889.6828 
  323000    301.60913    -1155.936    6479.5037    11766.984    1917.9397 
  323100    306.11648   -1158.7979    6386.0375    11766.949    1860.2786 
  323200    301.82607   -1161.3385    6480.2145    11766.927    1888.3396 
  323300    299.97177   -1160.4718    6519.0232    11766.988    1940.0986 
  323400    304.85776   -1164.3621    6418.5806    11767.037    1925.1865 
  323500    300.00594   -1161.7717    6519.5691    11766.964    1954.7588 
  323600    304.97128   -1159.9526     6411.595    11766.886    1898.0362 
  323700    299.93464   -1153.9439    6513.1336    11766.833    1872.0919 
  323800     301.8327   -1149.1631    6467.8441    11766.873    1821.6757 
  323900    304.02687   -1155.9818    6427.7232    11766.809    1868.3929 
  324000     302.5371   -1151.7474    6455.3421    11766.836    1870.0906 
  324100    303.20495   -1148.9617    6438.2594    11766.806    1862.4326 
  324200    297.75729   -1154.0462    6559.8404    11766.922    1911.6957 
  324300    302.50106     -1160.51    6464.9349    11766.896     1897.203 
  324400     301.2028   -1162.8347    6495.0711    11766.972    1882.7688 
  324500     301.2281   -1162.3553    6494.0182    11766.939    1929.2402 
  324600      305.445   -1163.8842    6405.4518    11766.931    1919.4115 
  324700    298.49345   -1154.9169    6545.0926     11767.03    1950.3824 
  324800    303.72763   -1158.5189    6436.8719    11767.028    1886.6297 
  324900    303.23044   -1160.5068    6449.6051    11767.151    1987.5599 
  325000    303.77612   -1163.7314    6441.1404     11767.12      1928.54 
  325100    301.89847   -1162.3281    6479.8138    11767.083    1885.1393 
  325200    302.05879   -1171.8006    6486.0246    11767.247    1921.4095 
  325300    303.76446   -1167.2338    6444.9106    11767.138    1872.4391 
  325400    300.02634   -1165.8519    6523.4967    11767.247    1932.9433 
  325500     303.0376   -1171.3052    6464.6855    11767.314    1967.4077 
  325600    299.90683   -1165.0023    6525.1903    11767.237    1917.4854 
  325700    305.47277   -1170.4512    6411.7749    11767.281    1837.0263 
  325800    302.73645   -1168.3027    6468.0403    11767.237    1925.5658 
  325900    304.79321   -1166.2807    6421.9989    11767.157    1894.1821 
  326000     299.0291   -1168.7296    6547.6078    11767.176    1947.8351 
  326100    302.84081   -1166.3412    6463.7547    11767.143    1899.7028 
  326200    300.16764    -1163.524    6518.0507    11767.148    1845.9455 
  326300    300.50998   -1160.2168    6507.3816      11767.1    1836.3103 
  326400    303.55535    -1165.397     6447.582    11767.179    1909.8899 
  326500     303.9591   -1164.4257    6437.8967    11767.091    1889.2927 
  326600    300.81703   -1161.1126     6501.677    11767.059    1873.7902 
  326700    304.32838   -1160.2795    6425.7257    11766.955    1862.7731 
  326800    297.88204   -1160.4855    6563.7133     11767.02    1912.7252 
  326900    304.19774   -1157.7173    6425.8628    11766.863    1876.7816 
  327000    301.63377   -1153.7583    6476.6493    11766.834    1860.3995 
  327100    299.49385   -1159.2243    6527.8775     11766.88    1907.0768 
  327200    304.45404   -1160.1756    6422.8513    11766.869    1851.7479 
  327300    299.73733   -1158.3603    6521.7763    11766.844    1902.5974 
  327400    299.27843   -1159.1079    6532.3705    11766.887    1905.7655 
  327500    302.17111   -1163.6947     6475.176    11766.903    1913.5444 
  327600    300.93928   -1158.6344    6496.4392    11766.911    1845.6012 
  327700    303.95136   -1153.5383    6427.0737     11766.99     1849.417 
  327800     305.5917   -1161.3076    6399.7314    11766.922    1936.1263 
  327900    300.18382   -1156.2071    6510.2272    11766.987    1904.6098 
  328000    302.70792    -1160.097    6460.2674    11767.061    1912.9489 
  328100    304.73592    -1166.101    6423.0041    11767.119    1910.3345 
  328200    303.60656   -1166.7984    6447.8317    11767.122    1852.5815 
  328300    302.25916   -1164.3185    6474.1609    11767.146      1870.48 
  328400    302.73454   -1166.9644    6466.6903    11767.185    1903.0988 
  328500    301.43702   -1165.3964    6492.8331    11767.176    1892.9611 
  328600    302.25016   -1169.9108    6479.9548    11767.155    1876.2539 
  328700    301.40038   -1166.8133    6495.0723    11767.216    1908.8894 
  328800     302.7202   -1169.5754    6469.6376    11767.215    1860.9403 
  328900    306.49751   -1165.6278    6384.8395    11767.061    1874.7815 
  329000    300.25645   -1167.4018    6520.0453    11767.162    1972.3884 
  329100    302.08774   -1166.7002    6480.2032    11767.144    1945.3121 
  329200    301.79962   -1166.8856    6486.5675    11767.168    1864.6849 
  329300    298.97104   -1169.7777    6549.8603     11767.14    1902.6346 
  329400    304.87436   -1174.4744     6428.474    11767.172    1914.2368 
  329500    299.68309    -1171.022    6535.9541    11767.201    1952.7391 
  329600    303.24865   -1162.1296    6450.7895    11767.102    1923.1951 
  329700    303.83937    -1166.027    6442.0161    11767.051     1998.085 
  329800     302.6052   -1163.1394    6465.4394    11766.996    1998.1081 
  329900    302.37947   -1158.9502    6466.0371     11766.96    1868.5677 
  330000    300.30232    -1156.205    6507.6822    11766.975     1929.512 
  330100    306.08419   -1162.2336    6390.0841     11766.87    1973.0055 
  330200    300.51537   -1154.1436    6501.0008    11766.907    1925.2134 
  330300    300.65992   -1165.4779    6509.3016    11766.962    1920.4183 
  330400    304.56482   -1162.8894    6423.2117    11766.882    1905.4657 
  330500    301.58714   -1165.9775    6489.9286    11766.898     1865.065 
  330600    302.60518   -1161.7909    6463.9697    11766.874    1840.0719 
  330700    301.91735    -1157.649    6474.4445    11766.796    1863.6707 
  330800    301.01682   -1158.4714    6494.4726    11766.764    1842.5032 
  330900     299.6176   -1156.9011     6522.875    11766.844    1866.2027 
  331000     302.5991   -1156.1092    6458.4297    11766.886     1908.556 
  331100    302.74942   -1162.9987     6462.048    11766.826    1946.7492 
  331200    302.15005   -1160.1467    6472.0853    11766.911    1868.1856 
  331300    299.25451    -1160.095    6533.9074    11766.926    1882.0519 
  331400    303.71931   -1161.1165    6439.6512    11767.032    1846.4015 
  331500    304.44557    -1162.178    6425.1773    11767.012    1837.5993 
  331600     302.2334   -1156.1349    6466.4065    11767.025     1882.647 
  331700    302.81533   -1159.1934    6457.0156    11767.007    1896.4789 
  331800    305.34808   -1161.8742    6405.6851    11767.104    1856.8127 
  331900    298.38659   -1157.3216    6549.8297     11767.08    1852.3846 
  332000    300.23712   -1163.6219    6516.6067     11767.09    1938.0058 
  332100     304.1752   -1164.6221    6433.4625    11767.077    1875.3712 
  332200    301.49427   -1166.6326    6492.8573    11767.187    1904.4562 
  332300    302.66364   -1166.6169    6467.8612    11767.189    1883.8973 
  332400    305.83989   -1161.2783    6394.5596    11767.081    1905.0326 
  332500     299.3811   -1167.2452    6538.5403    11767.113    1937.3637 
  332600    301.54274   -1163.0096     6488.103    11767.091      1947.46 
  332700    304.16003   -1159.4438    6428.5754    11767.044    1954.0067 
  332800    305.36716   -1159.2993    6402.6798    11767.081    1873.3611 
  332900    302.50904   -1159.3342    6463.8069    11767.114    1899.2859 
  333000    302.02307   -1156.1755    6471.0207    11767.105    1908.3458 
  333100    304.41683   -1160.7571    6424.3823    11767.024    1883.1865 
  333200    303.05951   -1157.1168    6449.7758     11767.06    1964.9797 
  333300    301.05827   -1159.7344    6495.0979    11767.011    1922.6645 
  333400    304.30654   -1166.0716    6431.9931    11766.964    1849.9688 
  333500    300.20117    -1162.496    6516.1361    11766.977    1957.9538 
  333600    302.30803   -1161.3726    6470.0261    11767.001    1907.5925 
  333700    303.70406    -1158.935    6437.7768    11767.013    1870.5213 
  333800    303.88975   -1161.8853    6436.7115    11766.964    1869.9006 
  333900    301.58433   -1165.0003    6489.0175    11766.904    1928.0309 
  334000    298.76619   -1155.2081    6539.4966     11766.97    1896.3681 
  334100     302.1875   -1159.2388    6470.3817    11766.915    1824.8692 
  334200    306.88953   -1162.5533    6373.2052    11766.876    1847.9905 
  334300    301.93792   -1158.6481    6475.1115    11766.904    1927.8046 
  334400    300.79422    -1155.399    6496.3014    11766.909     1877.612 
  334500    302.53376   -1155.9084    6459.6607    11766.922    1899.5007 
  334600    301.58833   -1159.7885    6483.7597    11766.943    1927.9939 
  334700    305.39129   -1160.5173    6403.2333    11766.932    1848.4699 
  334800    303.20812    -1162.207    6451.5965    11766.966    1850.2989 
  334900    299.97945   -1155.0521    6513.3543    11766.903    1941.4191 
  335000    302.42726   -1160.3303    6466.4696    11767.034    1921.6647 
  335100    304.12637   -1159.7447     6429.554    11767.003    1843.4923 
  335200    300.41873   -1160.3705    6509.4122    11767.027    1947.8558 
  335300    302.31204    -1163.128    6471.7212    11767.026     1984.025 
  335400    301.49431   -1162.5206    6488.5503    11766.993    1866.8041 
  335500    304.79976   -1160.1188    6415.6119    11767.072    1904.7069 
  335600     300.9976   -1159.0537    6495.7148    11767.013    1891.2127 
  335700    300.03383   -1156.9702    6514.2451    11767.037    1874.7828 
  335800    302.68476   -1162.2237    6462.8839    11767.056    1861.8869 
  335900    303.76372   -1157.9558    6435.5516    11767.042    1881.7055 
  336000    302.12322   -1160.4382    6473.0504    11767.011    1870.9277 
  336100     304.3351   -1157.4861    6422.8497    11767.016    1945.8692 
  336200    305.47283   -1165.3249    6406.4129    11767.046     2012.536 
  336300    299.71199   -1163.3618    6527.4891    11767.014    1938.7678 
  336400    301.61354   -1161.3879    6484.9587    11767.081    1907.0419 
  336500    300.43583   -1164.7141    6513.3767    11767.013    1923.0214 
  336600    302.09467   -1162.5022    6475.7018    11766.989    1889.7176 
  336700    303.06636   -1162.3295    6454.7117     11766.93     1906.014 
  336800     300.3488   -1157.1984    6507.7021    11766.995     1880.312 
  336900     299.1561   -1160.1485    6536.1235    11766.986     1863.719 
  337000    304.75235   -1159.1773    6415.5662    11766.955    1863.7925 
  337100    302.15013   -1159.6023    6471.5224    11766.894    1872.3957 
  337200    304.77564   -1161.5573    6417.4289    11766.936    1880.6568 
  337300    301.36334   -1166.9579    6495.7887    11766.996    1877.0864 
  337400    302.52858   -1161.1734    6465.0571    11766.943      1897.53 
  337500    302.08844   -1161.5576    6474.8503    11766.949    1886.4383 
  337600    303.80303   -1160.6719    6437.2881    11766.902    1819.5515 
  337700      300.188    -1156.758    6510.6698    11766.968    1922.1687 
  337800    303.92071   -1159.8208    6433.8656    11766.844    1932.0674 
  337900     302.8267   -1156.4522    6453.9198    11766.895    1920.8082 
  338000    296.27957   -1156.2346    6593.5941    11766.918     1960.156 
  338100    303.75105   -1157.5954    6435.2819    11766.862    1837.8446 
  338200    303.89892   -1164.0373    6438.5806    11766.878    1824.1464 
  338300    301.01833   -1165.2336     6501.293    11766.854    1829.4607 
  338400    300.66419    -1163.347     6507.003    11766.885    1879.3966 
  338500     301.5603   -1161.5245    6486.0077    11766.856    1851.0005 
  338600    299.28724   -1158.7838    6531.8605    11766.889    1892.1109 
  338700    305.15727   -1160.9138    6408.6026    11766.906    1919.0192 
  338800    297.68449   -1156.5151    6563.7929     11766.85    1918.4444 
  338900    301.84707   -1157.7248    6476.0769    11766.852    1927.3761 
  339000    303.21371   -1156.6339    6445.8119    11766.874    1907.0619 
  339100    299.95384   -1155.7484    6514.5712    11766.876    1883.4997 
  339200    303.02749   -1165.5362    6458.7336    11766.915    1895.6535 
  339300    302.98391   -1163.6408    6457.8324    11766.978    1837.7685 
  339400    303.50083   -1169.7026    6452.8644    11766.991    1850.0077 
  339500    300.47022   -1154.4566    6502.3491    11766.978    1876.5882 
  339600    302.85795   -1158.0429    6454.9174     11766.97     1919.448 
  339700     304.9754   -1156.0199    6407.6534    11766.965    1975.6493 
  339800    303.33932   -1167.1049    6453.6795    11766.954    1900.8396 
  339900    302.09396    -1161.319    6474.5827    11767.038    1878.8795 
  340000    302.01262    -1163.639    6478.6592    11767.056    1897.4817 
  340100    304.82928    -1169.371    6424.2137    11767.053    1877.7358 
  340200    299.70382   -1164.9612    6529.3951    11767.146    1889.5961 
  340300     300.7052   -1170.1132    6513.1587    11767.151    1874.5921 
  340400    304.32909   -1162.7142    6428.2919    11767.102    1895.7453 
  340500      303.453   -1165.5669     6449.777    11767.018    1911.4607 
  340600    302.68824   -1165.4992    6466.1324    11767.103    1974.5005 
  340700    300.20429   -1164.0496    6517.6876    11767.042    1923.2677 
  340800    302.13576   -1162.5468     6474.947    11767.067     1890.407 
  340900    303.49507   -1164.1082    6447.3942    11766.992    1909.8993 
  341000    303.21507   -1164.2921    6453.6635    11767.096    1884.1858 
  341100     302.4335   -1166.9446    6473.0434    11767.127    1821.7646 
  341200    302.07915   -1164.9511    6478.6186    11767.125    1879.8481 
  341300    301.87656   -1160.9685    6478.9404    11767.101    1857.6232 
  341400     300.3477   -1159.3059    6509.9899    11767.152    1858.7272 
  341500     303.5803   -1161.8896    6443.4132    11767.051    1961.0827 
  341600    305.81719    -1158.551    6392.1713    11766.935    1914.6608 
  341700    298.71113   -1157.8901    6543.3587    11766.974    1905.9239 
  341800    302.66663   -1159.8538    6460.7968    11766.951    1843.4987 
  341900    303.30858   -1160.9468    6448.0707    11766.846    1869.5834 
  342000    302.74692   -1162.7961    6461.9043    11766.832    1921.0518 
  342100    301.69609   -1156.6621    6478.2654    11766.877    1964.4333 
  342200    301.94735   -1160.1622    6476.3622    11766.842    1907.7583 
  342300    300.45384   -1154.4073    6502.3986    11766.727    1905.9733 
  342400    299.87715   -1157.3944    6517.8072    11766.828    1862.9466 
  342500    299.60441   -1155.2455    6521.4483    11766.791    1832.0307 
  342600     301.1025   -1159.3357    6493.5978    11766.855    1878.6613 
  342700    301.52599   -1156.0728    6481.1885    11766.756    1856.0981 
  342800    302.51441   -1156.7099    6460.7366    11766.783    1941.3581 
  342900    302.34819   -1159.0108    6466.6229    11766.817    1903.0422 
  343000    300.66787   -1160.4468    6503.9402    11766.801    1883.9078 
  343100     301.4523   -1161.6318    6488.5043    11766.938     1897.712 
  343200    304.73085   -1161.8932    6418.7066     11766.92    1938.4181 
  343300    301.16407   -1162.0807    6495.1105    11766.938    1878.1549 
  343400    306.56965   -1157.6756    6375.3169    11767.032    1799.0641 
  343500    301.30015   -1159.0327    6489.2343    11767.017    1894.5117 
  343600    302.81497   -1162.6295     6460.527    11767.075    1900.8883 
  343700    304.14361   -1165.5382     6435.115    11767.138     1885.581 
  343800    300.53563   -1167.3719       6514.1    11767.211    1943.0382 
  343900    300.80602   -1167.0159    6507.9167     11767.16    1920.7888 
  344000    302.60843   -1164.7637    6467.1752    11767.176    1913.8385 
  344100    300.99479   -1161.4031     6498.363    11767.252    1884.9626 
  344200    305.55502   -1164.5187    6403.9868    11767.182    1835.8287 
  344300      301.905   -1160.7796    6478.2495    11767.207    1849.8867 
  344400    302.89356   -1169.7457    6466.1309    11767.241    1887.1957 
  344500    303.08045   -1170.9019    6463.2447    11767.192     1887.837 
  344600    303.23154    -1174.955     6464.102    11767.224    1818.9806 
  344700    299.74842   -1165.2618    6528.7862    11767.189    1827.6651 
  344800    302.97785   -1167.8346     6462.333    11767.155    1887.9926 
  344900    304.43801   -1164.7439     6428.087    11767.194    1948.1672 
  345000    305.38045   -1158.6842    6401.7211    11767.022    1882.5286 
  345100    299.48514   -1156.2506    6525.3156    11767.106    1977.2118 
  345200    303.00634   -1158.4445    6452.1332    11766.954    1873.7722 
  345300    303.25699    -1165.099    6453.5591     11767.08    1928.2539 
  345400    304.54358   -1162.4053    6423.2644    11766.965    1830.0616 
  345500    299.31887   -1157.1295    6529.5938    11766.953    1805.6044 
  345600    301.59497   -1155.1605    6478.9755    11766.929    1823.5675 
  345700    305.66658    -1162.278    6399.0994    11766.919     1846.753 
  345800    300.90989   -1155.4719    6493.8444    11766.851    1866.6766 
  345900    299.64261   -1154.5565     6519.954    11766.802    1915.5491 
  346000    304.05027   -1159.6756    6430.8917    11766.784    1879.8476 
  346100      306.575   -1157.1696    6374.5114    11766.846    1906.7498 
  346200    299.99505    -1156.106    6514.0529    11766.881    1928.0011 
  346300    300.98972   -1156.1681    6492.8805    11766.896    1872.0169 
  346400    298.55045   -1157.6646    6546.4771    11766.885    1862.2954 
  346500    301.86796   -1155.4811    6473.4652     11766.93    1867.4619 
  346600     303.7263   -1163.2644    6441.5579     11766.94    1885.8058 
  346700    301.74141   -1158.3321    6479.0504    11766.961     1894.383 
  346800    300.97862   -1162.2317    6499.2545    11766.969    1874.1513 
  346900    301.24598   -1156.7299    6488.0217     11766.95    1865.6212 
  347000    303.59488   -1158.5909    6439.7966    11767.044     1901.458 
  347100    301.98189   -1160.7962    6476.4822    11767.066    1895.6987 
  347200    302.15155   -1167.3232    6479.3397    11767.021    1887.7577 
  347300    303.32476   -1165.7639    6452.6941    11766.998    1886.9168 
  347400    300.97029   -1163.1046    6500.4692    11767.133    1883.4611 
  347500    303.47205   -1164.9351    6448.8977    11767.177    1878.4604 
  347600    304.74502   -1167.7084    6424.4252    11767.127    1875.0028 
  347700    300.77713   -1170.3769     6511.854    11767.119    1829.9353 
  347800    303.74424   -1166.3467    6444.5627    11767.246    1855.8403 
  347900     302.5982    -1173.481    6476.1777    11767.243    1869.4044 
  348000    300.45188   -1169.1246    6517.7166    11767.285     1937.692 
  348100    303.76073   -1166.2063    6443.9958    11767.171    1910.4257 
  348200    301.38218   -1166.6812    6495.2669    11767.154    1913.4321 
  348300    306.16365   -1165.2448    6391.5974    11767.069    1869.2255 
  348400    302.74865   -1166.5072    6465.8993    11767.152    1921.4104 
  348500    302.25227   -1166.5241    6476.4215    11767.053    1911.8338 
  348600     302.5688   -1162.7112    6465.8762    11767.083    1908.2324 
  348700    302.99144   -1164.4618    6458.5682    11767.054    1839.2858 
  348800    303.20327   -1162.8219    6452.3818    11767.033    1859.7035 
  348900    299.69606   -1160.8243    6525.2818    11767.004    1913.3305 
  349000    303.82938   -1165.8203    6441.9898    11767.018    1865.1869 
  349100    300.92544   -1162.4367     6500.589    11766.963    1850.5922 
  349200     303.7744   -1163.6738    6440.8732    11766.873    1914.5424 
  349300    300.89601   -1160.5471    6499.2596    11766.894    1927.4709 
  349400    302.36921   -1157.5772    6464.7494    11766.826    1865.6734 
  349500    297.48782   -1157.9007    6569.4115    11766.882    1975.0905 
  349600    303.27363   -1160.2841    6448.1866    11766.878     1883.092 
  349700    304.45476    -1162.422    6425.1141    11766.901     1836.252 
  349800    301.65019   -1164.4275    6487.0274    11766.893    1842.1163 
  349900    301.81002   -1159.7439    6478.9356      11766.9    1938.2127 
  350000    305.32991   -1157.4172    6401.3596    11766.847    1855.4061 
  350100    300.67643   -1156.4829    6499.9839    11766.992    1920.2733 
  350200    305.27858   -1158.2651    6403.4692    11767.012    1945.4915 
  350300    300.79576   -1159.6857    6500.6302    11766.984    1904.9094 
  350400    302.75589   -1167.3525    6466.4217    11766.984     1889.752 
  350500    300.11962    -1160.082    6515.6091    11767.122    1983.9888 
  350600    304.65939   -1158.0783    6416.5685    11767.071     1860.805 
  350700     301.2524   -1165.0764    6496.3942    11767.113    1935.8939 
  350800    303.57816   -1159.4211    6441.0611    11767.122    1905.9061 
  350900    299.80331   -1167.5803    6529.9028     11767.16    1906.6457 
  351000    303.53883   -1169.2573    6451.7113    11767.095    1874.1664 
  351100    304.47278   -1169.6694    6432.1723    11767.097    1932.0929 
  351200    303.69513   -1164.5871    6443.7156    11767.109    1817.6924 
  351300    302.78523    -1167.479     6466.026    11767.089    1815.1475 
  351400    299.59574   -1163.2222     6529.977    11767.158    1891.9624 
  351500    303.40901   -1161.3693    6446.6093    11767.108    1940.7497 
  351600    303.92353   -1159.7808    6433.9926    11767.072    1898.2637 
  351700    298.96321   -1164.0271     6544.264    11767.127    1980.6491 
  351800    302.76025    -1159.279    6458.3337    11767.063    1946.3396 
  351900    305.91017   -1161.8808    6393.5875    11767.008    1858.5245 
  352000      301.914   -1170.4508    6487.6172    11767.096    1850.2334 
  352100     301.4749   -1164.1225    6490.5542     11766.98    1841.9059 
  352200    303.11623   -1166.4908    6457.8788    11767.001    1950.6784 
  352300    303.05453   -1163.8509    6456.5629    11767.007    1981.1719 
  352400    300.70525   -1161.3216    6504.2571    11767.042    1958.2807 
  352500    301.07475   -1161.0182    6496.0022    11766.984    1910.9126 
  352600    303.02498   -1154.0044    6447.2222    11766.882    1908.4338 
  352700    301.21977    -1156.786     6488.656    11766.968    1920.5039 
  352800    304.52596   -1158.5894      6419.74    11766.881    1946.4386 
  352900    304.22593    -1160.723    6428.2764    11766.874    1951.9539 
  353000    298.67259   -1154.3244    6540.5052    11766.862    1926.2158 
  353100    306.23717   -1155.7925    6380.4511    11766.946    1908.9349 
  353200    301.20054   -1162.0113    6494.2579    11766.934    1872.6359 
  353300    301.20243   -1164.4878    6496.6974    11766.937    1868.8176 
  353400    302.21125   -1162.0819    6472.7128    11766.911    1831.2196 
  353500    301.16137   -1163.6361    6496.7977    11767.012    1842.5431 
  353600    304.84599   -1156.6749    6411.0738    11766.966     1854.844 
  353700    300.42107   -1156.1435    6505.0784     11766.97    1931.4474 
  353800     303.1495   -1167.0772     6457.738    11766.985    1869.7905 
  353900    298.92163   -1158.1578    6539.3145    11767.159    1925.2666 
  354000    302.25999   -1166.6154    6476.4083    11767.114    1943.2713 
  354100    301.83532   -1159.5205    6478.3952    11767.123    1915.7661 
  354200    304.88027   -1163.1418    6416.9003    11767.058    1918.8302 
  354300    301.48749   -1163.8942     6490.216    11767.139    1945.8297 
  354400     301.6529   -1162.5794    6485.3475     11767.12     1885.854 
  354500    302.75209   -1162.4524    6461.7966    11767.178    1865.8184 
  354600    300.21018   -1165.9988    6519.4967    11767.028    1955.1722 
  354700    305.06475   -1171.6237    6421.3497    11766.966    1913.0197 
  354800    301.59807   -1164.7107    6488.5971    11767.066    1915.6545 
  354900    300.48565   -1164.0427    6511.6618    11767.034    1960.3225 
  355000    302.69008   -1157.8331     6458.305    11766.981    1952.7429 
  355100    304.08609   -1155.3929    6426.0071    11766.947     1930.892 
  355200    302.29532   -1160.7117     6469.707    11767.071     1922.006 
  355300    302.98685   -1160.0987    6454.2187    11766.969    1892.0381 
  355400    301.46882   -1159.8902    6486.4549    11766.984    1877.1538 
  355500     302.6414   -1162.4075    6463.8808    11766.942    1866.9323 
  355600    304.23707   -1162.6987    6430.0957    11766.955    1880.0048 
  355700    301.40645   -1158.7278    6486.6816     11767.04     1895.358 
  355800    300.91962   -1160.5056    6498.7728    11766.953    1894.3476 
  355900    300.76733   -1163.3225    6504.8175    11766.927    1956.8937 
  356000    303.32314   -1159.3423    6446.2126    11766.904    1884.7778 
  356100    301.53539   -1153.9371    6478.9572    11766.861    1849.4465 
  356200    296.67616   -1155.9744    6584.8223    11766.879    1864.6164 
  356300    303.26252   -1158.8588    6447.0666    11766.946    1909.0956 
  356400    303.06374   -1159.7734    6452.2021    11766.921    1934.0834 
  356500    305.48333   -1155.8799    6396.5778    11766.881    1896.1698 
  356600    297.26114   -1159.0778    6575.4652    11766.916    1927.2584 
  356700    305.00619   -1161.8408    6412.7828    11766.931    1838.9938 
  356800    299.49115   -1163.5679    6532.4257    11767.027      1905.78 
  356900    302.01731   -1159.0083    6473.8418     11766.97    1900.1948 
  357000    305.90578   -1158.5517    6390.3623    11767.018    1923.9005 
  357100    301.99807   -1161.9697     6477.289    11767.045     1962.989 
  357200    303.19196   -1166.8996    6456.7824    11767.114     1922.972 
  357300    300.81425   -1164.6863    6505.2925    11767.041    1933.7411 
  357400    301.77672   -1169.0275    6489.0998    11767.069    1928.9294 
  357500    302.87637   -1166.9404    6463.6347    11767.183    1884.7973 
  357600    304.56218   -1168.7484     6429.375     11767.13    1858.3571 
  357700    302.73261   -1163.5951    6463.3258    11767.148    1813.1852 
  357800    300.10681   -1160.6498    6516.5372    11767.209    1849.3103 
  357900    301.50174   -1169.5335    6495.6759    11767.264    1915.0077 
  358000    302.38593   -1171.1717    6478.3672    11767.207    1881.5777 
  358100    298.94068   -1168.1915    6548.9864    11767.204    1891.3451 
  358200    304.95509   -1165.3393    6417.6336    11767.192    1922.9591 
  358300    301.41669    -1165.004    6492.8474    11767.148    1980.7697 
  358400    300.88339    -1159.734    6498.9714    11767.149    2005.4101 
  358500    301.76325   -1165.0309    6485.4693    11767.147    1970.9298 
  358600    303.98475   -1170.0082    6442.9463    11767.106    1906.2336 
  358700     300.1088    -1167.878    6523.5352    11767.021    1832.1298 
  358800    303.93137   -1164.3046    6438.2667     11766.99    1822.9883 
  358900    303.41912   -1164.3209    6449.2776    11767.041    1935.4413 
  359000    302.55002   -1165.4172    6468.8513    11766.951    1940.3363 
  359100    300.31862   -1158.3499    6509.4595    11766.956     1911.584 
  359200    303.68335   -1155.6482    6434.8472    11766.928     1907.093 
  359300    300.51098   -1160.5766     6507.511     11766.89    1925.1202 
  359400    301.41674   -1154.8279    6482.3792    11766.858    1851.2697 
  359500     302.0789   -1157.8857    6471.3057    11766.872    1899.4747 
  359600    302.52117   -1157.8935    6461.9119    11766.919     1839.701 
  359700    299.57723    -1160.075    6527.0063    11766.939     1864.358 
  359800    302.80437   -1161.0023    6458.9425    11766.891      1876.07 
  359900    302.39381   -1155.8401    6462.6031    11766.943     1885.245 
  360000    303.55197   -1162.7854    6444.7341    11766.871    1876.9871 
  360100    302.03545   -1158.8662    6473.1757    11766.833    1891.4919 
  360200    301.98842   -1157.9826    6473.3172    11766.854    1841.5284 
  360300    304.75966    -1162.385    6418.6278    11766.965    1872.3989 
  360400    300.78563   -1159.3203    6500.4268     11766.93    1968.0481 
  360500    301.35695   -1166.3235     6495.313    11767.018    1972.6229 
  360600     302.4249   -1160.7465    6466.9747    11767.072    1879.8799 
  360700    306.43531   -1164.2755    6384.8824    11767.127    1854.1623 
  360800    303.78587   -1162.9604    6440.1446    11767.103    1850.4119 
  360900    303.22221   -1161.0071     6450.221    11767.091    1862.0105 
  361000     301.4019   -1168.5573     6496.697    11767.129    1899.2259 
  361100     302.6485   -1160.3665    6461.9111    11767.165    1876.6381 
  361200    305.18183   -1166.9135    6414.2607    11767.089     1907.295 
  361300    303.41999   -1161.7142    6446.7605    11767.149    1923.8331 
  361400    303.42638   -1159.7801    6444.6654    11767.124    1905.4638 
  361500    302.02944    -1165.908    6480.6405    11767.128    1921.0613 
  361600    302.84346   -1163.2931    6460.7294    11767.222    1951.4971 
  361700    308.06293   -1167.8698    6353.7993    11767.221    1835.3477 
  361800     299.0494   -1166.7675    6545.2053    11767.169    1899.1495 
  361900    303.13058    -1169.207    6460.4509    11767.163    1855.2923 
  362000     296.4467   -1158.5881    6592.6259    11767.167    1873.2592 
  362100    305.31698   -1159.8764    6404.3195    11767.072    1813.9609 
  362200    303.30547   -1164.4702    6451.8477    11767.033    1844.3647 
  362300    299.79331   -1165.8228    6528.2923    11767.094    1869.4856 
  362400    303.71208   -1161.5219    6440.1289     11766.95    1811.7688 
  362500     298.7562   -1149.9907    6534.4616    11766.939    1900.7065 
  362600    301.07977   -1159.7391    6494.6195    11766.988    1908.7294 
  362700    304.75027   -1154.0103    6410.5612    11767.073    1907.0831 
  362800    303.26008   -1155.9515    6444.2483    11766.983    1882.4359 
  362900    300.17616   -1159.2347    6513.3666    11766.935    1909.2824 
  363000    303.17268   -1161.9557    6451.9874    11766.851    1874.3336 
  363100    301.25828    -1161.778    6492.6378    11766.781    1897.4824 
  363200    301.05715   -1158.1175    6493.2611    11766.768    1947.1257 
  363300    302.22311   -1154.3302    6464.5721    11766.775      1897.57 
  363400    302.26536   -1152.9435    6462.3924    11766.884    1890.3487 
  363500     301.3639   -1155.5737    6484.2305    11766.834    1932.4779 
  363600    301.37243   -1156.2215    6484.7221     11766.86    1967.9996 
  363700    299.63899   -1158.8996    6524.4611    11766.889    1924.9041 
  363800    303.12636    -1162.688    6453.8127    11766.954    1950.6478 
  363900    302.11779   -1167.4578    6480.1248     11766.95     1902.909 
  364000    300.23207   -1167.2246    6520.2714    11767.044    1867.7832 
  364100    301.07367   -1165.5311    6500.5484    11766.994    1882.6243 
  364200    299.82974   -1159.8955    6521.5403    11767.047    1933.6239 
  364300    303.46724   -1158.0945    6442.0091    11767.027    1912.7732 
  364400    304.61358    -1162.624     6422.103    11767.081    1887.6118 
  364500    301.59656   -1167.5027    6491.4266    11767.072    1852.5275 
  364600    300.19947   -1163.2502    6517.1334    11767.184    1941.9541 
  364700    306.19785   -1166.7215    6392.4327    11767.158    1933.4488 
  364800    301.77359   -1165.8693    6486.0565    11767.117    1923.6377 
  364900    300.95304   -1168.5564     6506.281    11767.125    1890.3656 
  365000     300.7025   -1173.8867    6516.9818    11767.143    1889.3265 
  365100    304.83645   -1170.6008    6425.3003    11767.063     1907.009 
  365200    302.72034   -1167.5419    6467.4471    11767.061    1953.0267 
  365300    301.57934   -1153.6708    6477.8445    11766.954    1933.0482 
  365400    305.47134   -1158.8274    6399.9075    11767.007    1857.5875 
  365500     301.1985   -1162.0509    6494.4058    11766.999    1904.0181 
  365600    301.97068   -1162.0575    6477.9125    11766.995    1916.2152 
  365700    303.71139    -1164.287    6442.8664    11766.907    1868.9765 
  365800    300.48182   -1165.5678    6513.2147     11766.98    1936.9748 
  365900    305.08877   -1157.4016     6406.542    11766.894     1883.182 
  366000     300.2916   -1160.4045     6512.029    11766.894    2003.7729 
  366100    301.40773    -1157.491    6485.2149    11766.838    1948.3654 
  366200     303.1678   -1155.6073    6445.7548    11766.862    1893.0612 
  366300    301.39339   -1156.4266     6484.441    11766.822    1878.2956 
  366400    303.42124   -1155.4708    6440.1494    11766.808    1900.8205 
  366500    299.74709   -1149.0093    6512.2767    11766.904    2010.2005 
  366600    302.17911   -1155.6549    6466.8687    11766.807    1954.9369 
  366700    305.30951   -1160.0643     6404.441    11766.846    1848.1821 
  366800    299.55415   -1163.3877    6530.8595    11766.987    1845.0231 
  366900    302.38493   -1161.5879    6468.5433    11766.945    1857.0011 
  367000    303.28009    -1161.804    6449.7029    11767.013    1919.0792 
  367100    303.95379   -1162.6799    6436.1119    11766.938    1876.0496 
  367200    299.64269    -1162.182    6527.8034    11767.028    1940.1101 
  367300    302.25304   -1160.6066    6470.3435    11766.909    1887.7704 
  367400    304.87246   -1160.3747     6414.274    11767.032    1946.6359 
  367500    299.76445   -1164.8363    6527.9311    11767.102    2008.4868 
  367600    306.83475   -1165.5467    6377.6186    11767.126    1909.8845 
  367700    300.98541   -1169.0523    6506.1592    11767.198    1915.6293 
  367800    302.78567   -1170.0785    6468.6668    11767.139    1848.1819 
  367900    303.76903   -1172.5573    6450.1909    11767.193    1890.3216 
  368000    302.94288   -1172.3126     6467.646    11767.243    1906.7861 
  368100    302.54372   -1164.0046    6467.8318    11767.209    1912.5387 
  368200    301.41709   -1164.0858    6491.8116    11767.039    1925.4995 
  368300     305.2281   -1159.2778    6405.6972    11767.149    1983.5631 
  368400    302.53393   -1161.9359    6465.9133    11767.151    1983.6366 
  368500    306.46697   -1168.1874    6388.1332    11767.142    1910.9263 
  368600    302.82505   -1167.7922    6465.4946    11767.095    1931.1014 
  368700    299.59401   -1168.4612    6535.2096    11767.115    1966.7379 
  368800    302.96953   -1168.8035    6463.2884    11766.964    1906.1043 
  368900     301.8895   -1162.9088    6480.5571    11767.054    1905.6531 
  369000    302.84181     -1163.25    6460.5361    11767.037    1900.5499 
  369100    302.26255   -1163.7813    6473.4181    11767.012    1887.9749 
  369200    302.42659   -1158.3151    6464.3493    11766.914    1839.3864 
  369300    302.48808   -1157.4819    6462.1813    11766.893    1960.8175 
  369400    302.70798   -1153.6622    6453.6621    11766.891    1957.9428 
  369500    301.37906   -1158.5353    6486.9088    11766.875    1966.4571 
  369600    305.71375    -1154.442    6390.1295    11766.793    1921.7177 
  369700    299.94672   -1150.9182    6509.8158    11766.799    1888.7756 
  369800    302.78489   -1160.8254    6459.1079    11766.817      1873.23 
  369900     302.3278   -1160.9127    6469.0048    11766.862    1935.3905 
  370000    300.47311   -1160.7411    6508.4091    11766.815    1888.0554 
  370100    298.61979   -1158.5549    6545.8017      11766.8    1878.8165 
  370200    301.96018   -1158.8194    6474.7833     11766.88    1905.3991 
  370300    303.31843   -1161.0245    6448.0834    11766.992    1987.0709 
  370400    301.89987   -1157.1177    6474.3908    11766.901    1964.3359 
  370500    300.76879   -1154.5776    6496.0547    11766.941    1880.8796 
  370600    298.86726   -1161.4464    6543.5883    11766.982    1931.8562 
  370700    305.12428   -1158.8112    6407.2823    11766.983    1922.8619 
  370800    301.75357    -1159.059    6479.5715    11767.014    1956.2786 
  370900     302.8093   -1164.9853    6462.9088     11766.98    1963.2155 
  371000    301.17263   -1170.4305     6503.494    11767.155    1920.1577 
  371100    305.49042   -1166.5043    6407.2704      11767.1    1819.1392 
  371200    299.07873   -1167.5304    6545.3511    11767.179     1829.523 
  371300    304.50983    -1173.277    6435.0619     11767.17    1869.4024 
  371400    303.94062   -1165.4547    6439.3987    11767.169    1900.3384 
  371500    301.65316   -1162.9936    6485.8265     11767.19    1935.8064 
  371600    303.26721   -1163.9539    6452.2821    11767.167    1917.9898 
  371700    302.38182   -1158.4665    6465.7923    11767.249    1899.7991 
  371800    300.35482   -1170.3387    6520.9096    11767.191    1925.1525 
  371900    301.79635   -1165.9916    6485.6938    11767.118     1928.908 
  372000    303.62358   -1166.6492     6447.236    11767.039    1847.6909 
  372100     300.4793    -1169.655    6517.4673    11767.091    1844.1978 
  372200    302.75105   -1157.4007    6456.7578    11767.169    1940.5421 
  372300    301.65275   -1168.4669    6491.1807    11767.062    1934.0005 
  372400    300.66522   -1165.3831    6509.1426    11767.011    1908.4024 
  372500     304.6717   -1151.6399    6409.6904    11766.894    1901.5776 
  372600    304.24856   -1158.9373    6425.9849    11766.851    1889.3715 
  372700    303.52444   -1157.7037    6440.2568    11766.887    1824.0392 
  372800    305.46701   -1159.7138    6400.8842    11767.004    1812.6827 
  372900    302.24971   -1162.6264     6472.421    11766.896    1806.4204 
  373000    300.85537   -1160.5401    6500.1716    11766.945    1815.8179 
  373100    302.38341   -1164.1872    6471.1827    11766.953    1895.8492 
  373200    302.92566    -1162.412    6457.8147    11766.945    1890.2517 
  373300    301.42834   -1148.9597    6476.2133    11766.808    1907.8078 
  373400    303.94884   -1149.9763    6423.3758      11766.8    1953.1385 
  373500    300.06954   -1152.6562    6509.0206     11766.89    1951.7894 
  373600    302.29823   -1157.8244    6466.4819    11766.795    1880.7806 
  373700    299.32538   -1155.5716    6527.7931    11766.849     1858.233 
  373800    304.32598   -1163.5988    6429.0765    11766.935    1857.3203 
  373900    301.48102   -1159.8929    6486.2222    11767.009    1817.0955 
  374000     300.9922   -1162.2641    6498.9742    11766.947    1883.4499 
  374100     306.1423   -1167.2516    6393.9466    11766.955    1941.1456 
  374200      300.851    -1156.479     6496.327    11767.068    1924.9425 
  374300    303.36455   -1160.5472    6446.5995     11766.97    1906.7358 
  374400    305.63334   -1160.0618    6397.6223    11766.948    1943.9333 
  374500    297.93494   -1156.8537    6558.9383    11767.007    1921.0877 
  374600    305.05356   -1158.1091    6408.1329    11767.025    1899.8128 
  374700    304.95452   -1159.2903     6411.469    11767.064    1886.8771 
  374800    302.20527   -1161.4708    6472.3249    11767.006     1851.092 
  374900    299.12797   -1168.8355    6545.5114    11767.086    1880.8179 
  375000     302.9344   -1168.8278    6464.2177    11767.118    1931.5214 
  375100    300.32878   -1171.4198     6522.485    11767.129    1941.6308 
  375200    300.72258    -1169.051    6511.7373    11767.163    1963.6285 
  375300    305.41388   -1167.4426    6409.8312    11767.088    1952.2028 
  375400    299.39162   -1159.8839    6530.9234    11767.082    1858.7341 
  375500     304.4902    -1156.742    6418.8093    11767.033     1853.783 
  375600    304.54738   -1160.0832    6420.9948    11767.099    1987.8366 
  375700    302.81543   -1163.0296    6460.8564    11767.014    1967.5431 
  375800    304.68111   -1167.2463    6425.1642    11766.962    1879.0485 
  375900    301.63025   -1162.3229    6485.4409    11766.986    1854.0198 
  376000    303.73869    -1164.785    6442.9259    11767.052    1868.6605 
  376100    302.98543   -1165.9281    6460.0842    11766.975    1923.7651 
  376200    303.72837   -1160.9128    6439.1546    11766.932    1943.4694 
  376300    303.10088   -1157.7262    6449.3104    11766.869      1918.97 
  376400    301.35128   -1158.2132    6487.1915    11766.886    1962.0483 
  376500    302.54223   -1157.2164    6460.8131    11766.947    1923.5383 
  376600    302.01516   -1155.7193    6470.4003    11766.772    1925.0692 
  376700    304.77795   -1160.6702    6416.4459    11766.889    1966.3326 
  376800    301.92574   -1164.4269    6481.2261    11766.979    1958.0161 
  376900     297.5865   -1166.2779    6575.7366    11766.938    1939.1167 
  377000     304.6781   -1162.8553    6420.8357     11766.96    1918.1234 
  377100    303.78454   -1159.2795    6436.3164    11766.928    1849.1656 
  377200     301.0764   -1161.2929    6496.1369    11766.879    1846.6093 
  377300    304.49009   -1161.0791    6423.0297    11766.914    1912.4196 
  377400    303.20483   -1157.6233    6447.0371     11766.92    1924.4441 
  377500     301.7961   -1158.3533    6477.8237    11766.881    1868.1402 
  377600    299.77108   -1155.9984    6518.8048    11766.956    1976.4357 
  377700    303.96405   -1158.5551    6431.8025    11766.973    1924.4056 
  377800    302.60225   -1156.8261    6459.2261    11767.033     1806.011 
  377900    301.76846   -1163.3033    6483.4949    11767.012     1863.043 
  378000    304.98573   -1165.3429    6416.8158    11767.025    1846.8766 
  378100    296.59484   -1165.6567    6596.3664    11767.003    1916.9543 
  378200    300.62631   -1164.8498    6509.3837    11766.954    1880.6994 
  378300    307.19131   -1161.0674    6365.3683    11766.972    1934.8698 
  378400    299.86271     -1163.17    6524.0774    11767.014    1961.4967 
  378500     302.7416   -1161.4618    6460.7946    11766.943    1925.1495 
  378600    303.29886   -1160.9517    6448.3727    11766.936    1922.0688 
  378700    300.47998   -1161.9208    6509.5775     11766.95    1920.4269 
  378800    305.36646   -1168.4954    6411.7583    11766.949    1851.0657 
  378900    303.53836   -1163.1164    6445.4989    11767.014    1872.5869 
  379000    299.35271   -1162.4887    6534.2809    11767.004    1851.4019 
  379100     303.1792   -1163.0622     6453.235    11767.131     1872.533 
  379200    302.45798   -1165.7535    6471.3238    11767.121    1858.1853 
  379300    298.37117   -1165.4927    6558.3285    11767.078    1968.8265 
  379400    303.39684   -1166.4314    6451.8409    11767.017    1877.1185 
  379500    299.89721   -1160.1448    6520.2982    11766.997    1934.4381 
  379600    302.81511   -1158.5713    6456.3723    11766.981    1935.2786 
  379700    304.82678   -1163.1088    6417.9742    11767.022    1970.6637 
  379800    302.85787     -1159.66    6456.5677    11767.001    1918.3104 
  379900    302.16327   -1160.5823    6472.3836    11767.056    1951.8601 
  380000    302.69497   -1169.2432     6469.654    11767.024    1945.2537 
  380100    298.49801   -1159.1471    6549.1825    11766.987    1896.9781 
  380200    307.47066   -1162.6949     6361.146     11767.09    1901.2154 
  380300    301.83371   -1163.4255    6482.1851    11766.974    1834.5728 
  380400    294.82533   -1163.1656    6631.6283    11766.954    1920.0904 
  380500    305.12522   -1161.3867    6409.7773    11766.923    1904.1754 
  380600    302.85166   -1157.3873    6454.3649    11766.939    1876.6676 
  380700     300.8925    -1158.863    6497.5661     11766.81    1902.2413 
  380800    302.83566   -1157.6838    6454.8827    11766.818    1901.7781 
  380900    307.06006   -1156.1461    6363.0892     11766.81    1911.1566 
  381000    302.35303   -1164.4489    6472.0023    11766.862    1874.9834 
  381100    301.57414   -1164.1967    6488.5093    11766.981    1903.9376 
  381200     300.3731   -1164.5246    6514.5243     11767.01    1932.9491 
  381300    305.19352   -1160.5477    6407.6095    11767.053    1899.1607 
  381400     302.8528   -1158.6326    6455.6444    11766.997    1919.9718 
  381500    299.61681   -1161.1834    6527.2941    11766.964    1931.8754 
  381600    297.99058   -1154.3951     6555.316    11767.032    1928.1008 
  381700    304.37609   -1160.5334    6425.0477    11767.042    1926.4772 
  381800    304.62489   -1152.5731    6411.7156    11766.986    1921.7168 
  381900    302.46441   -1161.7071    6467.0241    11767.005    1930.3445 
  382000    303.62288   -1158.1664    6438.7393     11767.01    1904.9708 
  382100    301.29645   -1163.5488    6493.8591    11767.047    1894.1228 
  382200    303.37161   -1168.8394    6454.8182    11767.048    1915.6776 
  382300    305.29749   -1163.0832     6407.867    11766.996    1932.8803 
  382400    299.51069   -1157.4065    6525.8647    11767.045    1946.3969 
  382500    304.53443   -1163.7765    6424.8944    11767.029      1860.98 
  382600    302.22689   -1159.5121    6469.9522    11767.054    1874.4134 
  382700    300.97885   -1161.9695         6499    11766.982    1886.4574 
  382800     301.1054   -1158.6313     6492.984    11767.008    1873.2543 
  382900    305.42822    -1161.131    6403.1066    11766.981    1810.8384 
  383000     302.8601   -1165.5119    6462.3854    11767.015    1830.6472 
  383100    303.19972   -1164.3771    6454.0037    11767.023    1827.3418 
  383200    299.80434   -1162.3349    6524.5186    11767.043    1833.9239 
  383300    300.06797   -1162.9424    6519.5312     11767.08    1905.9447 
  383400    305.18825   -1158.8646    6405.9496    11766.964    1881.8295 
  383500    303.57072   -1154.8294    6436.5353    11767.029    1928.4049 
  383600    303.13502   -1155.5871    6446.5469    11766.974    2005.9061 
  383700      304.996   -1159.9275      6411.08    11766.924    1983.9363 
  383800    301.01276   -1155.9525    6492.2174    11766.941    1913.7829 
  383900    300.41351   -1161.9912     6511.089    11766.971     1893.086 
  384000    301.94888   -1160.5452    6476.8304     11766.96    1887.2199 
  384100    300.61219   -1161.4259    6506.3165    11767.009     1855.197 
  384200    301.47646   -1162.6134    6489.0728    11767.041    1844.1545 
  384300    303.17895   -1163.6206    6453.6908    11767.023    1919.7023 
  384400    301.72921   -1156.9665    6477.9607    11766.976    1889.6977 
  384500    302.67333     -1151.57     6452.318    11766.899    1913.4432 
  384600    299.29723   -1156.9016    6529.7882    11766.913     2005.152 
  384700    300.57688   -1158.7643    6504.3374    11766.937    1981.7048 
  384800    302.49147   -1153.8229    6458.4246    11766.868    1842.4574 
  384900    300.75068   -1163.9745    6505.8923    11766.995    1889.9428 
  385000      305.272   -1162.0677    6407.3711    11766.971    1940.3196 
  385100    301.22619   -1157.7568    6489.5161    11766.995    1868.0276 
  385200    299.76656   -1155.4709    6518.3204    11766.902     1874.601 
  385300    301.84617   -1161.0382    6479.5183     11766.96    1913.0907 
  385400    305.96286   -1158.0944    6388.6492    11766.982    1825.8617 
  385500    302.64951   -1162.2742    6463.5937    11766.962    1917.8759 
  385600      304.094   -1159.4321    6429.9249    11766.994    1949.5626 
  385700    300.57504   -1157.8547     6503.512    11766.982    1901.0955 
  385800    302.11833    -1158.268      6471.05    11767.077    1883.9927 
  385900    305.21668    -1165.283    6411.8143    11767.017    1932.0331 
  386000    301.49881   -1159.7042    6485.7267    11767.082    1941.7616 
  386100    300.92266   -1160.8945    6499.1998    11767.056     1951.667 
  386200    300.35296   -1158.8444    6509.3728    11767.109    1963.8541 
  386300    305.04331   -1162.6215    6412.9093     11767.07    1877.3299 
  386400    300.20645   -1163.1267    6516.7697    11767.093    1903.2177 
  386500    300.66202   -1161.9694    6505.8077    11767.021    1924.5662 
  386600     303.7037   -1163.5908    6442.4445    11767.017    1943.9752 
  386700    302.57475   -1169.0691    6472.0984    11767.075    1945.7303 
  386800    305.91823   -1158.7715    6390.3819    11767.084    1880.1404 
  386900    299.75206   -1159.2496      6522.59    11767.083    1869.5838 
  387000    299.02954   -1161.6563    6540.4174    11767.068    1910.7818 
  387100    308.52527   -1162.1108    6338.0013    11767.059    1880.2569 
  387200    297.58207   -1163.6334     6573.283    11767.034     1874.923 
  387300    303.85211   -1161.4953    6437.2715     11767.11    1867.3369 
  387400    303.62503   -1166.2683     6446.783    11766.998     1953.863 
  387500    298.54062   -1160.4221    6549.6544    11767.095    1912.8795 
  387600    305.42194    -1161.711    6403.8492    11767.009    1868.4511 
  387700    299.33074   -1161.6136    6533.8894    11767.018    1976.2337 
  387800     306.2094   -1162.1767    6387.4529     11766.97    1879.0106 
  387900    301.75417   -1162.6227    6483.0825    11766.975    1914.4159 
  388000    302.42383   -1157.4122    6463.6008     11767.01    1899.5524 
  388100    304.49795    -1162.652    6424.5163    11766.996    1885.0604 
  388200    301.45305   -1156.0867    6482.9967    11766.992    1933.9273 
  388300    303.16971   -1158.6338    6448.8217    11766.943    1925.2873 
  388400    304.79108   -1161.5385    6417.0346     11766.89    1888.9687 
  388500    301.01703   -1157.7059    6494.0018    11767.063    1883.5109 
  388600    301.81965   -1161.4687    6480.4977    11766.943    1830.2349 
  388700    303.72525   -1159.3032    6437.6377    11766.958     1859.275 
  388800    300.00373   -1157.8322    6515.6403    11766.928     1848.086 
  388900    303.48944   -1163.1997     6446.488    11766.875    1809.0589 
  389000    299.55337   -1159.8703    6527.3128    11766.941    1890.1911 
  389100    302.25074   -1162.8094    6472.6938    11767.008    1900.2969 
  389200    302.30905    -1160.724    6469.2396    11766.885    1827.6462 
  389300    299.14671   -1154.6328    6530.6718    11766.849     1931.416 
  389400    305.27947   -1157.2302    6402.3579    11766.955    1966.8687 
  389500    300.95811    -1161.781    6499.1706    11766.898    1930.3065 
  389600    303.97078   -1164.7912    6437.8755    11766.954    1941.2374 
  389700     298.0349   -1159.2143    6559.0608    11766.905    1960.6374 
  389800    301.90928   -1165.8825    6483.0537        11767    1932.3849 
  389900    303.67527   -1165.5814    6444.9737    11766.949    1916.5551 
  390000    302.43775   -1161.0858    6466.9505    11766.983    1949.7547 
  390100    303.48845   -1163.9506    6447.4242    11767.039    1946.4509 
  390200    299.67548   -1159.0915    6524.0371    11767.053    1928.0384 
  390300    302.28453   -1163.4609    6472.5949    11766.979    1968.3696 
  390400    307.10949   -1160.0079    6365.9886    11766.904    1949.9204 
  390500    298.93854    -1162.502    6543.0793     11766.94    1937.7596 
  390600    304.00141   -1165.7917     6438.297    11767.029    1870.4427 
  390700    303.86261   -1157.7773     6433.218    11766.999     1883.034 
  390800    306.06761   -1162.4867    6390.7853    11766.964    1821.9459 
  390900     298.6093   -1166.6195    6554.3997     11767.11    1855.2039 
  391000    302.13184   -1169.4292    6481.8974    11767.051    1843.0329 
  391100    299.92539   -1161.7821    6521.3312    11766.995    1935.2632 
  391200    301.14528   -1163.0532    6496.5092    11766.963    1889.1959 
  391300    302.15104   -1165.6559    6477.7156    11767.053    1874.1067 
  391400    301.28412   -1165.5512    6496.0657    11766.987    1925.7116 
  391500    300.89705   -1156.6536    6495.4056    11766.956    1957.8001 
  391600    303.75449   -1156.4972    6434.1562    11766.908    1861.5976 
  391700    301.67256   -1166.3308    6488.5145    11766.955    1914.6397 
  391800    304.41267   -1162.8558    6426.4826    11766.936    1955.6533 
  391900    304.25412   -1162.1192    6429.1193    11766.923    1872.2856 
  392000    304.35354   -1161.2817    6426.1964    11766.961     1861.836 
  392100    303.31702    -1166.596     6453.707    11767.014    1899.2703 
  392200    299.87495   -1169.3368    6529.9323    11766.964    1992.1014 
  392300     302.3053   -1165.4972    6474.1846    11766.976    1947.6243 
  392400    301.71817   -1164.5646    6485.7601    11766.941    1957.6829 
  392500    302.64368   -1161.1183     6462.575    11766.975    1935.1354 
  392600    301.89846   -1161.9317    6479.3712    11767.037    1873.0328 
  392700    299.23902   -1158.0529    6532.3378    11767.067    1911.3287 
  392800    303.38159   -1162.1543    6447.8359    11766.964    1911.9179 
  392900    303.71436   -1160.7198    6439.3574    11767.029    1959.7396 
  393000    301.50263   -1167.7424    6493.7498    11767.149    1910.2796 
  393100    301.44106   -1171.5416    6498.8738    11767.158    1904.0005 
  393200    301.65775   -1170.3421    6493.0155    11767.128    1879.9643 
  393300    302.19168   -1168.8776    6480.1333    11767.117    1900.5191 
  393400    303.97051   -1161.9344    6435.2291    11767.158     1937.788 
  393500     304.6486   -1166.7483    6425.4961    11767.098    1969.0777 
  393600    298.90594   -1155.2488    6536.6207    11767.039    1931.2473 
  393700    302.35789   -1162.7229    6470.4496    11767.139    1936.5855 
  393800    302.66063   -1161.8443    6463.0289    11767.065    1995.4596 
  393900    299.51071   -1166.9203     6535.418    11767.084    1979.3108 
  394000    303.92298   -1168.7098    6442.9224    11767.061    1943.9183 
  394100    302.11965   -1173.3123    6486.1173    11767.128    1986.8576 
  394200    304.28156   -1164.8514       6431.4    11767.057    1853.5069 
  394300    303.94889   -1165.2449    6438.7432      11766.9    1863.9626 
  394400    304.57837   -1168.2338    6428.3963    11767.012    1987.7232 
  394500    302.23414   -1159.5734    6469.7819    11766.977    1947.8108 
  394600    299.95189   -1153.9687    6512.8451    11766.888    1952.8575 
  394700    301.89715   -1159.6011    6476.9171    11766.886    1976.1828 
  394800    301.45422    -1155.558    6482.3198    11766.869    1931.0933 
  394900    303.51311   -1160.6422    6443.4386    11766.888    1919.0914 
  395000    298.92723   -1161.1191    6541.8607    11766.863    1926.3392 
  395100    304.32847   -1159.3006    6424.8266    11767.037    1923.5457 
  395200    299.99211     -1159.46    6517.6582    11767.069    1930.7607 
  395300    303.88345   -1159.2627    6434.2909    11767.032    1866.6267 
  395400    300.83103   -1165.3964    6505.6302    11767.027    1916.1016 
  395500      302.619    -1167.247    6469.2962     11767.04    1897.9631 
  395600    303.27691   -1164.1799     6452.169    11767.035    1910.9489 
  395700    303.86838   -1159.5269    6434.8671    11767.022    1980.1778 
  395800    301.43975    -1158.065    6485.2546    11766.987    2000.7665 
  395900    303.87608    -1155.418     6430.571    11766.999    1930.4691 
  396000    303.50352   -1165.7388    6448.8256    11766.974    1963.9061 
  396100    299.03855   -1157.9554    6536.5147    11767.059    2049.6705 
  396200    303.03808   -1169.9631    6463.0885    11767.069    1903.9629 
  396300    302.75222   -1168.7486    6468.0247    11767.113    1906.6333 
  396400    305.56562   -1172.4145    6411.5629    11767.089    1898.1374 
  396500    299.62418   -1164.0721    6530.1783    11767.117    1840.5361 
  396600    303.14472    -1170.563    6461.4606    11767.119     1912.772 
  396700    302.54337     -1162.73    6466.3985    11767.043    1944.7153 
  396800    302.01791   -1162.4043    6477.2994    11767.044     1927.933 
  396900    302.75452   -1157.6431    6456.7906    11767.033    1931.8876 
  397000    300.62362   -1152.5898    6497.2366    11767.009    1909.2946 
  397100    303.37561   -1158.2202     6444.041    11766.975    1908.2421 
  397200    299.44512   -1164.1378    6533.9433    11766.991    1935.2125 
  397300    299.82977   -1168.7697    6530.4072    11767.041    1892.5077 
  397400    303.37263   -1164.9406    6450.8802     11767.03     1911.369 
  397500    300.79309   -1163.3685    6504.3592    11766.974     1882.779 
  397600    299.15368   -1159.1842    6535.1821    11766.957    1899.0593 
  397700    304.45556   -1156.8664    6419.5115    11766.871    1950.0496 
  397800    303.33651   -1155.0415    6441.6069    11766.885    1945.3093 
  397900    301.38663   -1154.1432    6482.2255    11766.745    1914.0972 
  398000    301.84655   -1151.3869    6469.7805    11766.882    1952.2891 
  398100    301.68543   -1156.4611    6478.2168    11766.802    1915.7951 
  398200    301.36961   -1158.2812    6486.9016     11766.92    1957.5228 
  398300    302.07245   -1157.6285    6471.2003    11766.886    1884.9376 
  398400    299.91064   -1157.5834    6517.3895    11766.937    1867.8948 
  398500     301.9386   -1159.1304    6475.5516    11766.876    1903.2005 
  398600    304.58235   -1154.6928    6414.6108    11766.853     1930.821 
  398700    302.73367   -1157.0302    6456.4177    11766.828    1881.7037 
  398800    302.92738   -1161.7812    6457.0669    11766.864    1922.0968 
  398900     298.5188    -1144.813     6534.254    11766.837     1958.269 
  399000     304.4244   -1153.4456     6416.771    11766.886    1937.5312 
  399100    301.73417   -1158.5933    6479.4252    11766.919    1917.8284 
  399200    300.57997   -1164.1921    6509.8167    11767.055    1867.7334 
  399300    304.70056   -1161.1634    6418.7248    11767.021    1919.0998 
  399400    301.62333   -1161.0043    6484.3353    11767.051     1909.866 
  399500     301.3707   -1169.7027    6498.4697     11767.09    1848.6363 
  399600    304.35492     -1173.79    6438.8889    11767.175    1881.6687 
  399700     296.2143   -1166.5842    6605.6053    11767.185    1895.5521 
  399800    305.26011   -1162.5817    6408.2289    11767.061    1867.5658 
  399900    303.51357   -1168.3335    6451.2912    11767.059    1944.5477 
  400000    300.32277   -1166.9392    6518.1293    11767.125     1958.227 
  400100    304.09579   -1161.2536    6431.8945    11767.181    1896.7069 
  400200    301.83805   -1167.5105    6486.3385    11767.135    1974.6646 
  400300    300.41408   -1163.6494    6512.9987    11767.235    1931.6202 
  400400    304.01766    -1168.029    6440.3556    11767.197    1897.2606 
  400500     302.6717   -1164.5677    6465.5363    11767.085    1913.5468 
  400600    304.54582   -1170.3007    6431.2866     11767.14    1916.7178 
  400700    299.56188   -1168.2028    6535.5917    11767.069    1919.1069 
  400800     303.1798   -1164.1447    6454.1954    11767.022    1901.6441 
  400900    307.79481   -1162.0915    6353.5487    11767.021    1920.4308 
  401000    300.28527   -1162.7626    6514.5855    11766.957    1915.2589 
  401100    298.91379   -1162.5345    6543.6247    11766.925    1872.2909 
  401200    304.49287   -1155.6864    6417.6096    11766.946     1926.375 
  401300    297.75235   -1154.1678    6560.0538    11766.908    1861.2542 
  401400    302.38557   -1156.7077    6463.5617    11766.858    1873.5784 
  401500    303.53601   -1160.4996    6442.7942    11766.876    1942.3493 
  401600    300.54111   -1163.7448    6510.0111    11766.866    1933.7776 
  401700    302.48628   -1156.9018    6461.6229    11766.876    1816.2668 
  401800    298.23483   -1163.7168    6559.2877      11766.9    1863.9063 
  401900    303.41712   -1156.4673    6441.3377    11766.912     1835.441 
  402000    304.04233   -1161.9327     6433.558    11767.023    1908.9524 
  402100    300.16301   -1156.6603    6511.0538    11766.916    1967.1046 
  402200    303.76609   -1160.3792    6437.8102    11766.928    1877.8264 
  402300    301.86273   -1156.0274      6474.19    11766.997    1865.1001 
  402400    304.27936   -1162.0208    6428.5749    11767.016    1901.5335 
  402500    304.80004   -1164.5361    6419.9344    11766.983    1848.0433 
  402600     298.8286    -1160.608    6543.6681    11767.075    1925.0022 
  402700    305.04601   -1163.6318    6413.8899    11767.098    1912.6272 
  402800     300.8055    -1162.721    6503.6176    11767.145    1918.7918 
  402900    299.09146   -1162.8632    6540.3695    11767.136    1932.9327 
  403000    305.46247   -1165.1734    6406.5886    11767.152    1908.5804 
  403100    303.12735    -1165.462    6456.7569    11767.146    1985.9429 
  403200    303.46131    -1165.874    6449.9357    11767.047    1898.4019 
  403300     303.0979   -1162.7903    6454.7161    11767.147    1905.5965 
  403400    302.72164    -1165.483    6465.4365    11767.137    1920.3979 
  403500    302.23952    -1168.586    6478.8813    11767.179    1919.2652 
  403600     304.9187   -1167.9462    6421.0298    11767.204    1920.0595 
  403700    302.15227   -1164.4408    6476.6018    11767.181    1878.5552 
  403800    298.67789    -1162.396    6548.7585    11767.157    1922.0127 
  403900     303.7165   -1166.0225    6444.7304    11767.145    1870.5597 
  404000    302.62264   -1167.0953    6469.1234    11767.096    1842.2164 
  404100    301.52563   -1166.3953    6491.9107    11767.148    1913.2055 
  404200    304.91048    -1158.764    6411.8566    11767.037    1889.4349 
  404300    297.22323   -1158.1202    6575.4215     11767.02    1944.8601 
  404400    303.76293   -1156.0253    6433.5931    11766.997    1904.2795 
  404500    301.13586   -1161.3726    6495.0267     11766.96    1918.9115 
  404600    300.59919   -1158.4174    6503.4699    11766.893    1958.9961 
  404700    306.46497   -1162.1587    6381.9265    11766.922    1909.4953 
  404800    297.89612    -1155.526    6558.2931    11766.861    1947.3277 
  404900    303.55893   -1156.5787    6438.3745    11766.867    1914.9181 
  405000     301.2967   -1157.1781    6487.2306    11766.794    1862.0767 
  405100    304.64734   -1161.6305    6420.1396    11766.832    1869.3849 
  405200    303.24803   -1155.0144    6443.4108    11766.825    1866.2752 
  405300    300.41833   -1160.3164     6509.247    11766.907    1856.9765 
  405400    301.15203   -1152.2879     6485.483    11766.846    1858.8253 
  405500    302.05759   -1155.3218    6469.2169    11766.892    1923.0712 
  405600    302.23317   -1157.3871    6467.5646    11766.926    1926.5542 
  405700     300.4031   -1163.9304    6513.2011    11766.922    1956.0998 
  405800    301.14936    -1162.831    6496.2156    11766.979    1923.9083 
  405900     304.4346    -1166.269    6429.4905        11767    1928.8851 
  406000    300.52356   -1164.6516    6511.4358    11767.009    1928.3239 
  406100    302.05449   -1164.1498    6478.3972    11767.178    1836.8141 
  406200    304.73952   -1166.1977    6423.0336    11767.128    1877.5604 
  406300      303.828   -1166.0741    6442.4636    11767.209    1926.6566 
  406400    302.95717    -1160.973    6455.8471    11767.089    1892.2978 
  406500    305.28901   -1161.4466    6406.6531    11767.238    1918.0062 
  406600    299.24846   -1162.7788    6537.0127    11767.218    1926.5726 
  406700    298.94773   -1169.8502    6550.5399    11767.249    1934.8548 
  406800    305.60181   -1171.3393    6409.8578    11767.232    1878.9653 
  406900    299.23181   -1165.1532    6539.7621    11767.237    1955.0147 
  407000    303.47649   -1161.4961     6445.411    11767.225    1879.4004 
  407100    298.07084   -1167.6261    6566.9658    11767.166    1901.1924 
  407200    302.20623   -1167.3078    6478.3031    11767.168    1913.2984 
  407300    302.87623   -1168.8329    6465.4938    11767.147    1889.1958 
  407400     300.4175   -1160.4781    6509.5699    11767.051    1917.0248 
  407500    305.04289   -1163.3111    6413.5305    11766.993    1899.8066 
  407600    300.00627   -1159.6915    6517.5841    11767.066    1891.6779 
  407700    305.31422   -1163.4087    6407.8112    11766.972    1849.8974 
  407800    303.60574   -1166.2737    6447.0916    11766.889     1889.852 
  407900      299.819   -1160.9994    6522.8134    11766.987    1953.3194 
  408000    303.09483   -1161.8784    6453.7055    11766.983    1897.3051 
  408100    302.44696    -1159.009    6464.6587    11766.965    1887.9673 
  408200    301.42382   -1160.9765    6488.3795     11766.86    1854.7921 
  408300    298.23559   -1153.2771     6548.883    11766.952    1909.2023 
  408400    305.28442   -1162.1714    6407.1634    11766.925    1902.5432 
  408500    300.83631   -1150.9081    6490.8706    11766.869    1908.5563 
  408600    303.03047   -1156.0545    6449.2362    11766.963    1887.2838 
  408700    301.34835   -1158.8515    6487.9639    11766.958     1882.311 
  408800    303.71986   -1158.8944    6437.3416    11766.956    1891.1903 
  408900    301.83577   -1159.1213    6477.7929     11766.93    1891.3853 
  409000    305.06646   -1158.8913    6408.7009    11767.086    1939.3943 
  409100    305.15329   -1164.0453    6411.9619    11767.048    1896.1175 
  409200    299.10693   -1157.5345     6534.728    11767.154    1893.6607 
  409300    301.45828   -1162.8311    6489.7569    11767.119    1894.7196 
  409400    302.73443   -1161.4382    6461.0097    11767.028    1874.0574 
  409500    305.59809   -1169.1089    6407.5527    11767.078    1818.1215 
  409600    301.97881   -1161.3696    6477.2375    11767.182    1868.3407 
  409700    303.58842   -1164.4168    6445.8897    11767.174    1841.7361 
  409800    304.87317   -1162.0642    6416.0874    11767.171    1853.1873 
  409900    301.00379   -1163.3857    6500.1507    11767.249    1868.4612 
  410000    306.69765   -1168.7098    6383.8714    11767.286    1864.4521 
  410100    301.80804    -1162.897    6482.5196    11767.288    1852.3081 
  410200    300.93194   -1169.1137    6507.4372    11767.273    1932.9359 
  410300    302.87501   -1166.1927    6462.9347    11767.202    1965.0096 
  410400    302.71552   -1161.8872    6461.9381    11767.103    1938.1424 
  410500    305.23026   -1162.3219    6408.6618    11767.116    1851.9916 
  410600    299.89759   -1161.3741    6521.6435    11767.121    1874.9514 
  410700    302.57463   -1169.7493    6472.8202    11767.113    1849.8785 
  410800    303.85082   -1166.0586    6441.7242    11766.972    1903.9811 
  410900    301.43248   -1157.4854    6484.8829     11767.04    1932.2806 
  411000    301.39185   -1165.9141     6494.275    11767.135     1920.557 
  411100    302.04278   -1158.0211     6472.459    11767.118      1936.84 
  411200    302.52399   -1161.0186    6465.0141    11766.956    1892.9839 
  411300    301.60643   -1159.5217    6483.0969    11766.934    1909.3761 
  411400    300.23464   -1157.6175    6510.5216    11766.956     1887.727 
  411500    304.74972    -1159.363    6415.7979    11766.945     1865.943 
  411600    303.94544   -1161.2402    6434.8216    11766.909    1883.7934 
  411700    301.61469   -1158.0548    6481.3739    11766.854     1914.971 
  411800    300.06032   -1158.7221    6515.2945    11766.901     1869.123 
  411900    299.49013   -1161.1433    6529.8745    11766.878    1905.5115 
  412000    305.37792   -1160.4248    6403.4328    11766.939     1881.958 
  412100    299.61361   -1161.6749    6527.7945    11766.905    1923.1976 
  412200    306.15617   -1164.1457    6390.5889        11767    1907.9087 
  412300    298.40926   -1154.9637    6546.8743    11766.966    1925.6877 
  412400    304.90719   -1160.7984    6413.8697    11766.946    1887.0169 
  412500    303.06464   -1161.1272    6453.7006    11767.084    1981.7405 
  412600    304.41913   -1166.4656    6430.0671    11767.049    1965.1304 
  412700     303.0013    -1166.195    6460.1027    11767.066    1850.6109 
  412800    302.20899   -1159.4731     6470.422     11767.18    1852.5785 
  412900    301.45213   -1172.6129    6499.7613    11767.211    1900.6997 
  413000    300.60991   -1167.2194    6512.3289    11767.179    1926.0723 
  413100    305.07688    -1166.451    6416.0865    11767.135    1918.1216 
  413200    302.94637   -1166.3322    6461.5969    11767.249    1885.4615 
  413300    303.97193   -1164.0083    6437.3325    11767.218    1929.4979 
  413400    300.77596   -1162.7207    6504.2333    11767.129    1969.2408 
  413500    302.33637   -1165.7818    6473.9055    11767.076    1863.6576 
  413600    302.87731   -1167.2039    6463.8633    11767.168     1881.661 
  413700    304.34901   -1167.4929    6432.6795    11767.136    1943.7643 
  413800    303.43793   -1166.0352    6450.5694     11767.02    1870.5469 
  413900     303.6752    -1160.154    6439.8152    11767.216    1888.9897 
  414000    299.72924   -1170.5178    6534.5181    11767.256    1931.6136 
  414100    305.53383   -1170.0641     6409.971    11767.168    1853.5549 
  414200    301.26657   -1167.5647    6498.5602    11767.094    1829.9853 
  414300     301.4363   -1162.0231    6489.4441    11767.145    1894.8024 
  414400    303.98313   -1165.0666    6438.0821    11767.149    1914.1761 
  414500    300.82995   -1157.3362    6497.5721    11767.006    1940.9843 
  414600    302.35137   -1151.3872    6459.0104    11766.896     1912.529 
  414700    303.64851   -1159.6532    6439.6468    11766.978      1987.46 
  414800    300.95545   -1168.0988    6505.6971     11767.05    1915.5962 
  414900    301.07819   -1162.0492    6496.9803    11767.005    1873.3881 
  415000    301.69661    -1166.356    6488.1244    11767.053    1905.7902 
  415100    302.48517   -1160.7959    6465.6752    11767.011     1942.557 
  415200    301.39816   -1158.2802    6486.3412     11766.97    2006.9806 
  415300    301.50324    -1154.536    6480.3241    11766.942     1898.425 
  415400    298.34928   -1156.0265    6549.1669    11766.915    1960.5968 
  415500    304.56157   -1163.2594    6423.7463    11766.977    1916.5254 
  415600    302.12528   -1159.5736    6472.1848    11767.054    1938.3412 
  415700    301.03589   -1164.6946    6500.4852    11766.961    1888.4344 
  415800    301.99906   -1163.8052    6479.0694    11767.011    1847.6132 
  415900    303.73782   -1170.0884    6448.2737    11767.078    1959.3847 
  416000    304.26679   -1163.6864    6430.6143    11767.121    1911.5379 
  416100    300.29717   -1165.0403    6516.7227    11767.071    1868.9619 
  416200    301.14658   -1163.2358    6496.7234    11767.022    1943.4137 
  416300    305.33881   -1164.5809    6408.5086    11767.023      1934.88 
  416400    301.36402   -1168.0336    6497.0132    11767.159     1939.453 
  416500    303.24304   -1166.5462    6455.3117    11767.088    1903.2288 
  416600    301.91508   -1160.9462    6478.1507    11767.157     1904.241 
  416700    300.71234   -1164.4529    6507.3226    11767.127    1875.2323 
  416800    302.52852   -1165.4115    6469.5082    11767.154    1888.4942 
  416900    302.15049   -1166.4194    6478.6316    11767.194    1912.7208 
  417000    301.01794    -1166.628    6503.0339    11767.192     1943.175 
  417100    303.21153   -1162.9512    6452.5116     11767.21    1936.8939 
  417200    300.53193   -1156.8111    6503.4789    11767.071    1945.1092 
  417300    302.85115   -1160.8442    6457.9985    11767.104    1945.2703 
  417400    300.35665   -1161.6471    6512.0892    11767.101    1947.8637 
  417500    302.73222   -1160.6046    6460.3061    11767.111    1875.0455 
  417600    299.87298    -1159.591    6520.3186    11767.054    1965.0758 
  417700    307.03522     -1168.06    6375.7351    11767.011    1898.3583 
  417800    299.98203   -1166.8309    6525.1729    11766.998    1915.1394 
  417900    302.73183   -1159.3862    6459.0541    11767.069    1866.5791 
  418000    300.36454   -1162.3534    6512.5125    11766.987    1882.7736 
  418100    301.57678   -1161.0858    6485.3283    11766.968    1847.2888 
  418200    300.59516   -1155.8095    6501.0267    11766.972    1882.2219 
  418300    301.89151   -1161.6617      6479.19    11766.977    1923.7365 
  418400      305.683   -1165.1222    6401.6246    11766.951    1922.6703 
  418500    303.16567   -1160.3721    6450.7436    11767.041    1911.7523 
  418600    299.93306   -1163.5178    6522.9261    11767.018    1921.7762 
  418700    301.93918   -1165.9802    6482.5193    11767.006    1967.0333 
  418800    304.14443   -1166.5883    6436.0291     11767.02     1925.959 
  418900    303.00434   -1167.6494     6461.382    11766.955    1918.7024 
  419000    298.73626   -1164.3498    6549.3243    11767.016    1962.4002 
  419100    303.78689   -1160.8856    6437.9374    11766.993     1922.752 
  419200    301.67252    -1161.433    6483.7285    11767.066    1919.6526 
  419300    301.44612   -1161.5681    6488.8032    11767.169    1928.6549 
  419400    302.00566   -1169.0176    6484.1747    11767.045    1950.4743 
  419500    301.67632    -1165.966    6488.1584    11767.044    1970.8164 
  419600    300.08892   -1164.6608    6520.8472    11767.126    1953.5026 
  419700    302.75877   -1166.7051    6465.8458    11767.117    1933.9354 
  419800    302.40058   -1162.5106    6469.1977    11767.012    1935.2008 
  419900    302.72411   -1163.8156    6463.6208    11767.041    1924.4463 
  420000    302.58905   -1171.7873    6474.4432    11767.007     1947.129 
  420100    301.19342   -1161.5855    6494.0729    11767.023    1889.6593 
  420200    301.34128   -1163.5587    6492.8934    11767.029    1888.8948 
  420300    304.98898   -1162.5729    6413.9893    11767.038    1895.0192 
  420400      302.163   -1167.7381    6479.5502    11767.061    1919.4606 
  420500    306.76556   -1163.7265    6377.1046    11766.954    1909.0065 
  420600      298.986   -1157.6727     6537.312    11767.016    1936.3647 
  420700    302.32722   -1155.3622    6463.6059    11767.001    1851.3313 
  420800     300.9753   -1165.5505    6502.7322    11767.057    1962.5112 
  420900    304.88097   -1159.8707    6413.4943    11766.938    1904.8631 
  421000     303.9383     -1160.24     6434.028    11766.963    1884.8021 
  421100    298.91579   -1164.3648    6545.5343    11767.047    1909.3394 
  421200    299.55517   -1156.0914    6523.5031    11766.948    1889.4777 
  421300    302.90778   -1156.4342    6452.2132    11766.939    1988.7849 
  421400    303.60347   -1156.7116    6437.6725    11766.983    1948.9968 
  421500    299.21163   -1159.6974    6534.5384    11767.038    2023.6802 
  421600    303.60934   -1163.2243    6444.0117    11766.935    1948.4525 
  421700    299.67561   -1160.6727    6525.4837    11766.921    1932.2409 
  421800    302.53006   -1167.5304    6471.5919    11767.152    1938.6787 
  421900    300.39036   -1167.2212    6516.8906    11767.049    1906.1955 
  422000    303.15387    -1169.835    6460.5191    11767.101     1914.262 
  422100    303.32837    -1162.397    6449.3415     11767.09    1976.6014 
  422200    299.80483   -1160.4533    6522.6965    11767.113    1967.6098 
  422300    302.10332   -1166.0478    6479.1396    11767.066     1956.903 
  422400     303.1476   -1162.6999    6453.5168      11767.1     1885.896 
  422500    305.10042   -1158.6956     6407.787    11767.094    1894.5458 
  422600    302.37037   -1159.9847    6467.4262     11767.12    1883.5181 
  422700    300.80656   -1166.7112    6507.5052    11767.065    1842.5222 
  422800    306.09435    -1165.738    6393.6424     11767.14    1909.8092 
  422900    300.64786   -1164.6712    6508.9172    11767.126    1878.9726 
  423000    302.25438   -1166.7343    6476.6912    11767.158    1898.5335 
  423100    305.03286   -1164.4482     6415.037    11767.148     1907.407 
  423200    299.84582   -1154.4097    6515.7904    11767.127     1897.449 
  423300    303.06959   -1164.0744    6456.4875     11767.03    1912.1626 
  423400    303.76489   -1162.9292    6440.5158    11767.057    1949.9056 
  423500    303.48067   -1165.4544    6449.0618    11767.006    1856.0238 
  423600    302.30792   -1159.8293    6468.4886    11767.004    1899.2514 
  423700    301.63658   -1153.2611    6476.2254    11766.967    1952.8473 
  423800      305.402   -1157.5932    6400.1332    11766.985     1887.367 
  423900    302.77669    -1158.937    6457.5196    11766.942     1927.311 
  424000    299.59818   -1158.6747    6525.1865    11766.967    1964.1416 
  424100    304.58594   -1158.3842    6418.3327     11766.96    1880.6026 
  424200    298.93114   -1161.2753    6542.0285    11766.958    1885.8779 
  424300    301.10955   -1159.5643    6493.7969    11766.976    1921.2753 
  424400     300.0529   -1157.9097    6514.6904    11766.951    1871.7493 
  424500    301.69255   -1154.2918     6475.992    11766.899    1913.4745 
  424600    302.89422   -1156.2415     6452.246    11766.875    1963.5564 
  424700    303.10165   -1151.4062    6443.0837    11766.979    1942.4549 
  424800      302.772   -1158.3883    6457.0424    11766.913    1868.6884 
  424900    299.39925   -1162.1532    6532.9514    11767.004    1912.2719 
  425000    304.60162     -1172.56    6432.2697    11767.056    1860.4098 
  425100    302.64704    -1165.497    6467.0312    11767.124    1836.0734 
  425200    301.73774   -1163.7308    6484.6414    11767.074     1845.003 
  425300    302.95956   -1170.1042    6464.8614    11767.023    1896.8643 
  425400    298.02024   -1166.3059    6566.7217    11767.161    1984.2162 
  425500    303.75329   -1158.4814    6436.3653    11767.107    1945.9623 
  425600    301.75594    -1161.475    6481.9688    11767.047     1975.089 
  425700    303.18441   -1161.0055    6451.0169    11767.081    1965.2136 
  425800    303.45367   -1167.2973    6451.6571    11767.182    1962.6577 
  425900    299.51608   -1173.8921    6542.4435    11767.253    1929.9412 
  426000    304.87379    -1171.036    6425.0717    11767.196    1871.1369 
  426100    300.74185   -1173.3969    6515.7442    11767.235    1899.4625 
  426200    301.90229   -1172.1876    6489.7522    11767.244    1949.7471 
  426300    304.31656   -1170.4312    6436.2815    11767.107    1928.0907 
  426400    303.77024   -1164.4672    6441.9925     11767.11    1955.3748 
  426500    301.17322   -1154.9446    6487.9182    11767.077    1971.9023 
  426600    302.37723   -1159.6341    6466.8562    11767.048    2016.5253 
  426700    303.44274   -1158.6009    6442.9803    11766.968    1927.2282 
  426800    298.90967   -1166.3162    6547.6859    11767.116    1920.8891 
  426900    304.86416   -1160.9955     6415.054    11767.014    1806.0076 
  427000    303.60311   -1167.5286    6448.5484    11767.035    1827.3537 
  427100    299.20781    -1168.305    6543.1651    11766.976    1903.7747 
  427200    310.44808   -1161.2092    6295.9121     11766.95    1878.7454 
  427300    303.37856   -1147.7022     6433.276    11766.791    1900.9976 
  427400    299.47173   -1152.7615    6521.8362    11766.829    1909.7856 
  427500    305.39778   -1152.3578    6394.8014    11766.798    1886.2065 
  427600    301.60736   -1155.9823    6479.4647    11766.861    1932.9209 
  427700     300.2587   -1157.0941    6509.4296    11766.902    1916.0763 
  427800    301.25279   -1160.8204    6491.9162    11766.899    1939.3248 
  427900     303.3136   -1158.8219    6446.0184    11767.026    1846.9145 
  428000    300.48353   -1159.0681    6506.6699    11766.972    1895.0256 
  428100    304.26996   -1161.2419    6428.0063    11767.025    1837.2301 
  428200    303.08932   -1162.7931    6454.7869    11767.032    1865.8953 
  428300    302.21575   -1156.8156    6467.4443    11767.005    1908.4921 
  428400     299.8555   -1154.7612    6515.8345    11767.026    1918.0401 
  428500    302.17417   -1159.7211    6471.2759    11767.042    1895.1818 
  428600    303.91473   -1159.2248    6433.7345    11767.182    1867.0295 
  428700    301.89285   -1166.1407    6483.7913    11767.128    1921.4417 
  428800     300.3594   -1170.1676    6520.6111    11767.161    1897.7735 
  428900     300.2333   -1175.9238    6529.1839    11767.284    1880.8143 
  429000    300.36104   -1175.6979    6526.2065    11767.261    1923.1051 
  429100    306.59434   -1170.0305    6387.3459    11767.233    1929.2267 
  429200    301.86212     -1170.77    6489.2052    11767.256    1927.9417 
  429300    308.72565   -1170.0159    6341.8324    11767.266    1918.2545 
  429400    304.22512   -1160.9588    6428.8698    11767.214    1985.4203 
  429500    301.87829   -1166.1169    6484.1693    11767.219    1937.7693 
  429600    304.79017   -1161.6661     6417.529    11767.237    1911.6284 
  429700    302.25278   -1168.1831    6478.3423    11767.326    1945.7348 
  429800    302.94359   -1171.8125     6467.206    11767.318    1909.3962 
  429900    301.18177   -1174.1172    6507.1027    11767.272    1886.9147 
  430000    302.21574   -1173.2489    6484.1363    11767.263    1934.3047 
  430100    301.08804   -1170.0769    6504.9357    11767.143    1868.5623 
  430200    303.49944   -1166.9944    6450.2238    11767.029    1844.7033 
  430300    300.36425   -1165.1359    6515.3053    11766.991    1894.0947 
  430400    304.38658   -1162.0493    6426.3798    11767.083    1969.5034 
  430500    299.69655   -1156.5879    6520.9679    11766.937    1941.9632 
  430600    304.75486   -1163.3389    6419.6318    11766.913    1941.7853 
  430700    302.74849    -1155.156    6454.4138    11767.015    1922.9134 
  430800    298.52306   -1161.3367    6550.9164    11767.067    1888.9091 
  430900    303.49803    -1164.174    6447.3368    11766.932    1902.5699 
  431000    300.95406   -1156.3972    6493.9101    11766.935    1885.7869 
  431100    297.59961   -1162.9322    6572.1322    11766.959    1877.6953 
  431200    301.54079   -1162.4642    6487.4727    11766.965    1920.3421 
  431300    305.75836   -1157.3107    6392.1641    11766.912     1874.379 
  431400    302.14607   -1153.9648    6466.0174     11766.94    1887.3385 
  431500    303.25184   -1151.3663    6439.8503    11766.994    1913.7102 
  431600    302.71089   -1160.8418    6460.8062    11766.918    1964.1365 
  431700    302.09294   -1159.6026    6472.7922    11766.942    1937.8024 
  431800    303.07858   -1161.6469    6453.8945    11767.056    1939.8998 
  431900    300.39231   -1169.0633    6518.7998    11767.157     1882.719 
  432000    299.62039   -1162.8992    6529.0495     11767.08    1938.2275 
  432100    305.61264   -1169.6936    6407.9086     11767.16    1956.7502 
  432200    302.38284   -1170.2868    6477.5089    11767.167    1969.8395 
  432300     298.8912   -1167.2736    6549.0394    11767.118    1956.7122 
  432400    306.73307   -1162.8088    6377.0597    11767.132     1917.578 
  432500    302.04994   -1163.3797    6477.7142    11767.168     1954.386 
  432600    304.20223   -1166.4395    6434.8179    11767.192    1917.7154 
  432700    304.23412   -1173.4564     6441.246    11767.285    1992.9425 
  432800       300.49   -1167.2932    6514.9761    11767.191    1973.4001 
  432900     302.0491   -1173.5286    6487.9851    11767.272    1903.4337 
  433000    300.59058    -1164.522     6510.174    11767.309    1927.6974 
  433100    304.08936   -1165.4667    6436.2871    11767.223    1913.5678 
  433200    303.86921   -1167.4202    6442.9359    11767.215    1959.3808 
  433300    297.37217   -1166.5578    6580.8306    11767.173    1960.9153 
  433400    303.80061   -1162.4019    6439.3569    11767.189    1899.8359 
  433500    304.00601   -1162.7464    6435.2782    11767.154    1957.8998 
  433600    303.37753    -1160.691    6446.6364    11767.141    1927.0197 
  433700    301.40056   -1163.7461    6491.9464    11767.161     1925.202 
  433800    302.37769   -1160.5199    6467.7877    11767.103    1979.5999 
  433900     302.4331   -1157.3426    6463.4055    11767.082    1926.5425 
  434000     302.9488   -1161.7791    6456.7144    11766.972    1899.5419 
  434100    298.61488   -1162.7694    6550.3795    11767.059    1907.2857 
  434200    302.76787   -1155.5945     6454.397    11766.974     1850.324 
  434300    300.73846   -1156.7325    6498.7341    11766.817    1919.4723 
  434400     303.6594   -1153.2039    6432.8892    11766.902    1928.1816 
  434500    308.37216   -1154.1887    6333.1246    11766.834    1909.9811 
  434600    297.58548   -1155.2681    6564.7154    11766.905    1902.0091 
  434700     302.5763   -1152.6319    6455.4414    11766.888    1867.1174 
  434800    301.12209   -1160.3576    6494.2613    11766.915    1933.3318 
  434900    302.81605   -1163.0383      6460.76    11766.922    1936.9124 
  435000    301.98881   -1156.3683    6471.8385    11766.998    1864.9395 
  435100    301.19057   -1161.3924    6493.9394    11767.021    1888.0158 
  435200    302.41836   -1164.4098    6470.6829    11766.977    1853.5181 
  435300    302.30347   -1162.6474    6471.3648    11766.967    1877.6003 
  435400    304.18803   -1163.0644    6431.5434     11766.99    1944.7081 
  435500    300.15646   -1157.0762    6511.7747    11767.081    1948.8519 
  435600     303.4789   -1154.5753    6438.3342     11767.12    1889.4858 
  435700     299.2342   -1158.9581    6533.4304    11767.152     1942.784 
  435800    304.02766   -1161.7587    6433.7514    11767.077    1900.2464 
  435900    299.40689   -1169.4472    6540.2815    11767.203    1991.5919 
  436000    304.29951   -1171.9629    6438.2963    11767.226    1963.5256 
  436100    303.51162   -1174.3484    6457.4866    11767.198    1872.6643 
  436200    303.91778   -1175.5964    6450.1337    11767.274    1853.7439 
  436300    302.72454   -1169.9559    6469.9667    11767.256    1909.9638 
  436400    301.76059   -1168.7741    6489.2754    11767.153    1904.0143 
  436500    302.74326   -1166.5408    6465.9795    11767.084    1947.5571 
  436600    303.10862   -1166.5502    6458.1424    11767.043    1866.0802 
  436700    299.40866    -1157.057    6527.8078    11767.157    1872.5812 
  436800    305.08142   -1160.3357    6409.8024    11767.063    1880.0165 
  436900    302.34382   -1163.9636    6471.8592    11767.007    1943.3303 
  437000    302.55409   -1166.5913    6470.0468    11767.059    1914.6033 
  437100    301.01257   -1165.1369     6501.536    11767.071     1911.985 
  437200    302.16588   -1166.4662    6478.1764    11767.021    1864.0993 
  437300    301.29631   -1164.9973    6495.3046    11767.041    1901.1856 
  437400    302.87744   -1161.8496    6458.3329    11766.995    1880.8004 
  437500    300.30541   -1156.7575    6508.1031     11766.91    1923.2907 
  437600    303.03373   -1149.3595    6442.3333    11766.824    1880.2629 
  437700    302.92588   -1153.1971    6448.5493    11766.899    1874.4205 
  437800    299.36717   -1154.1195    6525.5076    11766.908    1995.9687 
  437900    305.83571   -1159.6302    6392.7356    11766.816    1923.4435 
  438000    298.87501   -1155.3646    6537.2608    11766.902    1886.0571 
  438100    301.66629    -1155.377     6477.677    11766.937    1906.2169 
  438200     304.2894   -1164.6325    6430.9101    11766.954    1884.2078 
  438300    301.09187   -1160.8612    6495.3922    11766.897    1840.7907 
  438400    304.83144   -1160.3055    6415.0207    11766.971    1873.6178 
  438500    300.87069   -1158.0761    6497.4479    11767.012    1924.2778 
  438600    301.79295   -1154.4478    6474.0123    11766.908    1876.6802 
  438700    303.20313   -1156.6115    6446.0367    11766.895    1895.5121 
  438800    302.98364   -1155.9613    6450.0872    11766.907    1899.4431 
  438900    302.48071   -1159.2849     6464.241    11766.992    1883.3918 
  439000    304.94861   -1169.7952     6422.106     11767.07    1848.5686 
  439100    302.14307   -1173.2733    6485.4856    11767.036    1879.4893 
  439200    303.78882   -1172.7301    6449.8873    11767.139    1861.2421 
  439300    300.19538   -1168.6886    6522.5733    11767.098    1976.4299 
  439400    302.02459   -1168.5653    6483.4074    11767.134    1978.0407 
  439500    304.52759   -1165.9562    6427.2822    11767.091    1929.1952 
  439600    303.46595   -1155.3856    6439.3708     11767.07    1860.9403 
  439700     302.9323   -1160.0706     6455.491    11767.104    1942.1691 
  439800    300.12154   -1164.5765    6520.1408    11767.201    1977.6973 
  439900    304.59309   -1163.1449    6423.1327    11767.152    1911.1641 
  440000    303.39138   -1167.8361    6453.4867    11767.142    1911.1349 
  440100    299.18913   -1175.0124    6550.5038    11767.208    1919.4942 
  440200    302.22951   -1174.6103    6485.1648    11767.224    1855.4162 
  440300    302.08731   -1164.7375    6478.2642    11767.159    1834.5323 
  440400     305.4795   -1167.1779     6408.194    11767.117    1905.2194 
  440500     301.4119   -1158.7871    6486.7027    11767.118    1897.3464 
  440600    299.46981   -1157.2482    6526.6772    11767.142    1905.3433 
  440700    303.16885   -1161.4549    6451.7484    11767.031    1963.8199 
  440800    305.56041   -1156.9081    6396.0434    11766.965    1918.6421 
  440900    302.83876   -1163.2894    6460.6734    11767.069    1879.7683 
  441000    301.20127   -1162.7726    6495.1128    11767.043    1887.3807 
  441100    302.32948   -1162.5054    6470.7277    11767.028    1860.1274 
  441200    302.02267   -1161.6496    6476.2939    11766.895    1772.9413 
  441300    301.38745   -1160.3937    6488.7261    11767.013     1808.901 
  441400    305.38211   -1164.7122    6407.6243    11766.932     1890.718 
  441500    303.91088   -1155.8456    6430.1282    11766.872    1893.5285 
  441600    298.45292   -1153.2158    6544.0635    11766.836    1979.2242 
  441700    304.57537   -1153.8788     6413.938    11766.845    1938.5569 
  441800    299.09031   -1151.7391    6529.0359    11766.902    1965.4825 
  441900    304.46642   -1154.3217    6416.6614    11766.798    1837.1283 
  442000    302.16214   -1160.6648    6472.4408    11767.007    1869.1479 
  442100    300.62938   -1166.8896    6511.3201    11766.916    1876.0717 
  442200    300.65598   -1165.0668    6508.9528     11766.94    1863.6126 
  442300    305.87712   -1167.1305    6399.4723    11766.937    1893.8631 
  442400    301.64122   -1161.6367    6484.4742    11766.939    1906.6275 
  442500    298.81852   -1157.0297    6540.2287    11766.998    1882.7766 
  442600    303.49882   -1156.1929    6439.3788    11766.973    1849.1439 
  442700    303.01867   -1159.7673    6453.2294    11766.991    1882.6706 
  442800    302.04799   -1161.0557    6475.2585    11766.995    1878.1566 
  442900    302.77341   -1164.9863    6463.6767     11766.98    1935.5523 
  443000    304.39258   -1166.7994    6430.8124    11766.893    1869.3261 
  443100    301.53527   -1162.5138    6487.7342    11767.059    1814.3346 
  443200    303.47207   -1166.5721    6450.4198    11767.063    1896.7969 
  443300    303.53115   -1163.8668     6446.394    11767.004    1897.9248 
  443400    302.31023   -1162.6621    6471.3728    11767.105     1851.109 
  443500    302.13752   -1160.4448    6472.8805     11767.14    1820.2882 
  443600    302.22857   -1163.5483    6473.9098    11767.011     1824.921 
  443700    300.47109   -1160.1391     6508.102    11767.067    1887.8771 
  443800     305.5857   -1157.7835    6396.4384    11767.024    1882.0503 
  443900     302.6491   -1162.1088    6463.4785    11767.003    1923.5979 
  444000    300.20479   -1158.4431    6511.9945    11766.966    1931.6171 
  444100    300.93573   -1151.8893    6489.9032    11767.044     1892.253 
  444200    299.23977    -1161.096    6535.3938    11767.096    1917.0483 
  444300    305.33434   -1164.2755    6408.1586    11766.883    1880.4065 
  444400    301.12611   -1161.6742    6495.5889    11767.012    1844.1572 
  444500    302.58115   -1158.9917    6461.7305    11766.921    1844.4134 
  444600    301.60893   -1160.4193    6483.9324    11766.925    1837.6237 
  444700    304.64323    -1158.679    6417.3159    11766.872    1804.3492 
  444800     299.4716   -1149.0159    6518.1268    11766.862    1894.8633 
  444900     302.7669   -1158.0193    6456.7015    11766.832    1835.9884 
  445000    301.74876   -1155.7362    6476.2049    11766.868    1865.7402 
  445100    303.58612   -1150.0758    6431.3506    11766.927    1849.7573 
  445200    301.19768   -1158.1972    6490.4711      11766.9    1832.7613 
  445300    301.66771   -1160.9066    6483.1551    11766.916    1784.2665 
  445400    301.64244   -1161.8458    6484.6415    11766.924    1873.9315 
  445500    304.15509   -1161.7685    6430.8208    11766.859     1879.512 
  445600    299.85067   -1157.9444    6519.0369    11766.942    1906.0571 
  445700    301.41971   -1161.9696    6489.5388    11766.939    1898.8899 
  445800    305.08258   -1151.9576    6401.2195    11766.883    1884.9604 
  445900     301.9037   -1158.7895    6475.9766    11766.896    1882.1207 
  446000    301.95805   -1152.5919      6468.63    11766.909    1838.1948 
  446100     304.3351   -1156.8291    6422.2051    11767.028    1882.3139 
  446200    303.80492   -1159.6744    6436.2965    11766.948    1879.4367 
  446300    299.47026   -1159.6016    6528.9531    11767.074     1930.665 
  446400    305.55964   -1164.2257    6403.4346    11767.022     1852.282 
  446500     300.1758   -1163.1862    6517.3982    11767.007    1879.5291 
  446600    302.38533   -1159.0318    6466.0411    11767.008    1861.9911 
  446700    302.30211   -1162.3754    6471.1332    11766.978    1892.8971 
  446800    302.99241   -1157.2522    6451.2712    11766.987    1862.4251 
  446900    300.50913   -1161.3014    6508.3708    11766.986    1872.1629 
  447000    300.84077    -1154.877    6494.8353     11766.96    1855.5221 
  447100    304.70139   -1158.4197    6415.8241    11766.882    1853.9965 
  447200    299.11662   -1162.5634    6539.3934    11766.998    1907.8181 
  447300     306.9255   -1163.4259    6373.4854    11767.052    1896.9356 
  447400    301.74131   -1163.9678    6484.7994    11767.072    1885.7924 
  447500    303.48132   -1164.5751    6448.2192    11767.057    1892.7332 
  447600    301.96068   -1162.0796    6478.1866    11767.034    1915.2647 
  447700    305.62497   -1160.8042    6398.6966    11767.101     1842.548 
  447800    300.41929   -1160.8189      6509.92    11767.098    1866.9902 
  447900    302.70915   -1155.3511     6455.462    11767.027    1829.9681 
  448000    299.62231   -1160.0558    6526.0952     11767.01    1886.1324 
  448100    302.77888   -1163.3832    6462.0308    11767.054    1879.3176 
  448200    300.46542   -1163.2394    6511.3832    11767.127    1928.6515 
  448300    303.61001    -1156.659      6437.49    11766.993    1893.6855 
  448400    299.56047   -1160.5438    6527.9815    11767.088    1863.8884 
  448500     301.4002   -1164.1364     6492.204    11767.021    1851.5889 
  448600    299.39077   -1161.8199    6532.8384    11767.043     1845.987 
  448700    302.32291   -1168.0868    6476.3836    11766.962    1880.4132 
  448800    307.93076   -1167.8025    6356.3278    11766.993    1899.6386 
  448900    299.05373   -1161.5101    6539.7771    11767.091    1872.8891 
  449000    300.05762   -1162.4785    6519.1683     11766.96    1922.4157 
  449100    301.51791   -1159.7678    6485.2154    11766.915    1921.8233 
  449200     303.4627   -1160.3149    6444.2758    11766.976    1883.4992 
  449300    302.04721   -1165.9149    6480.1092     11766.97    1841.2781 
  449400    302.79227   -1161.8479    6460.1574    11767.002    1819.5933 
  449500    300.44274   -1161.3422    6509.7806    11766.937    1903.0747 
  449600    302.54614   -1167.6034    6471.1874    11767.018     1965.423 
  449700    302.24319   -1162.6458    6472.6221    11766.938    1912.7086 
  449800    304.69507   -1156.6616     6414.324    11767.005    1907.8265 
  449900    302.34769   -1160.2023    6468.0509    11767.043    1916.0218 
  450000    302.27628   -1155.3724    6464.7019    11766.998    1886.0658 
  450100     302.6639    -1159.985    6461.0756     11767.04    1927.8799 
  450200    298.44008   -1155.8785    6547.2642      11767.1    1953.8111 
  450300    303.72331   -1164.8788    6443.2462     11766.95    1896.2636 
  450400    304.21245   -1158.8626    6426.7414    11766.911    1893.7085 
  450500    298.59062   -1156.4052    6544.5067    11767.032    1900.8602 
  450600    306.12156    -1162.003    6389.1816    11766.996     1888.411 
  450700    299.01602   -1156.4432    6535.3311    11766.906    1882.4935 
  450800    307.03076    -1163.248    6370.9543    11766.947    1822.1096 
  450900    301.66635   -1163.3512    6485.6624     11766.95    1905.6104 
  451000    300.42595    -1163.551    6512.3142    11766.903    1884.7279 
  451100    303.74928   -1159.6399    6437.4277    11766.925     1860.096 
  451200    302.91269   -1164.2667     6459.925    11766.923    1843.2919 
  451300    302.09139   -1163.3456    6476.6091    11766.982    1828.6972 
  451400    303.34504   -1161.5856    6448.0599    11766.976    1802.1834 
  451500    298.49035   -1163.2651      6553.54    11767.063    1915.9432 
  451600    305.61336   -1162.6882    6400.7958    11767.068    1881.5445 
  451700    299.32735   -1159.7758    6532.1559     11767.05    1882.1117 
  451800    300.41285   -1159.3452    6508.4686    11766.983    1895.1368 
  451900     304.3159   -1162.6091    6428.4384    11767.072    1984.8041 
  452000    304.18187   -1164.2861    6432.9366    11767.029    1916.3985 
  452100    299.09122   -1161.9792    6539.4107    11767.057    1896.4811 
  452200    305.14856   -1162.5878    6410.6813    11767.124    1959.6935 
  452300    304.36474   -1166.4491    6431.1424    11766.979    1875.3313 
  452400    301.51048   -1164.6861    6490.4173     11767.04    1824.3619 
  452500     302.7826   -1164.9216    6463.4125    11766.976    1878.0309 
  452600    300.58293    -1163.882    6509.3711    11766.982    1900.1334 
  452700     304.5196   -1161.1832      6422.51    11766.921    1924.8006 
  452800    304.35154   -1161.1232    6426.1329    11767.013     1918.669 
  452900    303.14787   -1163.9655    6454.6082    11766.932    1932.3614 
  453000    300.07947   -1163.6928     6519.833    11766.878    1898.5918 
  453100    300.04281   -1166.4298    6523.4524    11766.977    1886.4887 
  453200    304.51647   -1167.1429    6428.5113    11766.896    1850.8876 
  453300    304.29466   -1167.4443    6433.5704    11766.915    1850.7336 
  453400    298.03701   -1165.5405    6565.3077    11766.871    1879.5467 
  453500    302.87008   -1163.7784    6460.2004    11766.776    1835.5105 
  453600    302.96415   -1155.4962    6449.9965    11766.864    1880.8749 
  453700    303.92763   -1161.7298    6435.6278    11766.845    1903.5341 
  453800    299.84614   -1160.0499    6521.2306    11766.933    1938.8637 
  453900    303.76418   -1162.9271    6440.3118     11766.84    1886.5171 
  454000    302.44507   -1165.3298    6470.9679    11766.913    1846.3301 
  454100    297.62811     -1160.93    6569.5072    11766.945    1908.5677 
  454200    307.82024   -1162.5839    6353.4974    11767.021    1885.6442 
  454300    299.51497   -1156.5125    6524.7936    11766.959    1891.2494 
  454400    302.39535   -1160.8452    6467.5653    11766.933    1892.6032 
  454500    301.45481   -1164.3689    6491.2859    11767.036    1968.2867 
  454600    301.25356   -1161.1104     6492.287    11766.997    1917.3406 
  454700    301.19372    -1157.073    6489.5738    11767.042    1836.0235 
  454800    303.29354   -1165.0923    6452.7596    11767.068      1888.32 
  454900    303.25196   -1155.3622    6443.8132    11766.964    1883.9728 
  455000    302.46128   -1163.3969    6468.8183    11767.042    1925.0344 
  455100    303.36269   -1164.5759     6450.765    11767.067    1968.3327 
  455200    301.83388   -1165.9446    6484.8158    11767.089    1936.0895 
  455300    300.02768   -1160.3212      6517.81     11767.12    1881.4491 
  455400    304.11341   -1165.2006    6435.3414    11767.057    1842.6178 
  455500    301.47566   -1167.2854    6493.7601     11767.04    1873.4005 
  455600    301.12098    -1162.124    6496.1803    11767.044     1841.093 
  455700    303.97862   -1159.1674     6432.206    11767.075    1842.6403 
  455800    301.89777   -1163.4899    6480.9514    11767.044    1883.6265 
  455900    303.39815   -1159.4768    6444.8734    11767.033    1873.7042 
  456000     301.2276   -1166.4469    6498.3043    11767.123    1907.8314 
  456100     303.3577   -1169.1236    6455.4286    11767.077    1930.4837 
  456200    305.66594   -1170.1775    6407.2055    11767.112    1911.5669 
  456300    300.57285   -1166.2188    6512.0123    11767.071    1917.2035 
  456400    302.78071   -1165.6862     6464.271     11767.03    1940.2441 
  456500     298.2214   -1158.4014    6554.4206    11767.062    1882.5856 
  456600    301.98113   -1159.2721    6475.0387     11767.13    1863.8697 
  456700    302.39602   -1164.7269    6471.5278    11767.028    1909.4699 
  456800    303.39597   -1158.7026     6444.252    11767.139    1891.2876 
  456900     302.5092   -1168.1204    6472.5431    11767.068    1826.6723 
  457000    299.74683   -1167.9085     6531.357     11767.08    1867.3835 
  457100    300.64517   -1163.8176    6508.0813    11767.086    1903.5438 
  457200    301.41369   -1167.7499    6495.5878    11767.079    1869.8356 
  457300    301.45449   -1168.6255    6495.5984    11767.085    1903.1586 
  457400    299.76494   -1161.9001    6524.9531    11767.071    1908.8404 
  457500    303.66993   -1166.9693    6446.5185    11766.991    1920.5136 
  457600    304.56663   -1161.7395     6422.169    11767.028    1888.2609 
  457700    300.73423   -1156.7724    6498.9227    11766.876    1898.6137 
  457800    303.16548   -1159.2436    6449.4906    11766.912    1918.9842 
  457900    301.50799    -1157.715     6483.495    11767.036    1919.2388 
  458000    299.57095    -1164.645    6531.8095    11767.038    1902.7557 
  458100    304.36195   -1168.3151    6433.1382    11767.049    1869.1922 
  458200    299.69249   -1167.0148    6531.6363    11767.092    1925.6346 
  458300    299.22885   -1166.5733    6541.1593    11767.151      1904.74 
  458400    303.86128   -1165.2285    6440.7264    11767.028    1922.6542 
  458500    301.64587   -1159.0457    6481.9099    11767.066    1939.1123 
  458600    305.73345   -1158.5132    6393.9583    11766.971    1882.6484 
  458700    298.22581   -1157.1647    6553.0094    11766.982    1945.8643 
  458800    305.10582   -1150.8113    6399.7095    11767.016    1965.3197 
  458900    301.46723   -1159.2615    6485.8375    11766.961    1936.4801 
  459000    302.14764   -1163.7185    6475.8224    11767.025    1902.4606 
  459100     300.5039   -1163.8597    6511.0863    11767.031    1898.3262 
  459200    299.29199   -1173.0846    6546.2493    11767.079    1897.5643 
  459300    303.43189    -1171.618    6456.3772    11767.116    1804.3484 
  459400    303.89018   -1168.0036    6443.0767    11767.221    1837.6381 
  459500    303.68383   -1165.3309    6444.6783    11767.086     1849.356 
  459600    302.35262   -1156.4141    6464.1577    11767.043    1878.4423 
  459700    301.47663   -1150.9763    6477.4475    11767.057    1923.2438 
  459800    304.87262   -1154.1722    6408.1343    11767.098    1959.6779 
  459900    300.07081   -1161.6557    6518.1764    11767.073    1912.4111 
  460000    301.35792   -1165.4896     6494.496    11767.056    1836.7531 
  460100    302.04051   -1169.6855    6484.2231     11767.17    1936.1765 
  460200    302.03363   -1171.6613     6486.399    11767.223    1897.1886 
  460300    301.69999   -1168.3965    6490.1842    11767.145    1850.9316 
  460400     303.2537   -1171.4441    6460.0838     11767.19    1896.4216 
  460500    302.80963   -1161.9201     6460.038    11767.181    1919.4394 
  460600    301.14496     -1158.75    6492.2627    11767.013    1859.7589 
  460700    303.37557   -1164.4504    6450.3286    11767.032    1895.0821 
  460800     304.7441   -1158.9699    6415.6601     11767.08    1906.4584 
  460900    301.81428   -1159.9221    6479.1538    11767.031    1837.4125 
  461000    300.45394   -1161.8081    6510.1871    11767.116    1867.2261 
  461100    301.82247   -1163.5279    6482.6875    11767.134    1838.9259 
  461200    300.12416   -1163.7421    6519.2108    11767.161    1840.8196 
  461300    303.39004   -1167.8237    6453.5038    11767.143    1886.4975 
  461400    299.08557   -1166.7069     6544.363     11767.16    1969.8174 
  461500    302.69202   -1159.0017    6459.4769    11767.026    1890.7833 
  461600    301.69261   -1157.7837    6479.5731    11766.989    1943.2505 
  461700    305.75058   -1160.5838    6395.6042    11766.912    1935.8472 
  461800    301.46262   -1158.1457    6484.8148    11766.956    1960.3721 
  461900    302.95088   -1160.9369    6455.8446    11766.989    1902.0955 
  462000     301.0957   -1166.8158     6501.385    11767.017    1879.9167 
  462100     304.1277   -1165.6112    6435.5055    11767.116    1810.9247 
  462200    299.67416   -1163.2253    6528.2742    11767.128    1870.0864 
  462300    304.75777   -1165.1769    6421.5446     11767.05    1885.7113 
  462400    301.83468   -1161.3647    6480.2833    11767.153    1927.2428 
  462500    302.92337   -1165.8257     6461.427    11767.094    1866.3669 
  462600    298.27132   -1160.9939    6556.0128    11767.128    1915.7581 
  462700    303.68228   -1158.2059    6437.5902     11767.09    1972.3748 
  462800    303.01001   -1157.1267    6450.8572    11767.074    1947.8438 
  462900    304.06063   -1165.3982    6436.7432    11767.134    1907.5495 
  463000    296.87879   -1161.1338    6585.9158    11767.142    1942.0921 
  463100    305.09801   -1166.1534    6415.2379    11767.035    1870.7822 
  463200    299.15443   -1170.8603    6547.0553     11767.17    1818.2138 
  463300    300.73343   -1165.3486    6507.8281    11767.188    1861.1977 
  463400    303.75115   -1170.1928    6448.1267    11767.111    1865.8301 
  463500    302.32895   -1168.4223    6476.7037    11767.076    1866.3268 
  463600    302.79274   -1165.3118    6463.7404    11767.131    1908.6943 
  463700    302.00803    -1159.068    6474.2853    11767.156    1901.3398 
  463800     303.3391   -1160.3968     6447.103    11767.081     1879.263 
  463900    301.08864   -1153.2712    6487.9929    11767.018     1950.091 
  464000    305.67679    -1163.468     6400.283     11767.13    1915.3934 
  464100    301.07161    -1169.507    6504.6897    11767.116    1924.0077 
  464200    301.39076   -1167.3265    6495.6633    11767.088    1937.8383 
  464300    304.46359   -1165.9595     6428.637    11767.075    1886.7259 
  464400    302.70241   -1168.4497    6468.6707    11766.993    1857.8836 
  464500    302.64505   -1163.0846     6464.641    11767.104    1933.8126 
  464600    300.23754   -1159.8131    6512.7055    11767.007    1889.0011 
  464700    303.09382   -1159.7779    6451.6032     11766.96    1828.9167 
  464800    305.97352    -1157.229    6387.5678    11766.994    1875.4008 
  464900    304.15495   -1159.5877    6428.8082    11767.024     1893.406 
  465000    301.91888   -1161.7981    6478.7391    11766.974    1844.4121 
  465100     304.3067   -1161.6082    6427.4363    11766.874    1880.9268 
  465200    302.64564   -1166.9993    6468.4839    11767.044    1943.4462 
  465300    304.88378   -1165.5606    6419.2511    11767.065      1893.48 
  465400    298.61644    -1164.572    6552.1893    11767.099    1887.5766 
  465500    305.26426   -1165.0333    6410.5438    11767.013    1864.5334 
  465600    302.96028   -1162.2756    6457.0447    11767.051    1927.0639 
  465700    301.13908   -1158.9311    6492.6321    11767.075    1931.7934 
  465800    301.05408   -1153.1647    6488.6414    11767.035    1951.4578 
  465900    303.84323   -1158.4715    6434.2806    11766.954    1907.4986 
  466000    301.85019   -1163.2918    6481.7691    11767.043    1954.9797 
  466100    302.59825   -1166.4673    6469.1029    11767.183    1877.0212 
  466200    300.05059   -1169.6733    6526.7842    11767.231    1892.5569 
  466300     305.9574   -1172.7708    6403.6658    11767.205    1821.2311 
  466400    302.94284   -1171.9857    6467.2879    11767.211    1853.8288 
  466500    299.68805   -1166.1246    6530.9444    11767.195     1941.758 
  466600    306.23897   -1165.0525    6389.8433    11767.116    1921.6354 
  466700    301.06415   -1158.9832    6494.3631    11767.154    1929.2987 
  466800    301.74488   -1160.6096    6481.4106    11767.117    1921.9723 
  466900    302.32033   -1162.9629    6471.5156    11767.163    1896.9203 
  467000    302.05044   -1163.6832    6477.9149    11767.076    1866.3678 
  467100    305.71351   -1170.6559    6406.7218    11767.166    1872.0987 
  467200    298.10761   -1166.2069    6564.7723    11767.177    1880.3323 
  467300    304.67615   -1165.8995    6424.0858    11767.125    1836.2184 
  467400    299.70676   -1164.6895    6529.0376    11767.123    1906.4751 
  467500    303.66592   -1160.5928    6440.2583    11767.022    1867.6102 
  467600    303.01316   -1159.5313    6453.1222    11767.002    1908.5856 
  467700    299.79702   -1161.2547    6523.6357    11767.084    1979.8316 
  467800    302.03821   -1159.6221    6474.0257    11766.987    1889.5259 
  467900    304.50372   -1166.7094    6428.4259    11766.971    1955.3063 
  468000    304.34181   -1160.6574    6425.7839    11766.922    1938.1491 
  468100    297.64365     -1164.31    6572.6501     11767.04    1894.2467 
  468200    303.85907   -1164.3064    6439.8192    11766.996    1873.7225 
  468300     302.5783   -1162.8466    6465.7045    11766.979     1877.878 
  468400    302.41387   -1160.3506    6466.7578    11767.015    1870.1236 
  468500    303.33825   -1156.2676    6443.0111      11767.1    1929.2603 
  468600    302.20914   -1157.7155    6468.5065    11767.026    1890.2339 
  468700    302.81446   -1159.3592     6457.142    11766.949    1889.8699 
  468800     303.8996   -1159.2048    6433.8283    11766.972    1898.4031 
  468900    306.22186   -1162.9335    6387.8638    11766.891    1871.5564 
  469000    301.28001   -1156.8588    6487.4267    11766.953    1884.1253 
  469100    301.53027   -1160.1969      6485.46    11766.995    1945.5473 
  469200    303.75653   -1162.5253    6440.2852    11767.052    1923.4066 
  469300     302.1524    -1156.759    6468.7564     11767.02    1833.4833 
  469400    300.48901   -1166.3341    6513.9514    11767.104    1890.8436 
  469500    300.02817   -1163.3554    6520.7643     11767.05    1950.3601 
  469600      301.101   -1163.3725     6497.898    11767.086    1808.7039 
  469700    305.74015   -1158.6863    6394.0801    11767.063    1836.6343 
  469800    301.33205    -1161.177    6490.7211    11767.041    1935.2954 
  469900     300.9488   -1159.1541    6496.9463    11767.102    1887.5097 
  470000    300.50796   -1161.6183    6508.8623    11767.135    1888.3066 
  470100    305.83574   -1162.9414    6396.2915    11767.062    1891.8382 
  470200     300.9264   -1164.6088    6502.8672    11767.089    1889.5463 
  470300    300.96227   -1165.3665    6502.8989     11767.13    1905.7528 
  470400    303.53786    -1168.074      6450.57    11767.117    1863.1551 
  470500    301.14633   -1157.7731    6491.3086    11767.065    1809.5491 
  470600    300.75173   -1165.3219    6507.3112    11767.089    1836.1192 
  470700    303.61911    -1155.832    6436.6004    11767.125    1903.9816 
  470800    301.75873    -1160.401    6480.8648    11767.076     1942.349 
  470900    301.45327   -1162.2301    6489.2208    11767.077    1903.8584 
  471000    300.90365    -1164.611     6503.409    11767.143    1890.8005 
  471100    303.82802    -1161.562    6437.8035    11767.061    1857.3233 
  471200    302.45431   -1163.4347    6468.8718     11766.91    1918.1392 
  471300    304.25997    -1160.811    6427.6539     11766.89    1932.0184 
  471400    301.26905   -1156.9584    6487.7756    11766.968     1913.716 
  471500    304.09255   -1161.4675    6431.9869     11766.99    1890.6733 
  471600    302.07209   -1151.1836    6464.8445    11766.968    1894.4106 
  471700    302.25511   -1162.3331    6472.0765     11766.96    1937.3405 
  471800    300.57019    -1163.177    6508.9221    11766.966     1941.376 
  471900    303.16274   -1159.4057    6449.7538    11766.955     1863.144 
  472000    302.67474   -1164.8141     6465.581    11766.948    1848.8305 
  472100    303.73533   -1165.0806    6443.2058    11766.964    1871.1638 
  472200    299.79156    -1157.278    6519.6836    11766.992    1871.5286 
  472300    300.64904   -1162.8931    6506.9455    11766.958    1907.4015 
  472400    306.74628   -1162.9381    6376.7525    11766.978    1916.5422 
  472500    302.93804    -1160.389    6455.6409    11767.058    1910.9509 
  472600    297.38063   -1162.6497    6576.5457    11766.977    1909.6702 
  472700    304.07474   -1159.1133    6429.9675    11766.944    1891.6481 
  472800    302.12676   -1157.9528    6470.5249    11767.047    1859.4472 
  472900     303.5464   -1162.5666    6444.7761    11767.013    1883.8428 
  473000    303.29546    -1167.061    6454.6526    11767.034    1923.2779 
  473100    299.24487   -1160.0794    6534.1457    11766.974    1868.7338 
  473200    302.24694   -1164.6196    6474.6799    11767.102    1862.8642 
  473300    303.27544   -1165.3316    6453.4434    11767.126    1879.4412 
  473400    299.73901   -1163.7141    6527.3124    11767.062    1906.9339 
  473500    305.69746   -1162.9753    6399.2426    11767.024    1895.4765 
  473600    301.56279   -1162.5861    6487.2123    11767.052    1908.2083 
  473700    302.02482   -1163.4112    6478.1428    11767.029    1797.9846 
  473800    306.06838   -1167.0396    6395.3829    11767.025    1845.4572 
  473900    303.97664   -1162.4804    6435.6204    11767.135    1901.9501 
  474000    306.41173   -1159.4115    6380.4491    11767.054    1853.6136 
  474100    302.43571   -1166.3155    6472.3386    11767.098    1871.1446 
  474200    300.51615   -1163.8074    6510.8425    11767.102     1885.403 
  474300    300.80031   -1159.3714    6500.3234    11767.089    1881.1249 
  474400    303.65465   -1161.6243    6441.5723    11767.064    1897.6929 
  474500    300.91086   -1161.5234    6500.0849     11767.06     1933.036 
  474600    300.34637   -1152.9384    6503.5343    11767.035    1819.0541 
  474700    302.98059   -1159.5122    6453.7778    11766.981    1817.4395 
  474800    303.82802   -1158.2279    6434.4847    11767.076    1900.2627 
  474900    305.41332   -1162.2327    6404.6176    11767.072    1921.5239 
  475000    300.37319   -1163.6917    6513.7833    11767.104    1929.0607 
  475100    300.74521    -1163.357    6505.4169     11767.02    1877.3944 
  475200    300.60524   -1164.0638    6509.1276    11767.033    1831.2767 
  475300    302.94469    -1161.684    6456.7172    11766.982    1811.4149 
  475400    300.90351    -1153.004    6491.6462    11766.984     1862.767 
  475500    299.36042   -1155.1327    6526.6935    11766.937    1936.0474 
  475600    306.58425   -1162.7063    6379.9505    11766.946    1840.9155 
  475700    302.78145   -1159.1821    6457.7025    11766.982      1848.24 
  475800    300.76105   -1167.1923    6508.8678    11766.974    1887.7339 
  475900    300.68162   -1164.8208    6508.2613    11767.042    1898.0138 
  476000    301.36302     -1164.99    6493.8225    11766.991    1847.6181 
  476100    302.44121   -1165.3454    6471.1626     11767.01    1918.4195 
  476200    300.53592   -1159.1013    6505.6149    11767.002    1905.1052 
  476300    301.66265    -1156.864    6479.3232    11767.019    1899.6035 
  476400    302.71004   -1164.8058    6464.8979    11767.028    1919.0122 
  476500    302.88751   -1162.8209    6459.1524    11767.058    1923.7499 
  476600    299.71573   -1166.3867    6530.5279    11767.108     1851.116 
  476700     304.7213   -1165.9022    6423.1608    11767.162    1872.3985 
  476800    302.08127   -1162.8268    6476.4866    11767.163     1902.306 
  476900     303.5592   -1164.9939    6447.0173      11767.1     1825.871 
  477000    302.54025   -1167.9841    6471.8279    11767.152    1858.8824 
  477100    302.60996   -1168.1457    6470.4583     11767.11    1868.6957 
  477200    302.32398    -1168.281    6476.6816    11767.088    1894.6874 
  477300    303.93761   -1163.0284    6436.9985    11767.131    1902.0792 
  477400    304.34959   -1159.7229    6424.8617    11767.101    1951.6915 
  477500    300.47997   -1159.9449    6507.7415     11767.09    1906.2321 
  477600    301.20464   -1161.2964    6493.5335    11767.012    1849.6526 
  477700    305.34232    -1167.727    6411.5715    11767.015     1917.678 
  477800    303.00923    -1163.677    6457.4479    11767.098    1922.5521 
  477900    300.49815   -1164.5792    6511.9828    11767.086    1808.6231 
  478000    299.66889   -1162.1796    6527.2412    11767.028    1878.8257 
  478100    304.70363   -1158.7235    6416.2116    11767.014    1930.2676 
  478200    299.62535   -1160.9249    6526.8488     11766.96    1919.1147 
  478300    300.45178   -1162.0288    6510.3617    11767.024    1860.9487 
  478400    299.02032   -1159.5344    6538.3466    11766.922    1913.5745 
  478500    303.22051   -1164.9003    6453.9416    11766.882    1895.8795 
  478600    301.85535   -1159.2217    6477.5868    11767.042    1904.0716 
  478700    301.65171   -1163.6824    6486.3142    11766.958    1914.4354 
  478800    302.01306   -1159.9929    6474.9296    11766.982    1930.1422 
  478900    299.17795     -1162.99    6538.4469    11766.935    1875.5381 
  479000    300.48519   -1158.6651    6506.2392    11766.979    1911.7829 
  479100    301.27352   -1156.6957     6487.397    11766.948    1927.4808 
  479200    303.44194   -1158.6598    6443.0324    11766.944    1887.3853 
  479300    305.87367    -1158.367    6390.7342    11766.889    1856.6767 
  479400    300.08185   -1163.0891      6519.31    11767.009    1853.1812 
  479500    299.99855   -1165.1507     6523.119    11766.977    1828.6748 
  479600    302.84017   -1167.7797    6465.0787    11767.015    1906.8715 
  479700    300.16477    -1164.167    6518.6655    11767.058    1919.7642 
  479800    307.06005   -1166.3222    6373.5526    11767.097    1875.7675 
  479900    301.97796   -1163.9194    6479.6247    11767.001    1921.7067 
  480000    300.99911   -1161.6048    6498.2733    11767.053    1952.5012 
  480100    303.39566   -1157.0896    6442.4768     11766.97     1914.094 
  480200    302.87532   -1162.7324    6459.2695    11767.004    1926.4644 
  480300    303.30987   -1166.2522     6453.581    11767.079    1896.6545 
  480400    304.09686    -1164.517    6435.0729    11767.119    1832.0781 
  480500    297.35996   -1167.2753    6581.8579    11767.222    1931.7075 
  480600    306.45518   -1168.0821    6388.2096    11767.072    1887.0079 
  480700    302.74258   -1167.9482    6467.3941    11767.077    1900.4732 
  480800    301.47531   -1173.1334    6499.6818    11767.106    1959.0391 
  480900    301.65468   -1171.2808    6493.9744    11767.083    1942.6375 
  481000    304.35827   -1164.5281    6429.3966    11767.016     1873.723 
  481100      300.438   -1167.3944    6516.0503    11767.053    1951.9863 
  481200    303.86595   -1161.2628    6436.6254    11766.992    1991.8939 
  481300    304.22964   -1161.5009    6429.1182    11767.017    2015.2399 
  481400    301.31704   -1166.4415     6496.305     11767.04    1960.1454 
  481500    301.05736   -1159.6233    6495.0639    11767.069    1907.8397 
  481600    302.68695   -1171.3951    6472.0198    11767.067    1909.9993 
  481700    302.03918   -1164.9968    6479.4327    11767.039    1930.9621 
  481800    304.74906   -1169.3103    6425.8366    11767.022    1938.5437 
  481900    302.19073   -1164.8764     6476.228    11767.193    1915.0485 
  482000    301.44748   -1161.8711    6488.9506    11767.042    1935.0749 
  482100    300.67507   -1153.0283    6496.6046    11767.038    1884.6737 
  482200    304.53901    -1162.155    6423.1906    11767.044    1861.7453 
  482300    304.09309   -1165.5233     6436.094    11767.053    1926.3471 
  482400    299.29277   -1164.1034    6537.1962    11767.024    1960.7012 
  482500    304.01481    -1163.661    6435.8495    11766.998    1931.1959 
  482600    302.57941   -1161.8858     6464.807    11767.066    1927.5485 
  482700    302.81443   -1167.8567    6465.7737    11767.083    1894.5798 
  482800     303.8664   -1163.5286    6439.0405    11767.151    1960.8315 
  482900    298.80735   -1163.1372    6546.6088    11767.032    1982.8646 
  483000    303.57944   -1164.9562    6446.5171     11767.07    1931.3963 
  483100    302.91831   -1163.3127    6459.0459    11767.118    1897.7553 
  483200    302.60742   -1161.7105    6464.0544    11767.087     1982.888 
  483300    302.75844   -1161.8667    6460.9411    11767.044    2034.7518 
  483400    304.89573   -1164.3246    6417.7778    11767.083    1935.0955 
  483500    302.71716   -1161.3502    6461.3379    11767.075    1896.4493 
  483600     299.2316   -1159.8537    6534.3392    11767.109    1896.7222 
  483700    300.13593   -1157.5635    6512.6898     11767.07    1927.0402 
  483800    301.81249   -1165.1915     6484.518    11767.087    1978.0474 
  483900    303.71773   -1165.7829     6444.358    11767.038    1919.4499 
  484000    301.90053   -1164.3351    6481.7765    11767.083    1898.5924 
  484100    302.10634   -1167.3394    6480.3224    11767.021    1921.6966 
  484200    303.15031   -1167.8051    6458.4844    11767.021    1914.9916 
  484300    300.81674    -1154.823    6495.4307    11767.096     1901.093 
  484400    306.45883   -1159.7098    6379.7271     11767.04    1921.9695 
  484500    302.36854   -1160.6282    6467.9771    11766.989    1852.5346 
  484600     299.0971   -1159.9392    6537.1959    11767.007    1869.4719 
  484700    305.86008   -1163.2394    6396.0501    11767.042    1899.8565 
  484800    299.35125   -1163.1209     6534.983    11767.042    1968.0796 
  484900    305.14621   -1163.7857    6411.7983    11766.993    1869.8557 
  485000    301.41943   -1166.7654     6494.459    11767.057    1965.0052 
  485100    302.11334   -1159.5999    6472.4562    11767.044    1904.9314 
  485200    303.17837   -1165.3673    6455.5018    11767.075    1833.0502 
  485300    299.57074   -1163.7508    6530.9034    11767.022    1942.8449 
  485400    302.84074   -1156.3982    6453.7479    11767.078    1966.2459 
  485500     301.6931    -1158.854    6480.6388    11766.995    1938.3004 
  485600    302.86656   -1157.9928    6454.6706    11766.957     1884.736 
  485700     300.6011    -1168.003    6513.1669    11767.045    1887.4699 
  485800    306.88297   -1160.2545    6371.2037    11767.033    1785.2565 
  485900    300.41577   -1160.2925    6509.3588    11766.988    1785.1739 
  486000    305.67587   -1164.4558    6401.1373    11766.977    1784.0445 
  486100     302.3186   -1165.1852    6473.6251    11767.013    1905.4228 
  486200    304.20203   -1166.5445    6434.7495    11767.015    1923.8051 
  486300    302.26649   -1162.1644    6471.7746     11767.07    1883.0773 
  486400    297.83092   -1158.5604    6562.8335    11766.974    1940.8468 
  486500    303.27935   -1159.9622    6447.8702    11767.006    1893.1621 
  486600    298.28644   -1161.2164     6555.796    11767.012    1900.9021 
  486700    303.11371   -1161.1313    6452.5974    11767.025    1867.4756 
  486800     302.4191   -1159.5695    6465.8476    11766.998    1823.4293 
  486900    303.29639      -1158.1    6445.5891    11766.951    1824.9938 
  487000    302.74404   -1161.1438    6460.5045    11767.023    1908.3421 
  487100    303.24293   -1153.2787    6441.9706    11767.012    1910.6478 
  487200    304.18593   -1160.9068    6429.4749    11767.034    1902.4411 
  487300    303.00286   -1160.2832    6454.0705    11766.979    1917.1368 
  487400    302.58334   -1161.0032    6463.7699    11766.995    1932.9175 
  487500    304.91729   -1162.2574    6415.0819    11766.915    1845.6457 
  487600    298.78547   -1160.8705    6544.7178    11766.941    1890.5748 
  487700    303.48988    -1161.492    6444.9503    11767.054    1983.3604 
  487800    302.76613   -1162.3539    6461.2088    11766.989     1968.055 
  487900      300.121   -1164.9613    6520.2545    11766.918    1940.5192 
  488000    302.85738   -1161.0952    6458.0351    11767.023    1929.9444 
  488100    304.13939   -1164.8368    6434.3783    11767.013    1898.0133 
  488200    304.10305   -1152.7856    6423.0346    11766.944    1863.5825 
  488300    300.65715   -1159.3362    6503.2435    11766.986    1881.8795 
  488400    301.44958   -1162.5966    6489.6376    11767.049    1872.0671 
  488500    302.95447   -1164.0946    6458.8706    11766.933    1907.2108 
  488600    304.72906   -1163.3786    6420.2275    11766.918    1876.8849 
  488700    300.46658   -1165.7488    6513.7584    11767.017    1909.7679 
  488800     300.0232   -1163.3811    6520.8518    11767.006    1969.5576 
  488900    305.62833    -1164.254    6401.8679    11766.894     1840.602 
  489000    298.56667   -1159.2242    6547.8146    11767.009      1912.98 
  489100    305.51356   -1168.2449    6408.4181    11767.002    1899.9675 
  489200    301.05497   -1167.6324    6503.0579    11767.003    1915.8514 
  489300    300.87673   -1161.4216    6500.6304    11766.979    1892.2223 
  489400    301.60229   -1168.4147    6492.2133    11767.069    1947.6426 
  489500    301.86387   -1167.5652    6485.7536    11767.047    1850.7289 
  489600       300.21   -1162.9823    6516.4557    11766.999    1859.7167 
  489700    304.07795   -1161.6734    6432.4574    11766.943    1966.3118 
  489800    305.80983   -1164.3878    6398.2175    11766.988      1914.31 
  489900    299.58941   -1156.0871    6522.8133    11766.994    1884.7825 
  490000    300.09049   -1156.4331    6512.4287    11766.968    1921.9569 
  490100    302.29008   -1163.5912    6472.5589    11766.931    1948.6295 
  490200    302.23672   -1168.4484     6478.599    11766.974    1892.2316 
  490300    302.33348   -1166.7765    6474.9594    11767.074     1892.954 
  490400    303.34484   -1165.8914    6452.4484    11767.054     1885.085 
  490500    296.86339   -1163.8931    6588.9125     11767.05     1915.126 
  490600     305.3748   -1160.0272     6403.209    11767.046    1895.7725 
  490700    300.54481   -1159.2348    6505.5959     11767.04    1950.6761 
  490800    305.23242   -1161.2862    6407.4734     11767.01    1873.9733 
  490900    299.99137   -1161.5612    6519.8257     11767.12    1955.7888 
  491000    303.87239   -1159.5416     6434.852    11767.078    1930.5727 
  491100    304.08218   -1166.5475    6437.3798    11767.082    1912.0862 
  491200    300.29878   -1160.7747    6512.4895    11767.137    1906.5078 
  491300    300.10199   -1167.5047    6523.4124    11767.126    1961.0106 
  491400    304.44524   -1164.5571    6427.5893    11767.038    1890.5447 
  491500    300.57625   -1164.4734    6510.1595    11767.036    1904.6964 
  491600    301.59357   -1160.7252    6484.6586    11767.017    1976.8388 
  491700    303.37006   -1165.8125    6451.7272    11766.951    1889.8588 
  491800    305.08477   -1163.6548    6412.9806    11766.994    1875.5499 
  491900    305.06736   -1165.7329    6415.4747    11767.038    1921.7091 
  492000    299.70967   -1164.3851    6528.5322    11766.984    1910.2936 
  492100    301.00728   -1166.1745    6502.5875    11766.972    1847.8411 
  492200    302.83175   -1168.9343     6466.434    11767.035    1952.3289 
  492300    300.82622    -1167.106    6507.3985    11766.983    1868.1452 
  492400    303.31212   -1164.5132    6451.6554     11766.94    1925.8832 
  492500    298.73438   -1160.4672    6545.4338    11766.968    2073.9068 
  492600    303.64663   -1160.3725    6440.3225    11766.894    1961.0619 
  492700    300.77105    -1162.533    6503.8943    11766.873    1968.9044 
  492800    304.22855   -1155.3321     6422.823    11766.867    1931.4445 
  492900    301.96866   -1154.9748    6470.8467    11766.969    1913.3637 
  493000    305.66405   -1161.6918    6398.5828    11766.934    1847.9941 
  493100    300.63719   -1165.1287    6509.4651    11766.989    1926.7297 
  493200    303.74825   -1165.7802    6443.6878    11767.023     1902.784 
  493300    299.50646   -1159.2471    6527.8328    11767.082    1947.7824 
  493400    303.26785   -1158.7742    6446.9832    11767.061    1931.3905 
  493500    304.25029   -1158.3083    6425.4097    11766.942    1922.6622 
  493600    300.34034   -1154.3392    6504.9141    11766.886    1912.8193 
  493700     300.5267   -1161.9417    6508.6178    11766.968    1946.5593 
  493800    303.83125   -1158.9404    6435.0227    11766.971    1873.5919 
  493900    303.62292   -1156.5084    6437.1433    11767.073    1936.8337 
  494000    303.34328   -1165.5975    6452.0853    11766.952    1959.6446 
  494100    298.40558   -1167.5845    6559.6685    11767.061    1937.8926 
  494200    301.15052   -1169.8846     6503.329    11767.063    1879.4711 
  494300    301.05739   -1169.5878    6504.9959    11767.037    1896.3413 
  494400    304.42374   -1165.8369    6429.2783    11766.987    1899.2377 
  494500    302.25936   -1155.7504    6465.5053    11767.062    1978.1362 
  494600    301.80406   -1157.1878    6476.6103    11767.003    1956.0283 
  494700     304.5807   -1160.1194    6420.2062    11766.986    1962.3267 
  494800    302.57106   -1161.2402    6464.3403    11767.067    1976.6182 
  494900    299.82765   -1158.2973    6520.0334    11767.094    1910.5115 
  495000    300.66788   -1168.2218    6511.9602    11767.046    1928.0597 
  495100    306.20915   -1165.3806    6390.8232    11767.131    1970.8419 
  495200    298.93089   -1169.8838    6550.7689    11767.085    1932.4364 
  495300    305.90159   -1167.5368    6399.4554    11767.037    1886.3191 
  495400    297.82585   -1163.2626    6567.6358    11766.966    1982.3732 
  495500    304.24016   -1160.2061    6427.5622     11766.98    1938.3391 
  495600    304.48064   -1163.1455    6425.3745    11766.991    1944.4471 
  495700    302.09517   -1162.4402    6475.6686    11767.028    1935.6342 
  495800    303.33654    -1157.293    6443.9549    11766.982    1959.7793 
  495900    301.40599   -1162.5339    6490.4987    11767.041    1926.3461 
  496000    303.29152   -1158.1765    6445.7904    11766.972    1905.8657 
  496100    302.35109    -1162.727    6470.4093    11766.949    1929.8422 
  496200    301.97257   -1161.6479    6477.4816    11767.014    1880.7294 
  496300     305.7341    -1167.539     6402.942    11766.943    1904.5172 
  496400    297.53676    -1161.286    6571.8299     11766.96    2023.6192 
  496500    302.75949   -1163.5544    6462.6002    11767.038    1909.8469 
  496600    300.25903   -1155.5227    6508.0149    11767.066    1906.7978 
  496700    302.73425   -1149.7749    6449.3488    11767.027    1947.2304 
  496800    304.26968   -1157.8254    6424.5384    11766.968    1931.1818 
  496900    300.43723   -1159.4971    6508.0887    11766.972    1940.8742 
  497000    300.66306   -1166.3914    6510.2564     11767.07    1974.8197 
  497100    304.53278    -1166.349    6427.5649    11767.091    1965.2009 
  497200    298.53198   -1163.7785    6553.2102    11767.109    1901.9617 
  497300    305.16685   -1163.5147    6411.2147    11767.121    1896.2732 
  497400    300.39397   -1162.0504    6511.7228    11767.129    2020.6584 
  497500    306.20166   -1162.2854    6387.8042    11767.048    1948.8134 
  497600    302.72926   -1165.6682    6465.4908    11767.169    1989.1669 
  497700    298.59938   -1164.0786     6552.111     11767.15    2025.8796 
  497800    303.40878   -1170.4321    6455.6893     11767.12    1924.9308 
  497900    301.49982     -1171.59     6497.719     11767.21    1942.2516 
  498000    301.84322   -1168.6576    6487.4393    11767.199    1909.8507 
  498100    302.64479   -1169.5438    6471.2076    11767.205    1923.6854 
  498200    300.66595   -1165.7919    6509.7313    11767.206    1952.5485 
  498300    301.98769   -1166.8104    6482.5249    11767.218    1901.0127 
  498400    303.37235   -1169.6416    6455.6858    11767.129    1906.7386 
  498500    301.39764   -1163.3581    6491.6574    11767.197    1930.0918 
  498600    301.01298   -1166.8674    6503.3481    11767.161    1914.8622 
  498700    300.81848   -1165.7018    6506.2827    11767.106    2035.3557 
  498800    307.71183   -1164.9057    6358.0931    11766.978    1959.9266 
  498900    300.28632   -1162.0496    6513.9168    11767.024    1981.8681 
  499000    304.37645   -1169.3449    6433.8732    11767.064    1921.1215 
  499100    303.16889   -1167.6571    6458.0145    11767.096      1915.28 
  499200    298.41765   -1168.4478     6560.257    11767.044    1947.3468 
  499300    300.93899   -1164.0912    6502.0032    11767.012    1934.4896 
  499400    302.31895   -1165.9314     6474.453    11767.102    1921.5486 
  499500    301.44775   -1158.4587    6485.4951    11767.005    1877.5575 
  499600    301.37266   -1159.3699     6487.985     11766.98    1971.4028 
  499700    299.89854   -1152.6905    6512.7964    11766.978    1955.5715 
  499800    301.39324   -1158.3863    6486.4286    11766.846    1981.2262 
  499900    302.25075   -1160.6798    6470.3835    11766.827    2002.4472 
  500000    302.06869   -1159.4607    6473.1778    11766.951    1961.5276 
  500100    299.85691    -1158.834    6519.8226    11766.971    1946.8665 
  500200    303.52423   -1161.0727    6443.6141    11766.871    1886.8292 
  500300    301.12946   -1162.5721    6496.3409    11766.938     1970.236 
  500400    303.28269   -1170.9615    6458.7999    11767.008      1861.18 
  500500    299.98731   -1165.1551    6523.3907    11767.004      1867.81 
  500600    299.30494   -1160.6506    6533.5341    11767.074    1898.1506 
  500700    303.01412    -1165.524    6459.0415    11766.949    1879.7384 
  500800    299.79783   -1163.4001    6525.7167    11767.037      1981.24 
  500900    302.12872   -1162.3397    6475.0187    11767.196    1997.4627 
  501000    301.22358     -1161.85    6493.7117    11767.041    1960.7637 
  501100    301.65104   -1167.3697    6490.2444    11767.186    1915.2197 
  501200    302.23399   -1166.3392    6476.7668    11767.193    1923.7207 
  501300    303.79483   -1170.3551    6447.4442    11767.199     1896.633 
  501400    301.01015   -1170.3464    6506.8836    11767.157    1923.0434 
  501500    304.00248   -1166.2889    6438.9798    11767.238    1929.2863 
  501600    303.20834   -1169.2668    6458.9535    11767.268    1931.7349 
  501700    300.88361   -1171.5168    6510.7553    11767.155     1995.466 
  501800    302.73676   -1162.2541    6461.7899    11767.042    1926.2233 
  501900    300.27534   -1162.8743    6515.0813    11767.129    1962.1539 
  502000    307.37081   -1166.3907    6367.0086    11767.124    1907.1272 
  502100    299.85867    -1169.185    6530.3118    11767.147     1955.993 
  502200    304.52463   -1169.6797    6431.0288     11767.05    1922.2858 
  502300    300.12327   -1164.1637    6519.5589    11767.068    1940.3144 
  502400    302.02172   -1166.2285    6481.1321    11767.134    1938.4926 
  502500    301.81575   -1166.2727    6485.4241    11766.982    1920.7972 
  502600    301.65114   -1161.3259    6483.8839    11766.872    1920.6798 
  502700    299.05888   -1159.3509    6537.2938    11766.877    1963.2564 
  502800    306.00223   -1157.0389    6386.6498    11766.879      1865.62 
  502900    299.27754   -1161.5447      6534.84    11766.901     1879.982 
  503000    300.80006   -1158.7185    6499.4249    11766.838    1891.0387 
  503100     301.7615   -1160.8493    6481.0609    11766.883      1922.06 
  503200    305.38648   -1160.4501    6403.2243    11766.888     1934.481 
  503300    299.49005    -1155.263    6523.9911    11766.874    1926.9595 
  503400    303.89569   -1156.4451     6431.124    11766.944    1941.5145 
  503500    301.53869   -1157.4701    6482.6136    11767.055    1998.7855 
  503600    301.63029    -1160.933    6484.0746     11767.01    1964.9519 
  503700    301.08339   -1160.4146    6495.1865    11766.957    1958.4045 
  503800     303.2312   -1162.3897    6451.2817    11766.961     1987.438 
  503900    300.46939   -1159.6095    6507.6666    11767.125    1986.6433 
  504000    304.08467   -1165.5706    6436.2362    11766.968    1856.1156 
  504100     301.9553   -1163.4957    6479.7899    11767.106    1915.8869 
  504200     300.2552   -1168.0834    6520.7328    11767.141    1966.0678 
  504300    303.51789   -1166.6739    6449.6701     11767.19    1934.0702 
  504400    301.27764   -1164.9137    6495.7311    11767.152    1890.7157 
  504500    299.90483   -1166.1471    6526.3286    11767.188    1956.3195 
  504600    303.32272   -1164.7582     6451.999    11767.265    1927.2622 
  504700    303.64937   -1168.4865     6448.736    11767.252    1932.5968 
  504800    301.14096   -1166.4288    6500.2237    11767.209    1904.2306 
  504900    301.63215   -1166.9307    6490.3463    11767.324    1942.8842 
  505000    303.01632   -1171.1278    6464.9751    11767.326    1940.8186 
  505100    302.89786   -1173.5219    6469.7447    11767.171    1921.6578 
  505200    301.24363   -1162.5657    6494.2016    11767.244    1969.1797 
  505300    306.24384   -1165.3119    6390.0803    11767.198    1887.3941 
  505400    302.20269   -1158.8444     6469.851    11767.103    1867.0758 
  505500    302.19144   -1164.8327    6476.0835    11767.107    1900.2258 
  505600    305.70857    -1164.401    6400.5073    11767.101    1919.1758 
  505700    298.80145   -1161.1644    6544.8224    11767.092    1951.7387 
  505800    301.89938   -1160.8625    6478.2861    11767.041    1897.7037 
  505900    300.18059   -1161.3812    6515.4275    11766.944    1890.1604 
  506000    301.36579   -1161.6694     6490.431    11766.979    1906.1105 
  506100    305.36185     -1156.06    6399.3916    11766.919    1922.1628 
  506200    298.06409   -1157.2186    6556.3753    11766.839    1926.4582 
  506300    301.03325   -1155.5672    6491.2308    11766.777    1912.8518 
  506400    303.51785   -1154.7622    6437.4255    11766.857    1928.6846 
  506500    297.71426   -1157.3378    6563.9649    11766.836    1967.4036 
  506600    304.30801    -1154.355    6420.1278    11766.846    1922.5849 
  506700    301.05601    -1156.169    6491.4699    11766.901    1954.0889 
  506800    305.46484   -1158.9526    6399.9851     11766.82    1933.0521 
  506900    297.78977   -1158.9461    6564.0659    11766.941    1921.2058 
  507000    303.36738   -1157.9797    6443.9453    11766.944    1903.7332 
  507100    299.76977   -1160.4916    6523.4121    11767.042    1956.6316 
  507200    303.44119   -1162.6239    6447.0769    11767.008    1899.6932 
  507300    300.11116   -1158.2747    6513.9317    11767.071    1890.1282 
  507400     303.3795   -1165.0942    6450.9218    11767.065     1889.199 
  507500    305.97005   -1170.1859    6400.7347    11767.129    1875.0679 
  507600    300.72912    -1159.912    6502.4375    11767.142     1813.697 
  507700    303.29711   -1165.7935    6453.5765     11767.26    1888.7137 
  507800    301.38822   -1177.2358    6505.7418    11767.203    1951.6421 
  507900    304.75392   -1172.8669     6429.539    11767.272    1930.7364 
  508000    303.19367   -1166.7564    6456.8589     11767.37    1945.8184 
  508100    299.55535   -1167.8869    6535.6523    11767.306    1902.3733 
  508200    305.66545   -1167.1178    6404.3343     11767.29    1875.5022 
  508300    301.30957    -1175.549    6505.9604    11767.428    1903.9399 
  508400    301.81297   -1172.0507    6491.5917    11767.312    1930.8804 
  508500    305.90835   -1164.2107    6396.2186     11767.27    1922.9001 
  508600    301.21425   -1169.7802    6501.8956    11767.096    1923.1704 
  508700    302.87113   -1163.6559    6460.4937    11767.215    1888.6058 
  508800    303.91454   -1168.4416     6442.872    11767.098    1947.9944 
  508900    303.48404   -1164.1195    6447.6942    11767.046    2002.5758 
  509000    302.35697   -1165.3188    6472.9806    11767.055    1930.6427 
  509100    300.85553   -1161.4395    6501.1401    11767.018    1920.2803 
  509200    301.31049   -1158.3079    6488.1525    11766.881     1910.736 
  509300    304.52893   -1157.8787    6418.9692    11766.884    1882.2087 
  509400    301.82009   -1157.8224     6476.872    11766.973    1913.3029 
  509500    300.20419   -1155.5736    6509.0334    11766.862    1922.7415 
  509600     300.2274   -1154.0768     6507.024    11766.845     1898.929 
  509700     305.5094   -1151.9986    6392.0409    11766.782    1920.3275 
  509800    299.66699   -1151.3615    6516.2695    11766.833    1937.7472 
  509900     305.4811   -1153.4425    6394.0307    11766.723    1924.9497 
  510000    300.01264   -1156.4564    6513.9388    11766.792    1938.3269 
  510100    304.38448   -1160.9065    6425.0223    11766.823    1890.2577 
  510200    302.50753   -1157.3379    6461.5369    11766.808    1879.9885 
  510300    302.44715   -1165.7128    6471.2187    11766.825    1816.6372 
  510400    302.31517   -1163.7642    6472.1741     11766.91    1872.2642 
  510500    305.53775   -1163.2253    6402.8049    11766.925     1892.761 
  510600    301.55409   -1158.5462    6483.2371    11766.931    1890.4861 
  510700    302.48081   -1158.5357     6463.541    11767.044    1881.0752 
  510800    298.66525   -1160.8879    6547.4629      11767.1    1905.2916 
  510900    302.88824   -1167.9876     6464.328    11767.083    1901.0738 
  511000    304.49624   -1168.6283     6430.701    11767.168    1879.3828 
  511100     301.7841   -1169.5464    6489.5394    11767.147    1868.2385 
  511200    301.74568   -1172.8497     6493.611    11767.095    1916.9414 
  511300    303.39764   -1170.6352    6456.1026    11767.092    1892.7319 
  511400    304.34522   -1169.9208     6435.167    11767.115    1916.5371 
  511500    303.68862   -1164.7758    6444.1141     11767.18    1983.3183 
  511600    302.75168   -1163.7469    6463.0695    11767.148     1988.161 
  511700     300.7602   -1161.8814    6503.7955    11767.194    1956.8583 
  511800    301.59961   -1164.8887    6488.7684    11767.093     2031.047 
  511900    304.12379   -1162.9738    6432.9218    11767.086    1989.3937 
  512000    303.38243   -1160.2419    6446.0249    11767.083     1906.213 
  512100    300.97957    -1161.683    6498.8166      11767.1    1914.8757 
  512200     305.0037   -1163.5199    6414.6673    11767.083    1910.9271 
  512300    301.73463   -1156.0038    6476.8877    11766.981    1921.8237 
  512400    303.33731    -1161.498    6448.1245    11766.963    1852.0189 
  512500     299.3341   -1155.6243    6527.7075    11766.897    1947.7965 
  512600    300.58341   -1157.6061      6502.92    11766.817    1884.7227 
  512700    299.45921   -1152.7261    6521.9545    11766.715    1931.0802 
  512800    304.45889   -1156.4612    6418.8971    11766.733    1974.2405 
  512900    302.60916   -1149.1105    6451.1141    11766.784    1903.2313 
  513000    299.71555   -1147.2534    6510.9895    11766.699     1920.972 
  513100     302.3797   -1155.5491    6462.3996    11766.729    1896.7203 
  513200    302.78177   -1156.1217    6454.4135     11766.76    1861.2759 
  513300    305.48367   -1158.2996    6399.0058    11766.896    1884.5531 
  513400    301.77776   -1161.6602    6481.5321    11766.891    1901.4241 
  513500    300.35198   -1156.8791    6507.2197      11766.9    1828.7191 
  513600    299.62359    -1163.829    6529.8405     11767.01    1844.3504 
  513700    307.27359   -1159.6034    6362.2127    11767.038    1859.4355 
  513800    298.98836   -1166.1213    6545.8217    11767.128    1972.8897 
  513900    303.76179   -1159.2313    6436.9113    11767.085    1904.9703 
  514000    298.57313    -1161.514    6550.1117    11767.154    1925.1624 
  514100    306.96231   -1165.4611    6374.8459    11767.164    1903.7824 
  514200    302.57976   -1162.2033    6465.2127    11767.162    1964.5999 
  514300    300.37637   -1166.1329    6516.3471    11767.294    1981.9075 
  514400    303.96526   -1168.4039    6441.7858    11767.133    1873.3261 
  514500    303.69759   -1169.3366    6448.4334     11767.13    1889.8723 
  514600    302.19998   -1171.6025    6482.7683    11767.205    1858.7687 
  514700    301.28076   -1166.4525    6497.2362    11767.185    1913.2422 
  514800    305.79101   -1166.2806    6400.6934    11767.168    1951.8853 
  514900    304.62959   -1165.1225    6424.2793      11767.1    2011.2399 
  515000    301.42389   -1163.7995    6491.4517    11767.111    1924.6213 
  515100    304.27532   -1165.9436     6432.606    11767.038    1877.3359 
  515200    304.27864   -1165.8298    6432.3454    11766.962    1922.4101 
  515300    303.97126   -1162.5076    6435.5899    11766.962    1925.1721 
  515400    299.35588   -1163.7445     6535.302    11766.836    1914.2166 
  515500    301.95213   -1161.1433    6477.2844    11766.885    1898.0143 
  515600    304.10289   -1154.7535    6424.8151    11766.753    1943.5305 
  515700    300.60049   -1155.7492    6500.6241    11766.743    1949.6619 
  515800    304.52476   -1159.7504    6420.7659     11766.72    1896.5114 
  515900    300.36252   -1154.5942    6504.6403     11766.83    1936.5616 
  516000    299.76616   -1152.3874    6515.0914    11766.748    1928.6869 
  516100    303.29532   -1148.7475    6435.9572    11766.649    1937.3032 
  516200    302.88309   -1153.8101    6449.8465    11766.669     1969.079 
  516300    299.37138   -1152.5735    6523.6687    11766.705    1937.8794 
  516400    299.39956   -1149.9285     6520.458    11766.742    1896.0236 
  516500    302.43425    -1157.956    6463.6755    11766.763    1968.7066 
  516600    303.07023   -1154.1709    6446.3061    11766.766    1932.2982 
  516700    298.41422   -1152.6791    6544.3557    11766.838    1899.8764 
  516800     307.5384   -1158.3688    6355.0033    11766.721    1883.5022 
  516900    299.28108   -1153.9048    6527.0811    11766.857    1956.4026 
  517000    300.35176   -1158.6321    6508.9376     11766.86    1960.6777 
  517100    306.37346    -1161.158    6382.8549    11766.896    1922.6021 
  517200    298.84689   -1158.6625    6541.1956    11766.938    1955.7416 
  517300    303.56136   -1168.9296    6450.8459    11767.039    1950.6735 
  517400    303.42327    -1166.163    6451.0114    11767.021    1932.4494 
  517500    300.49694   -1166.9049    6514.3837    11767.135    1920.8562 
  517600    303.41121   -1175.2027    6460.4349    11767.147     1998.952 
  517700    303.41002   -1171.6007      6456.92    11767.209    1909.5755 
  517800    301.79081    -1168.277    6488.1799      11767.2    1931.0245 
  517900    302.41963   -1172.9338    6479.4913    11767.289    1915.2547 
  518000     299.6684   -1165.3296    6530.6763    11767.302    1915.9087 
  518100     303.2828    -1160.732    6448.8272    11767.267    1903.5786 
  518200    306.98715   -1165.5388    6374.5446    11767.315    1912.2859 
  518300    302.35436    -1163.371    6471.2168    11767.183    1953.7142 
  518400    305.20276   -1171.9182    6418.9829    11767.254    1912.9609 
  518500    299.34617    -1164.773    6536.8869    11767.185    1921.8156 
  518600    301.94189   -1168.8135    6485.5319    11767.244    1979.3958 
  518700    303.48881   -1164.1105    6447.6189    11767.081    1921.1929 
  518800    302.69626   -1167.7581    6468.1394    11767.022    1893.9605 
  518900    302.70999   -1157.6918    6457.6957    11766.938    1927.3898 
  519000    300.72928   -1163.6196    6505.9718    11766.972    1958.9793 
  519100     304.2041   -1160.8693    6428.9952     11766.98    1855.7341 
  519200    300.90008   -1155.0352    6493.6043    11766.838    1878.4839 
  519300    302.82464    -1156.089    6453.5384    11766.833     1960.677 
  519400    301.52096   -1156.9251    6482.1292    11766.737    1880.2829 
  519500    299.48083   -1152.5344    6521.3729    11766.787    1852.0217 
  519600    299.33979   -1152.3955    6524.2184    11766.758    1849.9845 
  519700    300.62918   -1156.0989    6500.3923    11766.775    1812.1357 
  519800    298.92686   -1153.3873    6534.0442    11766.771    1903.3946 
  519900    303.64943   -1158.2125    6437.9396    11766.731    1930.3978 
  520000    299.22275   -1160.5693    6534.8354    11766.701    1865.0084 
  520100    299.53688   -1157.2173    6524.8341    11766.762    1833.3584 
  520200    303.17827   -1155.2529    6445.0407    11766.726    1878.2778 
  520300    299.44016   -1155.9806    6525.6848    11766.784    1931.5296 
  520400    303.26194   -1158.3381    6446.3111    11766.699    1929.5564 
  520500    299.76466   -1153.0899    6515.7923    11766.715    2006.3265 
  520600    303.61363   -1158.5521    6439.1629     11766.85    1904.5453 
  520700    299.50092   -1162.5537     6531.082    11766.906    1941.9782 
  520800    300.04663   -1161.4383    6518.2863    11766.884    1937.7838 
  520900    304.17913   -1162.1141    6430.6591    11766.865    1864.2332 
  521000    301.70393   -1167.8528    6489.3982    11766.987    1889.6447 
  521100    302.68646   -1166.0832     6466.679    11767.028    1941.3662 
  521200    300.54166   -1159.4042    6505.7594    11766.967    1911.1577 
  521300    303.08225   -1164.3328    6456.3942    11766.949    1924.2305 
  521400    300.96164   -1154.4115    6491.8307    11767.003    1977.9627 
  521500    303.37703   -1160.7233    6446.5037    11766.965    1920.7643 
  521600    300.03879   -1159.5008    6516.5686    11766.936    1950.3691 
  521700    299.28003   -1162.6779    6536.0021    11766.983    1988.9202 
  521800    306.16616   -1170.7537    6396.9965    11767.013    1880.7393 
  521900    300.34623   -1169.1754    6519.6372    11766.898    1952.7822 
  522000    302.64235   -1171.9284    6473.3666    11766.928    1884.0472 
  522100    298.35922    -1162.701    6555.6982    11766.984    1899.9651 
  522200    303.11778   -1161.1344    6452.4813    11766.993    1937.9631 
  522300    302.39873   -1161.0153     6467.667    11766.937    1968.2949 
  522400     302.8061     -1155.83    6453.6906    11766.848     1958.624 
  522500    302.84183   -1154.1981    6451.4403    11766.993    1953.6698 
  522600    302.61522    -1157.654    6459.7396    11766.995    1898.6552 
  522700    297.13544   -1158.2069    6577.3165    11766.952    1908.7267 
  522800     303.5858   -1168.0124    6449.3861    11767.018    1895.6451 
  522900     301.9473   -1162.7573    6479.1987    11767.082    1925.6084 
  523000    307.04315   -1165.5586    6373.0966    11767.044    1914.3638 
  523100    298.21359   -1160.6783    6556.7114    11766.909    1891.0097 
  523200    302.75089   -1162.4406    6461.6338    11767.001    1899.6721 
  523300    307.29395   -1150.3709    6352.4382    11766.931    1973.7129 
  523400    299.17279   -1156.0309    6531.6159    11766.953    2012.8744 
  523500    302.23812   -1162.3042    6472.3686    11766.918    1937.4575 
  523600    302.62966   -1160.9361    6462.6493    11766.932    1928.3721 
  523700     300.0154   -1165.6424    6523.2547    11766.981    1918.4053 
  523800    298.25357   -1167.2965    6562.5265     11766.96    1905.2177 
  523900    302.10743   -1164.7353    6477.7127    11767.039    1883.3106 
  524000    301.45946   -1164.1701    6490.9087    11766.957    1861.3049 
  524100    302.87709   -1161.0517    6457.4954    11766.948    1841.2525 
  524200     302.5853   -1159.5924    6462.1455    11766.824    1857.9707 
  524300    301.95888   -1155.3805    6471.4448    11766.953    1956.7215 
  524400    302.58905   -1164.5654    6467.1563    11766.942    1987.6963 
  524500    307.54268   -1165.3015    6362.0276    11766.904    1911.3291 
  524600    300.48266   -1163.8002    6511.3157    11766.866     1925.699 
  524700    300.59317   -1160.5907    6505.7635    11766.885    1866.7767 
  524800    302.76537   -1164.8747    6463.6122    11766.855    1891.3051 
  524900    303.03544   -1161.3047    6454.2864    11766.869     1886.896 
  525000    299.54169   -1156.7266    6524.3221    11766.844    1918.8229 
  525100    302.26451   -1166.0898    6475.5593    11766.887    1970.5483 
  525200      302.323   -1159.6716    6467.8782    11766.874    1992.9707 
  525300    300.15392   -1152.5821    6507.0847    11766.831     1891.342 
  525400    297.89546   -1158.9628    6561.7607    11766.877    1963.1028 
  525500    305.22997   -1163.3023    6409.5022     11766.97    1888.5824 
  525600    303.95873   -1156.2186    6429.5806    11766.974    1874.8093 
  525700    302.07948   -1158.4429     6471.846    11766.868      1965.17 
  525800    300.57899   -1159.5873    6505.1128    11766.934    1960.6963 
  525900    306.52835   -1158.4394    6376.9052    11766.974    1841.2362 
  526000    298.75833   -1158.2912    6542.7362    11766.958    1935.2163 
  526100    300.84834   -1163.3053    6502.9936    11766.851    1889.4261 
  526200    303.97339   -1163.3208    6436.2918    11766.896    1848.9766 
  526300     303.0672   -1160.8648    6453.3268    11767.028    1904.7006 
  526400    305.62628   -1164.5263    6402.2721    11766.982    1852.1404 
  526500    301.57519   -1159.4659     6483.799    11767.024    1870.1488 
  526600    302.85352   -1163.1174    6460.1554    11767.039    1952.0564 
  526700    302.30141   -1164.5353    6473.3545    11767.025    1938.0418 
  526800    301.15382   -1161.4675    6494.7549    11766.977    1934.2624 
  526900    301.81537   -1163.7481    6482.9914    11767.066    1912.7427 
  527000    305.88506   -1165.1568    6397.4584    11767.067    1891.6112 
  527100    302.48883   -1163.3569    6468.2155    11767.069    1928.1759 
  527200    303.20735   -1163.3409    6452.8793    11767.098    1912.5166 
  527300    301.29642   -1169.4775    6499.8513    11767.109    1897.8575 
  527400    303.72843   -1168.7503    6447.1019    11767.044     1868.454 
  527500    299.87754   -1167.3927    6528.0467    11767.077    1923.3872 
  527600    305.07187   -1167.1582    6416.8601    11767.094    1862.2437 
  527700    298.97587   -1159.9307    6539.8628    11767.093    1931.1934 
  527800    306.50762   -1170.5976    6389.5196    11766.987    1917.4063 
  527900    299.24539   -1158.9934     6533.093    11767.018    1952.0743 
  528000    301.30385    -1157.734    6487.8447    11767.005    1924.2174 
  528100    301.38672   -1164.1663    6492.5927    11767.091    1918.5399 
  528200    301.57256   -1163.7872    6488.1667    11767.014    1948.0337 
  528300    303.69227   -1164.2576    6443.2911    11766.953    1897.4676 
  528400     297.5108   -1165.4929    6576.5994    11766.968    1859.4331 
  528500    301.92506   -1166.2757    6483.1113    11767.001    1904.6254 
  528600     307.1959   -1163.2474    6367.4121    11766.934    1844.7789 
  528700    302.12849    -1156.884    6469.2465    11766.874    1871.3949 
  528800    301.64273    -1159.266     6482.131    11766.999     1924.846 
  528900    306.25387   -1160.6278    6384.8832      11766.9     1937.589 
  529000    302.15781   -1155.1811    6466.9377    11766.895    1942.4783 
  529100    301.23217   -1153.2834     6484.839    11766.919    1840.0792 
  529200     299.2925   -1155.7879    6528.9183    11767.055    1944.9462 
  529300     303.9663   -1165.0699    6438.2574    11766.961    1939.1019 
  529400    303.59723   -1158.8727    6439.9018    11766.918     1938.223 
  529500    300.64604   -1157.1193    6501.3026    11767.025    1965.7661 
  529600    300.09529   -1165.7265    6521.6939    11767.043     1921.803 
  529700    303.64106   -1164.8371    6445.0422     11767.03    1841.4521 
  529800    301.60164   -1160.8531    6484.6603    11767.063    1861.1097 
  529900    302.89531   -1157.4596    6453.7906    11767.225    1924.9663 
  530000    300.64297      -1162.9    6507.2695    11767.145    1896.8116 
  530100    301.95009   -1159.2755    6475.6921    11767.117     1898.794 
  530200    302.72675   -1163.9257    6463.6956    11767.062    1937.5132 
  530300    302.27825    -1157.918    6467.3157    11767.109    1875.6306 
  530400    303.70162   -1171.3336    6450.3261    11767.112      1879.58 
  530500    300.10028   -1165.4854    6521.4621    11767.159    1943.0703 
  530600    304.78885   -1168.2749     6424.031    11767.102    1898.3565 
  530700    300.27382   -1165.9962    6518.2881    11767.181    1947.5647 
  530800    300.89281   -1162.2965    6501.3132     11767.13    1961.2532 
  530900    302.70088   -1159.7629    6460.1005    11767.077    1959.2071 
  531000    304.83761   -1159.6519    6414.2455    11766.981       1935.6 
  531100    299.23751   -1165.7708    6540.1579    11767.137    1969.4901 
  531200    304.21107   -1168.6202    6436.7012    11767.084    1899.4083 
  531300    303.53924   -1156.8495    6439.2034    11767.004    1951.1158 
  531400    303.76778    -1165.006    6442.4259    11766.953    1968.9929 
  531500    297.61967   -1162.5219    6571.2868    11766.952    1908.9557 
  531600    302.45103   -1160.7231    6466.2642    11766.943    1906.2291 
  531700    300.58603   -1159.4015    6504.6972    11766.855    2031.2678 
  531800    304.68343   -1162.2124    6419.9761    11766.858    1921.6006 
  531900    300.42748   -1160.9912    6509.6348    11766.816    1913.9993 
  532000    303.59753   -1154.0688    6434.9956    11766.822    1884.6213 
  532100    299.96344   -1161.6175    6520.2227    11766.864    1910.6937 
  532200    304.86379   -1159.6141    6413.4935    11766.826    1895.8418 
  532300    300.30738   -1159.7399     6511.016    11766.882    1939.1814 
  532400    301.05545   -1155.3849    6490.6372     11766.84    1911.4154 
  532500    301.85196   -1158.0396    6476.2674    11766.832    1925.6197 
  532600    299.00267   -1155.6852    6534.7992    11766.847    1998.5854 
  532700    303.39591   -1157.1241    6442.4222    11766.886     2005.346 
  532800    301.05368   -1154.0012    6489.3644    11766.913    1958.2579 
  532900    302.53984   -1159.8168    6463.4361    11766.919    1934.5618 
  533000    300.51529   -1159.4622    6506.4265    11767.012    1975.7195 
  533100    303.66904   -1161.7467    6441.3273    11767.004    1941.2671 
  533200     300.5039    -1159.572     6506.746    11766.979    1975.4204 
  533300    303.97058   -1163.8514    6437.0223    11767.036    1954.0244 
  533400    301.45664   -1153.0555    6479.9557    11767.059    1946.5497 
  533500    303.17358   -1164.6878     6454.962    11767.113    1947.6661 
  533600     301.2952   -1163.5686    6493.9277    11767.069    1962.7843 
  533700    306.21019   -1162.7855    6388.1993    11767.125    1915.3891 
  533800    299.55236   -1162.5271    6530.1468    11767.096    1891.0874 
  533900    301.98579   -1166.0768      6481.66    11767.046    1916.9497 
  534000    301.98792   -1165.6951     6481.333    11767.146    1946.8372 
  534100    304.83566   -1167.3859    6422.0831    11767.043    1919.7739 
  534200    300.95026   -1167.2848    6504.9728    11767.029    1893.0693 
  534300    302.45852   -1163.2062     6468.706    11767.062     1914.617 
  534400    303.06021   -1161.1822    6453.8019    11767.036    1846.7228 
  534500     300.7172   -1166.2464    6509.0056    11767.121    1875.8105 
  534600    303.32264    -1166.159    6453.2275    11767.091    1904.6855 
  534700    301.23409   -1164.2763    6495.9397    11767.068    1931.2017 
  534800    307.56513   -1165.4473    6361.7819    11766.992    1873.5567 
  534900    299.73674   -1163.8413    6527.4053     11766.98    1934.4149 
  535000    301.57917   -1159.3348    6483.5632    11767.005    1971.3768 
  535100    304.36442   -1160.8427    6425.4784    11766.914    1914.2451 
  535200    302.20893   -1159.2669    6469.9739    11766.937    1899.1549 
  535300    302.74345   -1164.6054    6463.9517    11766.995    1939.0831 
  535400    303.59046   -1163.7352     6445.037    11767.046    1935.7266 
  535500    301.39216   -1160.6121    6488.7819    11766.951    1921.8774 
  535600    298.56273   -1155.9098    6544.4923    11766.917    1963.9336 
  535700    302.56965   -1161.0782     6464.122     11766.98    2000.6437 
  535800    306.68233   -1158.3642    6373.4708    11766.904    1992.6644 
  535900    298.14442   -1156.7948    6554.2652    11766.868    1868.6385 
  536000    302.18184   -1158.1367    6469.4698    11766.984    1883.8878 
  536100    303.24552   -1155.9031     6444.444    11766.916    1930.9847 
  536200    304.02258   -1162.9891    6434.9898    11766.977    1928.1341 
  536300    300.05471   -1160.1788    6517.0059    11767.036     1970.399 
  536400    303.06981   -1166.2316    6458.6282    11767.018    1961.6154 
  536500    298.95595   -1163.8627    6544.1529    11767.025    1940.9559 
  536600    303.42602   -1165.7865    6450.6053     11767.05    1931.9566 
  536700    305.59358   -1165.4658    6403.8743    11766.946    1936.9743 
  536800    301.09169   -1163.3984    6498.0687    11767.032    1948.6333 
  536900    301.87892   -1157.2735    6475.1427    11767.049    1936.7676 
  537000    302.49987   -1164.1028    6468.7341    11767.077    1873.1559 
  537100    304.49438   -1160.3196    6422.3473    11767.083    1868.7959 
  537200    301.51512   -1162.0262    6487.8229    11767.205      1951.46 
  537300    306.08358   -1173.5498     6401.669    11767.125    1917.9352 
  537400    298.02645   -1167.8644    6568.1525    11767.166     1946.182 
  537500      307.305   -1166.1115    6368.0647    11767.053    1926.7737 
  537600     301.2014   -1166.8571     6499.308    11767.157     1958.414 
  537700    301.58659   -1164.5071     6488.772      11767.2    1945.3769 
  537800    304.39062    -1160.259    6424.4827    11767.062    1997.1404 
  537900    302.37526   -1160.6614     6467.942    11767.064    1938.5981 
  538000    299.49509   -1162.6304    6531.4497    11767.072    1971.5224 
  538100    304.39285   -1172.1466    6436.4519    11767.192    1930.0491 
  538200     301.4098   -1163.4046    6491.3161    11767.069    1899.0655 
  538300    305.29077   -1164.2945    6409.3162    11767.091    1901.7772 
  538400    300.62172   -1164.0997    6508.8575     11767.08    1910.9243 
  538500    303.74095   -1162.1991    6440.2373    11766.998    1858.9056 
  538600     303.4618   -1154.7417    6438.7216    11766.976    1906.5863 
  538700    302.03087   -1156.5581    6471.1251    11766.993    1874.5694 
  538800    300.31963   -1162.5961    6513.7389    11767.011    1932.7052 
  538900    301.53643   -1164.3695    6489.4351    11766.929    1975.1098 
  539000     302.4491   -1159.6509    6465.2346    11766.945    1974.9752 
  539100    300.46497   -1157.1295    6505.1124    11766.956    1931.8505 
  539200     300.9508   -1160.5654    6498.1665    11766.953     1952.948 
  539300     302.5934   -1161.8301    6464.2845    11766.898     1963.919 
  539400    302.38994   -1156.8947    6463.6817    11766.884     1944.248 
  539500    306.19714   -1157.5923    6383.1418    11766.982    1935.0549 
  539600    301.03949   -1156.3457    6492.1079    11767.009    1883.7611 
  539700    301.09519   -1154.9772    6489.5447    11767.004    1859.8139 
  539800    303.96035    -1157.291    6430.5871    11766.943    1877.8562 
  539900    298.75453   -1159.7931    6544.4059    11767.045    1930.2778 
  540000    303.69813   -1165.1538    6444.1032    11766.994    1912.1548 
  540100    303.55537   -1166.0824    6448.0262    11766.939    1904.7339 
  540200    301.82016   -1163.5427    6482.6302    11767.012    1923.8405 
  540300    303.29724   -1161.0866    6448.6297    11767.023     1916.962 
  540400    301.29882   -1155.8214    6486.0588    11767.025    1950.4715 
  540500    301.79667   -1154.1142    6473.6482    11766.957    1975.5605 
  540600    301.21385   -1158.7968    6490.8105    11766.985    1950.7045 
  540700      300.311   -1161.3613    6512.7281     11767.05    1895.9129 
  540800    300.34424   -1169.7651    6520.4805    11767.109     1910.804 
  540900    302.24247   -1168.5536    6478.7492    11767.142     1994.838 
  541000    301.57557   -1169.9415    6494.3634    11767.121     1884.693 
  541100    301.97971   -1167.7032    6483.5597     11767.19    1904.3123 
  541200    302.44869   -1162.0463     6467.877    11767.183     1947.753 
  541300    302.41003   -1161.9406    6468.4153    11767.001    1884.5407 
  541400    306.10519   -1166.2502    6393.8512    11767.069    1868.0749 
  541500    300.96962   -1160.5703    6497.9274    11767.111    1988.4622 
  541600    305.11263   -1162.2236    6410.9717    11767.011    1895.5098 
  541700    301.53799   -1158.7024    6483.8286    11767.023    1944.5457 
  541800     302.9728    -1159.607    6454.1976     11767.14    1978.3437 
  541900    301.98805   -1168.9459    6484.6229    11767.188    1957.4244 
  542000    299.85009   -1163.1842    6524.4394    11767.092    1882.4983 
  542100    303.86512      -1163.7    6439.2013    11767.113    1890.0647 
  542200    303.56582   -1167.6262    6449.5322    11767.124    1919.3537 
  542300    301.16967   -1154.6847     6487.719    11767.062    1936.3254 
  542400    304.26292     -1160.59    6427.4799        11767    1902.9246 
  542500    302.62432   -1158.7146    6460.6336    11767.023    1860.7246 
  542600    299.41943   -1157.0561    6527.4751    11767.056    1908.1753 
  542700    305.87041   -1162.8587    6395.3594    11766.953    1931.3221 
  542800    301.13141   -1161.1727    6494.9623        11767    1948.7121 
  542900    300.71179   -1166.9936    6509.7432    11766.996    1854.6793 
  543000    302.62511    -1168.414      6470.27    11766.977    1932.3344 
  543100    301.95758   -1161.7413    6477.9195    11767.039    1885.2928 
  543200    300.54838   -1163.5124    6509.7083    11766.951     1849.978 
  543300     303.5663   -1156.4437    6438.1907    11766.975    1860.5203 
  543400    301.16185   -1161.5514    6494.6904        11767    1918.8816 
  543500    302.91301   -1159.9181    6455.6229    11766.976     1872.904 
  543600      298.902    -1162.526     6543.889    11766.946     1918.436 
  543700    303.62998   -1159.6632    6440.0869    11767.012     1916.612 
  543800    302.36796   -1162.3515    6469.7503    11767.026    1889.1783 
  543900    298.95584   -1165.0023    6545.4299    11767.161     1878.641 
  544000    303.51195    -1166.229    6449.3144    11767.152    1883.0827 
  544100    302.16279   -1164.7636    6476.6842    11767.165    1890.0907 
  544200    305.03764   -1167.4413    6417.8793    11767.099    1941.4805 
  544300    302.73243   -1166.4767    6466.2207    11767.158    1928.5384 
  544400    296.80104   -1162.7891    6589.2196    11767.129    1970.1889 
  544500     304.2535   -1168.3949    6435.6613    11767.175    1930.7047 
  544600    304.71647   -1161.1851    6418.5794    11767.194    1955.9414 
  544700    299.33834   -1164.4549    6536.7999    11767.249    1935.8427 
  544800     304.5336   -1168.3416    6429.6386     11767.19    1887.7594 
  544900    303.17878   -1165.0225    6455.2837    11767.211    1900.8826 
  545000     303.4689   -1167.6462     6451.675    11767.176    1899.9277 
  545100     303.9539   -1166.4925    6440.1286    11767.145    1865.2323 
  545200    299.65972   -1163.6278    6529.1304    11767.273    1934.3344 
  545300    303.77141   -1167.0734    6444.5936     11767.13    1922.5792 
  545400    299.63755   -1166.0956    6531.9122    11767.113     1933.239 
  545500    303.96327   -1167.8754    6441.2654    11767.099    1872.3905 
  545600    299.86309    -1162.376    6523.4332    11767.172    1935.8484 
  545700    305.85422   -1165.2529    6398.1897    11767.043    1866.8395 
  545800    301.76074   -1167.1553    6487.5407     11767.04    1999.7208 
  545900    304.35171     -1161.48    6426.5337    11767.061    1948.4657 
  546000    299.58315   -1156.7349    6523.5385    11766.938    1889.1808 
  546100    301.59511   -1157.1915    6481.1135    11767.039    1904.6906 
  546200    304.12563   -1160.0661    6429.9013    11767.013    1897.9144 
  546300     299.1107   -1159.7369    6536.7111    11767.015    1950.9456 
  546400    301.89515   -1161.0634    6478.5075    11766.971    1896.7782 
  546500    301.37866   -1156.3033    6484.8405     11767.03    1833.7349 
  546600    302.52794   -1157.8172    6461.7795    11767.007    1844.5785 
  546700    301.27327   -1157.2763    6487.9056     11766.87    1892.5423 
  546800    303.81017   -1159.5446    6436.0582    11766.952    1868.9504 
  546900     300.7881   -1157.3156    6498.4773    11767.038    1929.1417 
  547000    303.43772   -1158.2359    6442.6159    11766.861    1874.1437 
  547100    298.19428   -1154.1046    6550.5032    11766.862    1841.5772 
  547200    302.39552   -1158.8784    6465.5466    11766.885    1884.7924 
  547300    303.36716   -1164.2841    6450.3005     11766.99    1898.8891 
  547400    301.70969   -1158.7353    6480.1937    11767.023    1921.6081 
  547500    304.02749   -1161.9403    6433.7577    11766.898    1879.6652 
  547600    301.97715   -1155.0994    6470.8985    11767.078    1855.5964 
  547700    304.87404   -1163.8871    6417.7929    11767.072    1855.0987 
  547800    302.09032   -1158.3357     6471.711    11767.071    1923.3516 
  547900    302.51494   -1161.7512    6466.0605    11767.077    1947.9956 
  548000    305.37245    -1164.407    6407.6431     11767.05    1916.8494 
  548100    297.45659   -1163.3315    6575.6722    11767.044    1959.8009 
  548200    303.53327   -1163.9878    6446.5973    11767.132    1984.2855 
  548300    303.38635   -1160.4902    6446.1887    11767.082    1957.3739 
  548400    300.92364   -1160.2479    6498.6484    11767.172    1917.0229 
  548500    303.97954   -1165.5244    6438.7487    11767.281    1959.6501 
  548600    303.19901   -1166.9642    6456.7832    11767.201    1847.9719 
  548700    304.19215   -1166.2362     6434.745    11767.107    1854.0582 
  548800    300.76823   -1169.7092    6511.4307    11767.173    1959.2092 
  548900    302.81214   -1161.7364    6459.7375    11767.118    1891.3075 
  549000    303.36212     -1168.23    6454.3985    11767.035       1844.4 
  549100    299.17177   -1157.4777    6533.2862    11767.154    1977.8965 
  549200    303.61853   -1162.2987    6443.1318    11767.177    2002.2674 
  549300    295.97062   -1167.0637    6611.1385    11767.033    1913.1711 
  549400     303.8684   -1167.8336    6443.2202    11767.069    1864.9893 
  549500    299.76259   -1161.3449    6524.4374     11767.06    1955.6486 
  549600    303.41968   -1164.8832    6449.8554    11767.068    1822.5452 
  549700    299.12366   -1165.6451    6542.3853    11767.058    1944.0685 
  549800    306.52598    -1157.511    6376.0779    11767.024    1921.8252 
  549900    301.37639   -1158.3646    6486.8853    11766.965    1951.5586 
  550000     303.3448   -1160.7808    6447.2316    11766.947    1859.6635 
  550100    300.67044   -1160.0251    6503.5472    11766.885    1890.2462 
  550200    302.73633   -1151.4162    6450.8629    11766.944    1952.1097 
  550300    302.93123   -1155.3694    6450.6241    11766.916    1896.1332 
  550400    302.18009   -1155.5842    6466.8831    11766.913    1884.2418 
  550500    300.44791   -1159.6335    6507.9118    11766.887    1878.9049 
  550600    302.04464   -1157.7647    6471.9769    11766.932    1812.4795 
  550700    303.64766   -1158.1382    6438.0103    11766.838    1883.0444 
  550800    305.00839   -1159.4764    6410.4332    11766.993    1935.4637 
  550900    298.47656   -1158.8983    6549.2872    11766.883    1869.1318 
  551000    303.50745   -1155.8147    6438.6832    11766.839    1903.7393 
  551100    303.44532   -1158.6625    6442.9111    11766.892    1995.2935 
  551200    300.79467    -1152.671    6493.5576    11766.903    1874.6019 
  551300    300.87717   -1154.4454    6493.6256    11766.959    1859.9928 
  551400    302.00604   -1162.7548    6477.9323    11767.073    1897.7258 
  551500    302.45749   -1164.2105    6469.6514    11766.981    1855.0399 
  551600    304.80506   -1165.1962    6420.5231    11767.019    1825.8319 
  551700    298.64341   -1163.3722    6550.3475    11767.033    1927.3975 
  551800    303.08281   -1160.5133    6452.5966    11766.982    1902.0366 
  551900    305.17906   -1157.5308    6404.8477    11766.999    1919.5624 
  552000     299.2355   -1164.2519    6538.6166    11767.072    1957.1796 
  552100    300.84987   -1156.8633    6496.7242    11767.057    1890.1383 
  552200    303.69394   -1156.0524    6435.0921    11766.995    1856.2304 
  552300    303.38455   -1164.1639    6449.8487     11767.03    1862.9788 
  552400    299.50118   -1164.8761     6533.605    11767.112    1902.3481 
  552500    303.75015   -1172.5619    6450.4839    11767.078    1820.6858 
  552600    300.53862   -1169.8973    6516.4478    11767.097    1849.8672 
  552700    301.18621   -1168.1722    6500.8925    11767.102     1961.128 
  552800    301.17631   -1169.4831     6502.475    11767.162    1918.9072 
  552900    307.77561   -1162.6527    6354.4891     11766.99    1885.4569 
  553000      300.271   -1155.9299    6508.1136    11767.013    1987.7003 
  553100    303.90654   -1158.6427    6433.0976    11766.952    1970.2911 
  553200    302.31961   -1157.9222    6466.2794    11766.952    1856.9199 
  553300    303.40482   -1160.5697    6445.7929    11767.002    1913.9408 
  553400    301.94125   -1156.9845    6473.5142    11767.041    1928.1537 
  553500    300.68547   -1165.2569    6508.5907    11767.018    1862.9566 
  553600    301.49531   -1161.9675    6487.9698    11766.987    1917.2282 
  553700    300.32166   -1168.0544     6519.104    11766.961    1957.0223 
  553800    304.84143   -1162.4457    6416.9247    11766.948     1823.371 
  553900    300.56896   -1153.9188    6499.6298    11766.906    1912.1151 
  554000    304.49252   -1154.5832    6416.4878     11766.92    1923.2223 
  554100    299.26801   -1155.1904    6528.6578    11766.869     1983.972 
  554200     303.0608   -1159.8024    6452.2081    11766.835    1976.9004 
  554300    303.79444   -1163.8498    6440.6144    11766.867     1960.877 
  554400    303.25699   -1163.4488    6451.6884     11766.86    1888.5361 
  554500      300.362   -1160.3481    6510.4925    11766.918    1877.3413 
  554600    302.84206   -1160.9082    6458.1439    11766.992    1908.7462 
  554700    304.06522   -1160.5964    6431.6328    11766.923    1887.6977 
  554800    301.88939   -1159.5241     6477.069    11766.948     1825.488 
  554900    299.67691    -1155.801    6520.6999    11767.036    1859.6447 
  555000    300.31095   -1165.0303    6516.4383    11767.091    1926.7401 
  555100    303.61777   -1161.9703     6442.667    11767.024    1912.6213 
  555200    300.05458   -1165.0885    6521.9217    11767.039    1959.1319 
  555300    301.19115   -1161.1448      6493.73    11767.072    1899.5175 
  555400    301.34129   -1165.8362    6495.2935    11767.152    1874.7077 
  555500    302.03395    -1162.004    6476.6749    11767.163    1896.5701 
  555600    304.05792    -1165.456    6436.8566    11767.132    1849.0625 
  555700    303.69903   -1167.4191    6446.5681    11767.213    1870.8856 
  555800    303.90252   -1167.1282    6441.8576     11767.14    1836.9946 
  555900    301.86663   -1163.5697    6481.7975    11767.145     1931.321 
  556000    304.74713   -1162.9531    6419.6478     11767.15    1941.7413 
  556100    302.11198   -1162.4171    6475.3211    11767.063    1882.5759 
  556200    301.29346   -1163.0548    6493.4631    11767.081    1947.4071 
  556300      302.854   -1163.5021    6460.5085    11767.017    1903.9256 
  556400    303.04605   -1160.4002    6453.3313    11767.045    1885.1532 
  556500    304.58202   -1163.8866    6424.0486    11767.089    1902.8138 
  556600    302.10604   -1160.1793    6473.2477      11767.1    1912.5013 
  556700     299.3749   -1163.8059    6535.0842    11766.964    1927.4545 
  556800    301.77713   -1162.4192    6482.3665    11766.953    1911.1816 
  556900    301.69505   -1159.4689    6481.2325    11767.015    1933.7115 
  557000    303.88028   -1162.3333    6437.4304    11767.033    1898.4367 
  557100    302.46122   -1156.6016    6461.8408    11766.859    1917.2836 
  557200    304.13874   -1155.5331    6425.0283    11766.953    1878.8153 
  557300    296.90694   -1155.6597    6579.7029    11767.004    1891.6249 
  557400    306.28106   -1155.4467    6379.1423    11766.921    1812.6007 
  557500    304.95097   -1160.3432    6412.4975    11766.964    1896.6649 
  557600    305.55866   -1160.3441    6399.4724     11766.92    1820.0875 
  557700    298.85293   -1158.3799    6540.8649    11767.019    1919.1761 
  557800    299.31777   -1160.9576    6533.4396    11766.947    1891.6381 
  557900    303.11588   -1157.9022    6449.2072    11766.911    1849.0691 
  558000    300.99186    -1161.846    6498.5449    11766.928    1854.5209 
  558100    302.91421   -1156.7637    6452.4338    11766.968    1933.8153 
  558200    303.74764   -1158.3601    6436.1585    11766.901    1918.1774 
  558300    302.35036   -1157.6389    6465.3542    11766.967    1885.3032 
  558400    304.07851   -1164.6644    6435.4858    11766.992      1905.88 
  558500    301.13889   -1162.1492    6495.8783    11767.099    1969.3945 
  558600    305.09344   -1166.6719    6415.9244    11767.106    1916.6843 
  558700    303.14525   -1164.5211    6455.3724    11767.084    1892.9134 
  558800    299.20431   -1167.5714    6542.7604     11767.23    1923.6581 
  558900     303.5571   -1170.4514    6452.5897     11767.17    1874.3725 
  559000    302.51374   -1159.7563    6464.1525    11767.138    1926.1326 
  559100    300.77247   -1158.6449    6500.3299    11767.227    1987.5695 
  559200    304.86698   -1162.5567    6416.6971    11767.156     1938.889 
  559300     298.3757   -1161.4896    6554.2851    11767.135    1898.6469 
  559400    303.92906   -1166.5034    6440.6067    11767.081    1880.5933 
  559500    302.75679   -1170.5536    6469.7578    11767.138    1896.0981 
  559600    300.28151   -1159.3285     6511.478    11767.203    1888.1357 
  559700    303.02877   -1169.7469    6463.1469    11767.145    1984.6414 
  559800    302.60194   -1171.5162    6474.0901      11767.2    1963.7944 
  559900    297.15573   -1159.9361    6578.7318    11767.072    1894.9529 
  560000    303.03757   -1164.0832    6457.1754    11767.025    1934.6404 
  560100    302.22392   -1156.6139    6467.0992    11767.036       1994.4 
  560200    303.82256   -1158.3923    6434.6794     11766.99    1953.9859 
  560300    302.98255   -1164.8937    6459.0823    11766.946    1976.9743 
  560400    302.50842   -1161.6911    6465.9606    11766.898     1968.107 
  560500    300.58578   -1162.8349    6508.1811      11766.9     1944.552 
  560600    301.10589   -1153.0546    6487.3623    11766.973    1880.2425 
  560700    307.07659   -1164.6754    6371.4009    11766.946    1865.3488 
  560800    299.10057   -1157.5162     6534.618    11766.927    1896.4503 
  560900    302.20583     -1160.55    6471.2263     11766.84    1879.9232 
  561000    304.36452   -1161.0872    6425.6375    11766.831    1915.2821 
  561100    299.78005   -1159.3708    6521.8435    11766.814    1905.0592 
  561200    303.69746   -1159.6563    6438.4734    11766.847     1881.481 
  561300    301.06669   -1157.1563    6492.0963    11766.768    1923.5401 
  561400    303.34941   -1159.3048    6445.4591    11766.749     1930.966 
  561500    297.89496    -1165.268     6568.031    11766.832     1885.907 
  561600    304.17113   -1163.5592    6432.2413    11766.832    1827.1153 
  561700    300.61101    -1164.098    6508.8437    11766.839    1894.8711 
  561800    301.47412   -1164.7794    6491.0972     11766.85    1893.4935 
  561900    300.96325   -1160.3714    6497.6768    11766.924    1867.1972 
  562000    303.23263   -1155.7817    6444.5772    11766.895     1842.075 
  562100     301.6729   -1160.1104    6482.1392    11766.807    1902.1587 
  562200    301.51444   -1160.6962    6486.2102    11766.907    1968.3393 
  562300    302.94828   -1161.6446    6456.5575    11766.938    1945.1774 
  562400    305.97786   -1165.0242    6395.0682    11766.791    1922.8109 
  562500    298.53088   -1158.8325    6548.1509    11766.973    1931.5552 
  562600    302.35354   -1165.9802    6473.5741    11766.913    1847.4639 
  562700    302.37271   -1166.0861    6473.2308    11766.874    1825.3321 
  562800    301.29339   -1160.4272    6490.6069    11766.851    1886.5937 
  562900    306.20569   -1167.6352    6392.9228    11766.902    1855.4429 
  563000    300.06873   -1160.4418    6516.9018    11766.968    1873.7307 
  563100    299.61291   -1165.8839    6532.0709    11766.957    1868.4708 
  563200     304.7526   -1157.0524    6413.3701    11766.889    1864.5573 
  563300    302.66403   -1159.4086     6460.401    11766.945    1876.0794 
  563400    303.06023   -1163.0527    6455.6066    11766.971     1835.209 
  563500     301.3439   -1163.8734    6493.1394    11767.016    1867.2272 
  563600    302.05592   -1161.3595    6475.3725    11766.974    1816.2244 
  563700    299.67986   -1164.0242    6528.8425    11767.019     1762.471 
  563800    300.67248    -1163.189    6506.7544    11766.972    1801.1647 
  563900    305.13792    -1154.469    6402.6121    11766.946    1899.8232 
  564000    303.04873   -1160.9972    6453.7743    11766.948    1948.9685 
  564100    297.31958   -1163.1607    6578.2753    11766.891    1921.2656 
  564200    304.93588   -1165.4547    6417.9332    11766.966    1893.8076 
  564300    300.55577   -1159.6139    6505.6591    11766.958    1859.2369 
  564400    303.17339   -1163.2764    6453.4805    11767.038     1871.587 
  564500    298.93507   -1164.7881    6545.5574    11767.059    1933.9429 
  564600    303.87063   -1163.5116    6438.8681    11767.086    1905.0096 
  564700    303.71876   -1162.8624    6441.4465    11767.069    1858.1654 
  564800    300.23031   -1163.9529    6517.0389    11767.046    1927.1861 
  564900    300.33969   -1161.0727     6511.882    11767.106    1952.9753 
  565000    304.86766   -1171.2305    6425.2621    11767.061    1887.7403 
  565100    301.43264   -1165.0174    6492.4316     11767.06    1887.4614 
  565200    303.26238   -1160.7084    6448.9353    11766.962    1936.2244 
  565300    304.68454   -1166.7452     6424.732    11767.104    1967.8397 
  565400    298.93659   -1165.7341     6546.536    11767.123    1968.6627 
  565500    302.67093   -1160.4314    6461.3889    11767.057    1914.9438 
  565600    300.95065   -1165.1154    6502.7763     11767.01    1934.0489 
  565700    301.04903   -1167.9972    6503.6304    11767.084     1908.204 
  565800    303.63344   -1164.5749    6444.9259    11767.014    1955.6055 
  565900    301.26875   -1168.7983    6499.6464    11766.993    1907.3268 
  566000    301.02076   -1168.2548    6504.4286    11767.021     1912.114 
  566100     302.7708    -1162.475    6461.2731    11767.032    1922.4867 
  566200    302.66585   -1158.5707    6459.5792        11767    1925.6777 
  566300     302.3182   -1159.9709    6468.3372    11766.931    1910.7677 
  566400    302.85432   -1162.8607    6459.7236    11766.881    1940.4587 
  566500    302.72187   -1158.5599    6458.2607    11766.889    1956.3866 
  566600    302.85643   -1155.7639    6452.4829    11766.782    1947.3113 
  566700    304.59251   -1155.9556    6415.6442     11766.84    1925.1931 
  566800    303.28367   -1161.4074    6449.1034    11766.886    1958.7228 
  566900    302.02309   -1157.0245    6471.5984    11766.834     1954.892 
  567000      300.744   -1157.4089    6499.3332    11766.858    1941.3043 
  567100    304.15716   -1156.1347    6425.1565    11766.873    1914.4458 
  567200    300.68448   -1157.9901    6501.2113    11766.884    1893.6794 
  567300    301.93166    -1153.674    6470.2297    11766.862    1939.9963 
  567400    303.33816   -1156.0997    6442.5598    11766.814     2003.924 
  567500    301.30063   -1157.1278    6487.1904    11766.888    1910.3533 
  567600    300.73594   -1158.5607    6500.7199    11766.921    1977.3436 
  567700    302.86464   -1153.4019    6450.1158    11766.952    1943.2835 
  567800    302.81431   -1160.0159    6457.8191    11766.966    1853.3885 
  567900    298.07723   -1159.1562    6558.1405    11766.947    1916.7235 
  568000    305.56815    -1166.092    6405.1027    11767.005    1872.0572 
  568100     300.7892   -1166.2071    6507.3343    11767.027    1898.7148 
  568200    304.01157   -1156.8774    6429.0814    11766.945    1941.4631 
  568300    301.58755   -1158.2895     6482.299    11766.965    1998.0918 
  568400    303.07428   -1162.5949    6454.7898    11766.912    1947.4633 
  568500    305.66946   -1164.1486    6400.9557    11766.966    1991.6238 
  568600    302.22892   -1160.1371    6470.4578    11766.978    2003.1527 
  568700    300.80684   -1162.9187    6503.7917     11767.15    1975.3051 
  568800    302.37125   -1167.7789    6475.2094    11767.128    1948.1158 
  568900    301.46217   -1167.1294    6493.8999    11767.047      1923.36 
  569000    300.24222   -1160.0566    6512.8709    11767.029    1980.7259 
  569100    305.08053   -1165.2627    6414.6613    11766.976    1926.9146 
  569200    296.64784   -1167.6321    6597.1783    11766.972    1930.2277 
  569300    302.79779   -1161.4652    6459.6149     11766.96    1957.9797 
  569400    304.26481   -1159.6482    6426.5388    11767.042    1994.9447 
  569500     301.4524   -1156.7985    6483.6849    11766.954    1973.1707 
  569600    303.59555   -1160.3025    6441.4265    11766.977    1959.2448 
  569700    303.88273   -1156.0722    6431.1556    11767.072    1908.1287 
  569800    303.06002   -1159.3324    6451.9061    11766.986    1896.6831 
  569900    300.29077   -1163.5993    6515.2568    11766.909    1923.6692 
  570000    306.92252   -1163.6339    6373.6562    11766.951    1914.2651 
  570100    303.25164   -1164.0959    6452.5206    11766.931    1882.3869 
  570200    298.02028   -1159.5034    6559.6748    11766.917    1906.0756 
  570300    299.97448   -1158.1424    6516.5799    11766.932    1922.0877 
  570400    304.92513   -1158.4886     6411.116    11766.885    1878.2506 
  570500    300.95875   -1162.7692    6500.1534    11766.906     1873.748 
  570600    300.54422   -1155.1512    6501.3794    11766.894     1897.921 
  570700     302.2196   -1159.0826    6469.5523    11766.928    1939.3562 
  570800     302.6911   -1160.8292    6461.3369    11767.039    1980.2957 
  570900    301.46801   -1166.0139    6492.6503    11767.038    1960.4617 
  571000      301.274   -1160.3049    6490.9897    11766.942    1915.2094 
  571100    301.54479   -1157.1993    6482.1985    11767.041    1905.9375 
  571200    302.13477   -1159.3036    6471.6006    11766.943    1960.0893 
  571300    301.36752   -1160.7811    6489.5761     11767.05    2017.8355 
  571400    307.49663   -1154.0551    6351.8604    11766.999     1912.169 
  571500    297.81688   -1162.7809    6567.4284    11767.048    1939.8524 
  571600    303.66306    -1167.077    6446.8014     11767.02    1911.7809 
  571700    307.72929   -1163.0157     6355.892     11767.04    1838.6718 
  571800     295.7746   -1162.3878     6610.701    11767.084    1940.9006 
  571900    306.17796   -1166.1991    6392.1889    11767.012    1875.1922 
  572000     296.5194   -1163.8879     6596.193    11766.987    1960.5418 
  572100    305.32775    -1161.941    6406.1041    11767.022    1883.2525 
  572200     300.8783   -1159.9555    6499.0734    11766.921    1958.9226 
  572300     304.0387   -1159.9529      6431.62    11766.987    1910.0429 
  572400    301.48579   -1161.8688    6488.0512    11766.964    1913.1067 
  572500    301.07843   -1165.6111    6500.6555    11767.123    1962.0955 
  572600    302.54341    -1161.283    6464.8636    11766.956    1918.5519 
  572700    304.12934   -1160.2109    6429.9275    11766.973    1935.8332 
  572800    302.49833   -1160.7053    6465.3297    11767.037    1946.8828 
  572900    304.24025   -1160.1899    6427.5533     11766.99    1937.2194 
  573000    298.28613   -1159.0113    6553.5943    11767.009    1907.9986 
  573100      301.128   -1160.1443    6494.0148    11767.008    1956.1724 
  573200    303.10856   -1161.4836    6453.0521    11767.018    1965.9883 
  573300    303.15973   -1161.6265    6452.0951    11767.011    1900.2311 
  573400    300.49742    -1162.181    6509.5295    11767.015     1936.779 
  573500    301.75823   -1160.3217    6480.6522    11766.932    1944.9735 
  573600    298.68399   -1162.9498    6549.0329    11767.008    1962.1457 
  573700     303.3826   -1160.5493    6446.2215    11766.976    1886.3802 
  573800       303.51   -1161.4386     6444.368    11766.955    1897.7939 
  573900    297.70043   -1158.5771    6565.6944     11767.03    1902.8974 
  574000    305.16025    -1163.186     6410.917    11767.012    1873.1728 
  574100    302.58872   -1162.1657    6464.8538    11767.032     1934.767 
  574200    300.07582   -1170.4063    6526.7842    11767.037      1924.55 
  574300    304.01129   -1165.9271    6438.3098    11767.117    1869.6811 
  574400    300.96011   -1160.6093    6498.0761    11767.018    1841.5142 
  574500    301.06215   -1164.8309     6500.141    11767.041      1937.55 
  574600     304.9629   -1166.6862    6418.6222        11767    1877.7733 
  574700    298.74142   -1160.9211    6545.7752    11767.006    1943.7166 
  574800    302.42525   -1164.2753    6470.4524    11767.028    1975.7406 
  574900    303.30974   -1160.9425    6448.2608    11767.066    1942.9628 
  575000    303.21918     -1163.57    6452.8243    11767.067    1885.1374 
  575100    302.02061   -1168.1073    6483.0628    11767.162    1896.0839 
  575200    298.78733   -1167.5305    6551.5627    11767.165    1930.3933 
  575300    304.15907   -1167.3497     6436.573    11767.115    1928.4821 
  575400     301.8203   -1162.9564     6482.062    11767.033    1931.6228 
  575500    302.51519   -1159.9967     6464.225    11767.001    1929.9877 
  575600    300.63793   -1159.4959    6503.8425    11767.015    1939.6103 
  575700     301.5279   -1155.9814     6481.389    11767.089     1975.059 
  575800    303.56367   -1159.1073    6440.9345    11766.999    1913.6436 
  575900    301.59463   -1162.3194      6486.21    11766.997    1887.6027 
  576000    302.81961   -1164.6259    6462.3735    11767.024     1911.818 
  576100    299.88205   -1162.2662    6522.7878    11767.041    1915.6172 
  576200    301.77175   -1164.0165    6484.2278    11767.102    1903.6055 
  576300    303.10555   -1160.1375    6451.7548    11767.002    1811.0474 
  576400    299.21145   -1160.9137    6535.6865    11766.966     1848.706 
  576500    303.65672   -1159.0713    6438.8307    11766.919    1868.3777 
  576600    304.85008   -1159.1068    6413.3556    11766.903    1896.6374 
  576700    300.32499   -1159.0462    6510.0253    11766.962    1971.6843 
  576800    302.85904   -1161.1448    6458.0097    11766.984     1963.893 
  576900    304.78777   -1163.3234    6419.0065    11767.006    1931.5834 
  577000     302.2623   -1161.0371    6470.7438    11767.077    1968.7024 
  577100    301.19708   -1161.5788    6494.0062    11767.041    1897.2246 
  577200    301.32496   -1165.8314    6495.5541    11767.068    1959.9408 
  577300    298.68974   -1163.1743    6549.1381    11767.012    1958.9403 
  577400    303.69262   -1164.7995    6443.9092    11767.037    1909.3594 
  577500    304.26998   -1160.8732    6427.7192    11767.107    1931.5224 
  577600    304.96917   -1161.1255     6412.989    11767.062    1936.4242 
  577700    301.30922   -1164.6478    6494.7216    11767.083    1918.4286 
  577800    299.79082   -1163.6875    6526.2567     11767.14    1938.5678 
  577900    303.62513    -1167.405    6448.0478    11767.128    1981.3778 
  578000    300.69572     -1162.55    6505.7672     11767.12    1938.8825 
  578100    301.11332   -1163.7975    6498.0265    11767.053     1961.927 
  578200    305.13152   -1163.8558    6412.2814    11767.092    2006.5609 
  578300    301.48581   -1165.7372     6492.076    11767.121    1956.1231 
  578400    301.13234   -1165.6642    6499.5377    11767.104    1906.2861 
  578500     302.0982   -1166.3989    6479.7065    11767.172     1956.714 
  578600    302.56209   -1167.5601    6470.9807    11767.195    1945.6646 
  578700    304.39931   -1171.2224    6435.2813    11767.083    1917.7155 
  578800    300.90338   -1155.0015    6493.6291    11766.967    1950.0141 
  578900    304.14902    -1158.794    6428.1786    11767.062    1998.0966 
  579000    297.06357   -1156.1229    6576.9161      11767.1    1966.4826 
  579100    304.36493   -1163.2544    6428.0266    11767.062    1928.2355 
  579200    299.83404   -1160.6908    6522.2452    11767.049    1951.4945 
  579300    303.11182   -1158.4837    6449.8925    11766.928    1845.0924 
  579400    299.86926   -1158.6268    6519.2866    11766.906    1897.1939 
  579500    303.50399   -1161.1159     6444.175    11766.956    1912.4284 
  579600    299.47899   -1160.8013    6529.7836    11766.892    1905.3924 
  579700    301.58171   -1155.6907    6479.7605      11766.9    1828.7757 
  579800    300.29878   -1159.5178    6510.9605    11766.865    1913.0913 
  579900     302.3489   -1157.7931    6465.4518    11766.879    1855.8895 
  580000    302.54203   -1159.7144    6463.1431    11766.775    1842.7025 
  580100    302.11263     -1153.48    6466.1282    11766.821    1897.9939 
  580200    302.91606   -1159.2653    6454.7277    11766.799    1933.8987 
  580300    305.87967   -1160.5544    6392.6818    11766.777    1860.3725 
  580400    300.55245   -1163.6012    6509.6856    11766.926    1876.4336 
  580500     298.8876   -1157.6045    6539.3367    11767.007    1902.6553 
  580600    306.23973    -1158.005    6382.6395    11766.976    1847.8607 
  580700    299.73816   -1162.4843     6526.072    11767.034    1915.9741 
  580800    302.18896   -1163.0625    6474.2284    11766.969    1915.1305 
  580900    304.05175   -1167.4407    6438.7324    11766.891    1907.1063 
  581000      296.727   -1163.6196    6591.6145    11767.112    1919.5782 
  581100    306.63359   -1158.5746     6375.019    11767.201    1871.9415 
  581200    300.65841   -1161.1039    6505.0703    11767.072     1894.455 
  581300    302.28835    -1160.556    6469.8217    11767.192     1862.026 
  581400       302.75   -1170.1404    6469.5261    11767.175    1857.5035 
  581500    298.49769   -1162.3183    6552.5649    11767.192    1942.8462 
  581600    304.16342   -1169.1269    6438.2705    11767.128    1928.9721 
  581700    300.04535   -1170.3033    6527.4132    11767.119    1918.7314 
  581800    303.48479     -1167.37    6451.0538    11767.171      1856.74 
  581900    301.77801   -1164.4137    6484.5044    11767.115    1856.1535 
  582000    302.75159   -1161.8956    6461.1086    11767.036    1906.8228 
  582100    299.44605   -1163.0805    6533.0186    11767.144    1924.5981 
  582200    303.97808   -1161.1021    6434.1308    11767.054    1860.7835 
  582300    303.17521   -1166.3485    6456.4571    11766.982      1904.33 
  582400    300.42377   -1162.4692    6511.4638    11767.087    1976.5295 
  582500    303.50391   -1169.4115     6452.558    11767.042    1892.5568 
  582600    303.31999    -1171.553    6458.6568     11767.07    1842.4988 
  582700    302.50478   -1162.1314    6466.5763    11766.995    1894.4016 
  582800    303.65491   -1157.7531    6437.5346    11766.903    1871.9383 
  582900    300.53454   -1158.7945    6505.2811    11766.946    1909.7993 
  583000    304.29591   -1156.4178    6422.6306    11767.028    1924.6863 
  583100    297.04967   -1154.4403    6575.4222    11766.992    1890.9047 
  583200     306.5058   -1161.5416    6380.4265    11766.911    1842.1684 
  583300    300.90322   -1156.9541    6495.6258    11767.007     1897.397 
  583400     302.1954   -1162.1039    6473.1067    11766.944    1864.3065 
  583500    303.99105   -1155.3311    6427.9032    11766.874    1901.2951 
  583600    302.22827   -1155.6913    6465.9657    11766.918    1864.0106 
  583700    299.72393   -1153.7522    6517.5261    11766.916    1863.4822 
  583800    304.29981   -1156.9892    6423.0091    11766.918    1852.2891 
  583900    301.60883   -1159.3061    6482.7815    11766.885    1927.3905 
  584000     301.0924   -1160.9102    6495.4364    11766.903    1991.6756 
  584100    302.09945   -1162.5952    6475.6714    11766.967    1900.1814 
  584200     301.3348   -1162.7395    6492.0961    11766.912    1857.0825 
  584300    301.14243   -1159.3492    6492.8297    11766.926    1895.0351 
  584400    302.51133    -1165.394    6469.6883    11766.985    1889.8178 
  584500    300.74577     -1163.51    6505.5316    11766.994    1878.6736 
  584600    300.64683   -1157.3769    6501.4694    11766.951    1903.0837 
  584700    303.71409   -1157.8681    6436.4529     11766.97    1886.6483 
  584800     302.4225   -1160.7795    6467.1043    11767.117    1923.1604 
  584900    303.90213   -1167.4898    6442.1554    11767.068    1961.9016 
  585000    303.30806   -1160.7767    6448.0974    11767.032    1913.2073 
  585100    301.49562   -1162.7511    6488.8359    11767.076    1880.2296 
  585200    302.74203   -1167.8232    6467.3116    11767.107    1942.7905 
  585300    301.12329   -1166.3654    6500.4407    11767.112    1857.3727 
  585400    301.66462   -1165.0476    6487.4533    11767.007    1831.7474 
  585500     300.4251   -1164.5796    6513.5488    11767.091    1897.9137 
  585600      300.814   -1161.6381    6502.2913    11767.083    1997.3162 
  585700    303.10699    -1161.776    6453.3895    11767.029    1942.5433 
  585800    300.10958   -1158.7155    6514.4701    11767.135    1927.0732 
  585900    301.84379   -1168.6418    6487.2696    11767.057    1966.4347 
  586000    302.65902   -1171.2228     6472.468    11767.091    1934.9324 
  586100    304.92287    -1166.846    6419.7032    11767.067    1873.5288 
  586200     303.5758   -1165.8958    6447.4542     11766.99    1915.4687 
  586300    299.19915   -1155.0515    6530.1836    11767.063    1924.7498 
  586400    305.27361    -1163.687    6409.0185    11767.034    1870.9398 
  586500    301.39184   -1160.8866    6489.1049    11766.993    1949.5487 
  586600    299.33522   -1162.0913    6534.3119    11767.058    1979.2303 
  586700    301.33544   -1161.6099    6491.0621    11767.022     1929.717 
  586800     300.9284   -1163.4282    6501.5736    11767.019    1957.0813 
  586900    302.49823   -1163.5973    6468.2018    11767.015    1925.7366 
  587000    299.59386   -1161.9458    6528.5899    11767.007    1939.4077 
  587100    304.62568   -1165.5672    6424.7301    11767.023    1941.8867 
  587200     299.6521   -1163.6481    6529.0686    11767.028    1966.5754 
  587300    303.04337   -1158.7615    6451.7042    11766.999    1920.9497 
  587400    302.44552   -1159.8402    6465.6064    11767.051    1956.3893 
  587500    301.15088   -1157.6761    6491.0881    11767.038    1936.3305 
  587600    302.17127   -1158.6915    6470.3145    11767.049    1931.9981 
  587700    302.10479   -1164.9117    6478.0269     11767.12    1973.7382 
  587800    302.20142   -1165.0776    6476.0943    11767.086    1911.7215 
  587900    302.69016    -1166.946    6467.4652     11767.03    1933.6065 
  588000    300.19963   -1162.7775    6516.6493    11767.176    2011.8221 
  588100    302.24203   -1163.3744    6473.4808    11767.044    1890.0917 
  588200    302.35058   -1164.2413    6472.1039    11767.119    1977.3451 
  588300    303.43586   -1161.2239    6445.8418    11767.059    1996.2054 
  588400    299.93201   -1160.3496    6519.8095    11767.047    1947.2913 
  588500    302.65523    -1157.617    6458.9011    11767.049     1929.185 
  588600    300.26008    -1170.173    6522.6068     11767.03    1963.2757 
  588700    302.71891   -1164.7227    6464.7037    11767.106    1944.9358 
  588800    301.92486   -1166.5798    6483.4985     11767.08    1986.2444 
  588900    298.72252   -1166.1306    6551.4212    11767.039     1953.757 
  589000    301.67132   -1166.0608    6488.3524    11767.036    1958.3248 
  589100    303.28462   -1167.5684    6455.3617    11767.004    1899.4404 
  589200    302.95343   -1161.1125    6455.9151    11766.938    1880.5519 
  589300    304.96084   -1166.3764    6418.3143    11766.958    1905.9363 
  589400    303.79443   -1160.4476    6437.3478    11767.002    1930.6251 
  589500    300.53114   -1169.4086    6516.0122     11766.99    1956.8349 
  589600    304.56191   -1162.5254    6423.0806    11767.053    1921.6779 
  589700    301.89281   -1161.1876    6478.8133    11767.102    1923.9389 
  589800    304.70321   -1164.6272    6422.1265    11767.016    1874.7869 
  589900    301.59073   -1162.3134    6486.2414    11766.951    1951.7418 
  590000    307.46318   -1165.4153    6364.0183    11767.082    1961.6482 
  590100    298.00502   -1159.1395    6559.7517    11767.032    1989.1708 
  590200    303.43894   -1157.0287    6441.4506    11766.929    1880.4871 
  590300    300.87213    -1164.391    6503.7204    11767.001    1936.8804 
  590400    302.93557   -1163.2816    6458.6077     11767.08    1957.3857 
  590500    304.05573   -1164.3898    6435.7909    11767.085    1916.0305 
  590600    300.47947   -1162.3838    6510.0675    11766.967    1995.8231 
  590700    304.28231   -1160.8651    6427.2862    11766.946    1909.0041 
  590800    300.47327   -1159.7163    6507.5147    11766.949    1957.0506 
  590900    300.40046     -1161.12    6510.3751     11766.85    1933.7943 
  591000    305.74474   -1160.6951    6395.7313    11766.803    1907.8039 
  591100    301.73965   -1156.7829    6477.4593    11766.881    1911.2994 
  591200    304.38731    -1161.268    6425.3829    11766.883    1883.1707 
  591300    300.09517   -1163.7256    6519.5577    11766.905    1902.5118 
  591400    301.65024   -1162.0334    6484.6228    11766.884    1826.1086 
  591500    304.59424    -1161.021    6420.6774    11766.845    1827.7101 
  591600    304.42648   -1157.0105    6420.3064      11766.9    1863.7841 
  591700    303.97272   -1163.3694    6436.4956    11767.037    1884.3664 
  591800     300.2419   -1158.7096    6511.4251    11766.923    1909.6739 
  591900    300.42723   -1157.4014    6506.2175    11766.983    1884.0516 
  592000    301.11537   -1158.7815     6492.859    11766.945     1954.999 
  592100    302.79692   -1161.8245    6459.9494    11766.916    1942.1582 
  592200    300.04551   -1160.7067    6517.7062    11767.012    1935.8385 
  592300    303.91095   -1165.9254    6440.3444     11767.01    1922.3128 
  592400    300.36344   -1163.9679    6514.1589    11766.995    1948.2697 
  592500    300.35725   -1161.0343    6511.4285    11767.066    1922.0595 
  592600    304.93986   -1166.8778    6419.3496    11767.044    1882.1532 
  592700    303.50285    -1164.882    6448.0333    11767.024    1946.6139 
  592800    301.82314   -1167.2424    6486.3549    11767.101      1964.66 
  592900    302.54854   -1168.0726    6471.7186    11767.131    1892.3829 
  593000    302.34403   -1164.0893      6472.15    11767.177    1970.2976 
  593100    303.88059   -1168.6486    6443.9189    11767.213    1889.3616 
  593200    302.33907   -1164.6621     6472.781    11767.129    1899.8252 
  593300    302.50448   -1169.0287     6473.665     11767.18    1963.1802 
  593400    299.55754   -1160.4303     6528.077    11767.234    1970.6523 
  593500    306.17438   -1171.1365    6397.4411     11767.25    1888.1203 
  593600    299.48825   -1165.2761    6534.3554    11767.186    1927.3453 
  593700    305.28545   -1169.0828    6414.2826    11767.155    1957.1047 
  593800    300.55124   -1166.5074    6512.8748    11767.183      1954.15 
  593900    303.24778   -1163.3589    6452.0595    11767.124    1907.0167 
  594000    301.99752   -1167.3487    6482.6939    11767.059    1915.9962 
  594100    306.38485   -1167.5263    6389.0978    11767.014    1850.7631 
  594200    302.75748   -1164.1747    6463.3137    11767.088    1913.0744 
  594300    300.34763   -1164.5875    6515.1615     11767.04    1943.9802 
  594400    303.40329   -1158.2142    6443.4121    11766.944    1920.1534 
  594500    300.44603   -1161.5743    6509.9778    11766.972    1908.9405 
  594600    304.30084    -1161.214    6427.2191    11766.926     1980.113 
  594700    304.58776   -1162.9161    6422.7308    11766.865    2028.7416 
  594800    304.04374   -1157.7024     6429.125    11766.851    1868.1108 
  594900    299.70929   -1161.1809    6525.3282    11766.977    1926.7746 
  595000    300.15188   -1155.3932    6510.0549    11766.946    1939.5435 
  595100    302.09288   -1157.3672    6470.4468     11766.83    1943.0776 
  595200     301.3181   -1158.3419    6488.1027     11766.96    1982.4373 
  595300    302.63976   -1153.2554    6454.7058    11766.885    1913.6122 
  595400    300.45637   -1161.3525    6509.4524    11766.889    1919.2837 
  595500    301.26813   -1156.8408    6487.5922    11766.883      1888.85 
  595600    304.98203   -1159.0739    6410.5412     11766.94    1925.6321 
  595700    302.35783   -1163.1985    6470.7707    11766.983    1940.5072 
  595800     302.9409   -1160.8588    6455.9252    11766.934     1897.553 
  595900    296.92916   -1160.4221    6583.9012    11766.915    1897.4248 
  596000    301.73772    -1163.133    6483.9377    11766.968    1900.9457 
  596100    302.61437   -1161.6197    6463.7169    11766.989    1932.3335 
  596200    303.44936   -1163.1962    6447.4628    11766.997    1977.3997 
  596300    301.03807   -1159.9537    6495.8404    11767.103    2011.5505 
  596400    300.72399   -1161.8187    6504.3906    11767.078    1967.3124 
  596500    301.10575   -1167.2531    6501.6755    11767.085     1920.591 
  596600    302.56479   -1165.9551    6469.2765    11767.154    1974.4493 
  596700    303.58677   -1168.4697    6449.9042      11767.1    1986.4638 
  596800     300.9308   -1171.0802    6509.2377    11767.082    1983.8934 
  596900    302.86395   -1165.5171    6462.4373    11767.144    1928.3205 
  597000    303.22873   -1162.3945     6451.603    11767.225    1909.7684 
  597100    301.15669   -1165.5245    6498.8728    11767.099    1947.7498 
  597200     306.4433   -1168.2224    6388.7027    11767.171     1948.074 
  597300    301.49564   -1166.8607    6493.0604    11767.191    1925.6194 
  597400    299.88957   -1166.2872    6526.7445    11767.138    1905.6693 
  597500    298.98732   -1162.5664    6542.3026    11767.142    1966.7694 
  597600    307.06615   -1160.4712    6367.6626    11767.189     1936.643 
  597700    304.50949   -1170.1056    6431.8237    11767.096     1904.388 
  597800    299.95431   -1164.8892    6523.9109    11767.085     1907.955 
  597900    299.99138   -1158.6374     6516.834    11767.052    1891.9129 
  598000    304.80999   -1157.9434    6413.2032    11767.057    1865.5057 
  598100     298.7104   -1161.8877    6547.4028    11767.004    1989.9912 
  598200     301.7137   -1164.8337    6486.2108    11767.027    1956.1789 
  598300     300.9755   -1163.1708     6500.218    11766.927     1936.353 
  598400    300.96889   -1163.0687    6500.3407    11767.011    1982.7932 
  598500    304.29213   -1158.1309    6424.2593    11766.863     1893.749 
  598600    298.88642   -1158.0947    6539.7042    11766.859    1935.9985 
  598700    302.76308   -1158.6357    6457.4348    11766.868    1958.1077 
  598800     303.7343   -1157.4168    6435.4894     11766.89    1933.0983 
  598900     301.7927   -1159.1098    6478.5632    11766.791    1829.3082 
  599000    303.47747   -1157.3079    6440.8773      11766.9    1894.0241 
  599100    304.10763   -1162.8136    6432.9854    11766.965    1918.1233 
  599200    297.35381   -1162.1442    6576.5603    11766.924    1917.0269 
  599300    305.45563   -1159.0022    6400.2973    11766.886    1957.5236 
  599400     302.3563   -1164.7604     6472.359    11766.977     1965.957 
  599500    299.11841   -1163.7275    6540.4625    11766.941    1940.6934 
  599600    304.41546   -1161.7011    6425.2949    11766.963    1981.0664 
  599700    301.26446   -1167.9515    6498.9636    11767.065    2008.3713 
  599800     304.2676   -1162.1114    6428.9063    11767.005    1919.9102 
  599900    303.74015   -1163.1526    6441.2601     11767.05    1922.9209 
  600000    305.01289   -1163.5145    6414.4621     11767.08     1931.442 
Loop time of 280.302 on 8 procs for 300000 steps with 7168 atoms

Pair  time (%) = 137.992 (49.2296)
Bond  time (%) = 81.0505 (28.9154)
Neigh time (%) = 19.705 (7.02992)
Comm  time (%) = 31.2943 (11.1645)
Outpt time (%) = 0.493524 (0.176069)
Other time (%) = 9.76711 (3.48449)

Nlocal:    896 ave 901 max 889 min
Histogram: 2 0 0 0 1 0 0 2 1 2
Nghost:    2843.5 ave 2853 max 2837 min
Histogram: 1 3 0 1 1 0 0 0 0 2
Neighs:    23628.9 ave 24060 max 23344 min
Histogram: 3 0 1 0 1 1 0 0 1 1

Total # of neighbors = 189031
Ave neighs/atom = 26.3715
Ave special neighs/atom = 157.056
Neighbor list builds = 3067
Dangerous builds = 0
# −−−−−−−−−−−−−− Flux calculation in nve −−−−−−−−−−−−−−−
reset_timestep  0
compute         PE all pe/atom
compute         KE all ke/atom

variable        CX atom (vx*(c_KE+c_PE))
compute         Jcx all reduce sum v_CX

variable        CZ atom (vz*(c_KE+c_PE))
compute         Jcz all reduce sum v_CZ

variable        CY atom (vy*(c_KE+c_PE))
compute         Jcy all reduce sum v_CY

compute         SA all stress/atom virial

variable        VX atom -(c_SA[1]*vx+c_SA[4]*vy+c_SA[5]*vz)*1.4593e-5
compute         Jvx all reduce sum v_VX

variable        VZ atom -(c_SA[3]*vz+c_SA[6]*vy+c_SA[5]*vx)*1.4593e-5
compute         Jvz all reduce sum v_VZ

variable        VY atom -(c_SA[2]*vy+c_SA[6]*vz+c_SA[4]*vx)*1.4593e-5
compute         Jvy all reduce sum v_VY

variable        Jx equal (c_Jcx+c_Jvx)/vol
variable        Jz equal (c_Jcz+c_Jvz)/vol
variable        Jy equal (c_Jcy+c_Jvy)/vol

fix             JJTx all ave/correlate $s $p $d                 v_Jx type auto file J0Jt_tx.dat ave running
fix             JJTx all ave/correlate 5 $p $d                 v_Jx type auto file J0Jt_tx.dat ave running
fix             JJTx all ave/correlate 5 20000 $d                 v_Jx type auto file J0Jt_tx.dat ave running
fix             JJTx all ave/correlate 5 20000 100000                 v_Jx type auto file J0Jt_tx.dat ave running

fix             JJTz all ave/correlate $s $p $d                 v_Jz type auto file J0Jt_tz.dat ave running
fix             JJTz all ave/correlate 5 $p $d                 v_Jz type auto file J0Jt_tz.dat ave running
fix             JJTz all ave/correlate 5 20000 $d                 v_Jz type auto file J0Jt_tz.dat ave running
fix             JJTz all ave/correlate 5 20000 100000                 v_Jz type auto file J0Jt_tz.dat ave running

fix             JJTy all ave/correlate $s $p $d                 v_Jy type auto file J0Jt_ty.dat ave running
fix             JJTy all ave/correlate 5 $p $d                 v_Jy type auto file J0Jt_ty.dat ave running
fix             JJTy all ave/correlate 5 20000 $d                 v_Jy type auto file J0Jt_ty.dat ave running
fix             JJTy all ave/correlate 5 20000 100000                 v_Jy type auto file J0Jt_ty.dat ave running

run             1000000
Memory usage per processor = 13.8919 Mbytes
Step Temp E_pair E_mol TotEng Press 
       0    305.01289   -1163.5145    6414.4621     11767.08     1931.442 
     100    300.13856   -1167.2541    6522.3648     11767.11    1916.3152 
     200    300.14175   -1166.3604    6521.5689    11767.276    1943.9205 
     300    305.75084   -1165.2343    6400.5627    11767.226    1945.6348 
     400    300.39886   -1164.9325    6514.4586    11767.087    1969.1103 
     500    305.54951   -1167.1175    6406.6656    11767.144      1873.71 
     600    300.14907   -1164.7725    6519.7534    11767.205     1936.375 
     700    301.64287   -1163.0797    6485.9964    11767.054    1880.1723 
     800    301.61605   -1164.0635    6487.5635    11767.064    1868.3579 
     900    305.23727   -1166.9006     6413.078    11767.103    1964.9822 
    1000    303.88045   -1164.5631    6439.6005    11766.977    1921.4524 
    1100    299.52078   -1163.7837    6531.9082    11766.926    1859.1681 
    1200    301.53043   -1166.1558    6491.4965    11767.076    1929.7262 
    1300    301.70756   -1163.2067    6484.7801    11767.092    1953.6888 
    1400    302.39442   -1156.8622    6463.7306    11767.061    1932.1391 
    1500    301.64159   -1153.0294    6475.8157    11766.896    1997.3269 
    1600    302.93263   -1165.5395     6460.746    11766.897    1954.4461 
    1700    303.01804   -1157.4151    6450.8781    11766.978    1872.7359 
    1800    301.99554   -1155.7561    6471.0032    11766.918    1880.5516 
    1900    302.02464   -1160.6282    6475.2144    11766.879     1896.217 
    2000    302.04214   -1160.4891    6474.7716    11766.949    1880.5121 
    2100    302.12337   -1161.0485    6473.6272    11766.981    1866.5222 
    2200    302.11119   -1160.6045    6473.3636    11766.901    1849.1984 
    2300    302.17296   -1162.0907    6473.6189     11766.99    1885.6649 
    2400    298.72841   -1158.0722    6543.2369    11767.039    1924.5575 
    2500    307.44055   -1159.6383    6358.6335    11766.991    1890.3959 
    2600    301.73141    -1159.939    6480.9942    11767.084    1860.2912 
    2700    300.74594   -1163.2899    6505.4388    11767.124    1793.0958 
    2800    298.91616   -1158.5387    6539.7865    11767.133    1868.5175 
    2900    301.64916   -1168.5137    6491.4068    11767.165    1886.0834 
    3000    306.03451   -1167.4799    6396.6441    11767.122    1954.6413 
    3100    303.29423   -1169.9909    6457.7235    11767.149    1876.7358 
    3200    300.32068   -1167.9385    6519.1936    11767.146    1858.5425 
    3300    305.13252   -1162.3079    6410.7557    11767.136    1897.9761 
    3400    301.47945   -1171.7265    6498.2512    11767.171    1949.0393 
    3500    300.18487   -1162.5014    6516.6403    11767.128    1931.5712 
    3600    303.52293   -1165.9322    6448.8086    11767.178    1994.4168 
    3700    304.16917   -1169.5789    6438.5489    11767.078    1945.1068 
    3800    302.71967   -1167.2517    6467.2028    11767.092    1820.5216 
    3900    301.52362   -1164.3679    6489.8929    11767.115     1856.211 
    4000    303.52204   -1166.7576    6449.5637    11767.089    1909.4142 
    4100    301.73638   -1159.9972    6480.9757    11767.113    1864.5134 
    4200    303.16701   -1167.2169    6457.6987     11767.18    1849.4233 
    4300    303.37228    -1162.201    6448.2179      11767.1    1864.0243 
    4400    302.19913   -1161.2224    6472.2285    11767.027    1788.5985 
    4500    301.47729   -1160.6395    6487.0284    11766.989    1770.3313 
    4600     303.6704   -1154.8999    6434.3599    11766.912    1887.9776 
    4700    298.14794   -1160.5902    6558.1098    11766.993    1920.1526 
    4800    305.56083    -1156.679    6395.8224    11766.982     1867.981 
    4900    299.30168   -1159.3327    6532.1481    11766.937    1945.0826 
    5000    302.08661   -1161.7763    6475.0418    11766.882     1906.856 
    5100    301.63777   -1163.3417    6486.3026    11766.989     1943.431 
    5200     304.7039   -1160.2695    6417.7322    11766.994    1918.0239 
    5300    296.99654   -1159.5652    6581.6452    11766.955    1909.7728 
    5400    302.93561   -1159.6713    6454.9511    11767.034     1895.659 
    5500    300.97867   -1161.6965    6498.7779    11767.029    1865.4603 
    5600    300.14226   -1159.4047    6514.3192    11766.993    1838.3406 
    5700    301.95111   -1155.1424     6471.466    11767.046    1889.0303 
    5800    301.42977   -1163.1234    6490.6628    11767.124    1935.6766 
    5900    304.62167   -1167.1558    6426.4096    11767.028    1848.9763 
    6000    301.36393   -1165.4592    6494.3738    11767.092    1893.5276 
    6100    303.70094   -1171.5916    6450.6248    11767.138    1888.5925 
    6200    301.68322   -1162.6542    6484.7773    11767.122    1911.3341 
    6300    304.15646   -1166.1564    6435.3774    11767.057    1871.5576 
    6400    302.55092   -1160.9795     6464.599    11767.156    1843.5242 
    6500    301.33362   -1161.0252    6490.6263    11767.132    1857.8344 
    6600    301.75297   -1161.8995    6482.4628    11767.052    1835.7508 
    6700    301.07538   -1165.7021    6500.8154    11767.127    1877.5881 
    6800    302.74863      -1168.1    6467.5532    11767.213    1934.1794 
    6900    303.18227   -1164.7688    6454.9848     11767.24    1834.5832 
    7000    300.52895   -1166.6718    6513.4966    11767.165    1867.3808 
    7100    303.41296   -1166.1094    6451.2281    11767.071    1869.4414 
    7200    303.34711   -1160.4729    6446.9795    11767.052    1871.6892 
    7300    301.14514   -1157.5619    6491.0428    11766.985    1938.1077 
    7400    301.00048   -1160.0125    6496.5392     11766.94    1843.1219 
    7500    303.56279   -1151.3917    6433.2173    11766.979    1861.6706 
    7600    303.71273    -1155.072    6433.6571    11766.942    1906.7514 
    7700    304.97932   -1161.2588    6412.7989    11766.955    1880.3729 
    7800    299.89415   -1157.7612    6517.9747    11766.992    1921.4098 
    7900    303.32852   -1159.7052    6446.4929    11766.936    1886.1917 
    8000    300.27332   -1162.2502    6514.3177    11766.946    1868.3482 
    8100    303.59615   -1160.7856    6441.9131    11766.993    1823.0855 
    8200    299.85305   -1158.3784    6519.3369    11766.859    1822.3506 
    8300    303.93269   -1154.0717    6427.9058     11766.89    1925.8291 
    8400    303.90193   -1159.8627    6434.2681    11766.804    1905.0149 
    8500    301.35194   -1156.2403    6485.2793    11766.961    1896.5209 
    8600    297.51578   -1158.5291    6569.5454    11766.985    1887.2472 
    8700    304.84843   -1158.0965    6412.4808    11767.003    1861.5284 
    8800    301.80176   -1160.9621    6480.4288    11766.998    1943.3149 
    8900    300.92874   -1163.9147    6502.1021    11767.068    1953.5741 
    9000    300.46574   -1163.4907    6511.6565    11767.155    1913.0007 
    9100    304.34317     -1166.04    6431.3422    11767.127    1833.5594 
    9200    300.78848   -1167.6556    6508.8691    11767.098    1899.5062 
    9300    302.17482   -1162.2561    6473.8496    11767.095    1872.3245 
    9400    299.19085   -1168.9525    6544.3889     11767.19    1917.8412 
    9500     306.4694    -1165.669    6385.5294    11767.109    1911.1382 
    9600    301.06917   -1164.5672    6499.8805    11767.194    2010.3716 
    9700    301.45613   -1165.9203    6492.9532     11767.18    1913.6924 
    9800    303.82594    -1165.307    6441.7016     11767.17    1918.1638 
    9900    298.12748   -1158.6181    6556.7916     11767.21    1971.1114 
   10000    303.62733   -1170.4035    6450.9945    11767.123    1938.0103 
Loop time of 1405.91 on 8 procs for 1000000 steps with 7168 atoms

Pair  time (%) = 564.71 (40.1668)
Bond  time (%) = 297.353 (21.1502)
Neigh time (%) = 65.7189 (4.67447)
Comm  time (%) = 106.99 (7.60999)
Outpt time (%) = 0.00366136 (0.000260427)
Other time (%) = 371.135 (26.3982)

Nlocal:    896 ave 900 max 889 min
Histogram: 1 0 1 1 0 0 0 1 1 3
Nghost:    2845.25 ave 2851 max 2839 min
Histogram: 2 0 1 1 0 0 0 1 1 2
Neighs:    23616.1 ave 23965 max 23347 min
Histogram: 2 2 0 1 0 0 0 0 1 2

Total # of neighbors = 188929
Ave neighs/atom = 26.3573
Ave special neighs/atom = 157.056
Neighbor list builds = 10206
Dangerous builds = 0
