LAMMPS (11 Jun 2012)
# Initialization
atom_style      full
units           real
variable        T equal 300
variable        dt equal 1.0
variable        seed equal 123465
variable        radius equal 0.5
variable        sizet equal 4
variable        sizeb equal -4
variable        p equal 20000    # correlation length
variable        s equal 5        # sample interval
variable        d equal $p*$s    # dump interval
variable        d equal 20000*$s    variable        d equal 20000*5    
# convert from LAMMPS real units to SI
variable        kB equal 1.3806504e-23    # [J/K] Boltzmann
variable        kCal2J equal 4186.0/6.02214e23
variable        A2m equal 1.0e-10
variable        fs2s equal 1.0e-15
variable        convert equal ${kCal2J}*${kCal2J}/${fs2s}/${A2m}
variable        convert equal 6.9510174124148567155e-21*${kCal2J}/${fs2s}/${A2m}
variable        convert equal 6.9510174124148567155e-21*6.9510174124148567155e-21/${fs2s}/${A2m}
variable        convert equal 6.9510174124148567155e-21*6.9510174124148567155e-21/1.0000000000000000777e-15/${A2m}
variable        convert equal 6.9510174124148567155e-21*6.9510174124148567155e-21/1.0000000000000000777e-15/1.0000000000000000364e-10
variable        b_eq equal 10.0/3.0

# setup problem
dimension       3
boundary        p p p
neighbor        2    bin
pair_style      lj/cut 10.0
bond_style      morse
read_data       lammps.data
  9 = max bonds/atom
  orthogonal box = (0 0 0) to (80 80 80)
  2 by 2 by 2 MPI processor grid
  7168 atoms
  33696 bonds
  10 = max # of 1-2 neighbors
  86 = max # of 1-3 neighbors
  824 = max # of 1-4 neighbors
  164 = max # of special neighbors
pair_coeff      1 1 0.000 3.500
pair_coeff      2 2 0.000 3.500
pair_coeff      1 2 0.105 3.500
bond_coeff      1 10 1.8 ${b_eq}
bond_coeff      1 10 1.8 3.3333333333333334814
bond_coeff      2 5 0.805 7.4536
bond_coeff      3 10 1.8 ${b_eq}
bond_coeff      3 10 1.8 3.3333333333333334814
bond_coeff      4 5 0.805 7.4536
velocity        all create $T ${seed} mom yes rot yes dist gaussian
velocity        all create 300 ${seed} mom yes rot yes dist gaussian
velocity        all create 300 123465 mom yes rot yes dist gaussian
timestep        ${dt}
timestep        1
thermo          100
dump            T1 all cfg 600000 *.cfg id type xs ys zs
dump            T2 all xyz 10000 traj.xyz
#dump_modify    1 element Cu
# −−−−−−−−−−−−− Equilibration and thermalisation −−−−−−−−−−−−−−−−
fix             NVT all nvt temp $T $T 10
fix             NVT all nvt temp 300 $T 10
fix             NVT all nvt temp 300 300 10
run             300000
Memory usage per processor = 11.5453 Mbytes
Step Temp E_pair E_mol TotEng Press 
       0          300   -906.89526 0.00012694983    5502.1446    343.62551 
     100    242.98826   -935.24939    7058.5004    11314.322    2212.3786 
     200     291.8356   -991.54335    9953.3295    15196.406     1185.383 
     300    302.40344    -991.4058    8440.4977    13909.477    545.31729 
     400    299.57171   -972.36437    6498.6275    11926.153    830.59251 
     500    300.58589   -955.87086    5682.4216    11148.107    1190.7028 
     600    297.56455   -953.01737    5591.5946    10995.587    1183.2231 
     700    297.37925   -966.17018    6477.4122    11864.293    1189.5719 
     800    303.98498    -978.9911      7175.52    12690.702    1149.7644 
     900    301.92307   -982.55002     7082.398    12549.971    1010.4736 
    1000    301.38691   -978.79078    6563.3844    12023.262    1055.2114 
    1100    298.81415   -978.08606    6484.1448    11889.765    1332.3048 
    1200    301.28123   -977.51816    6316.1132    11775.006    1165.9678 
    1300    302.18991    -981.6439    6370.9725    11845.152    1047.0615 
    1400    295.89518    -986.6041    6574.6267    11909.369    1065.9827 
    1500    304.50369   -990.08041      6898.87    12414.044    1244.0775 
    1600     297.8025   -990.73793     6691.243    12062.599    1295.9267 
    1700    299.36252   -988.37988    6358.0869    11765.128     1257.173 
    1800    303.56896   -990.04717    6518.2459    12013.484    1373.3657 
    1900    297.14375   -993.91655    6632.6459     11986.75       1264.2 
    2000    306.36111   -994.34858    6687.3367    12237.923    1309.8391 
    2100    305.75107   -994.03097     6427.648     11965.52    1371.7834 
    2200    297.39559   -998.42517    6236.8075    11591.783     1411.611 
    2300    300.71291    -1002.927    6572.8821    11994.225    1475.3564 
    2400    301.73658   -1010.2339    6538.7056    11974.611    1284.1007 
    2500    298.96339   -1018.3056    6621.0895    11989.678     1387.008 
    2600    303.92385   -1027.8626    6523.7018    11988.706    1339.4781 
    2700    299.82713   -1037.9807    6502.4317    11869.798     1317.597 
    2800    299.97595   -1047.4802    6470.2512    11831.297     1416.969 
    2900    300.87673   -1056.6666    6512.1997    11883.303    1494.8117 
    3000    306.42974   -1070.7954    6251.0684    11726.674    1397.8909 
    3100    299.03581   -1083.8862    6347.0887    11651.644    1488.5475 
    3200    302.52441   -1093.6048    6490.2613    11859.626    1518.7739 
    3300    298.74333   -1104.6017    6327.2116    11604.803    1534.4592 
    3400    300.01538    -1105.536     6111.075    11414.907    1576.8856 
    3500    300.45905   -1100.4081    6238.9345    11557.373    1579.6245 
    3600    297.71702   -1087.1184    6472.4128    11745.562    1702.1861 
    3700    301.28397   -1071.5339     6273.629    11638.565    1760.4559 
    3800    300.34264   -1075.4985     6179.869     11520.73    1722.9486 
    3900    298.71304   -1069.2409    6327.8883    11640.193    1801.1757 
    4000    301.94802   -1069.0729    6272.4551    11654.038    1824.0009 
    4100    299.98974   -1085.0097    6347.7913    11671.602    1776.9245 
    4200    306.27523   -1106.8431    6324.9215    11761.179    1726.8739 
    4300    298.33191   -1120.6077    6267.7115    11520.507    1734.8116 
    4400    296.74733   -1118.3686    6289.2958    11510.479    1780.6275 
    4500     301.1991   -1113.1925    6159.2184    11480.682    1665.3309 
    4600    296.23857   -1106.8327    6332.3491    11554.199    1695.2856 
    4700    301.09892   -1098.9678    6522.7241    11856.273    1567.9517 
    4800    302.83098   -1093.3339    6721.5203    12097.706    1625.6047 
    4900    300.27145    -1082.867    6442.9471    11774.919    1590.4131 
    5000    302.31649   -1074.1042    6236.5264     11620.95    1656.3418 
    5100     298.3189   -1066.5344    6257.2485     11563.84    1622.0873 
    5200     298.7583   -1067.4151    6560.6549    11875.753    1565.4999 
    5300    292.99296   -1070.6965    6784.0623    11972.711    1584.9387 
    5400    295.81479   -1068.0666    6552.1067    11803.669     1515.691 
    5500    303.96145   -1069.6783    6246.4046    11670.396    1496.9461 
    5600    301.11417   -1070.5869    6410.7534    11773.009    1691.0043 
    5700    297.89379   -1080.2266    6455.6589    11739.476    1642.1222 
    5800    305.92063   -1082.4315    6611.0069      12064.1    1652.6315 
    5900    300.36812   -1091.8229    6452.8786     11777.96    1649.2948 
    6000    298.56037    -1099.467    6444.2065    11723.024    1699.1058 
    6100    300.33015   -1110.8822    6328.2095     11633.42    1551.6345 
    6200    291.75299   -1115.2033     6331.595    11449.247    1525.7668 
    6300    307.00426   -1123.1355    6390.4965    11826.036    1606.1593 
    6400    298.38821    -1133.724     6354.273    11595.155    1600.6547 
    6500    299.48849   -1140.8832    6314.9356    11572.164    1692.2902 
    6600    300.92399   -1146.8202    6243.4586    11525.418    1741.7717 
    6700    297.31333   -1147.3407    6414.4807    11618.783    1787.6342 
    6800    298.63757   -1148.4882    6402.2717    11633.717    1730.8739 
    6900    301.88052   -1153.5223    6229.7432    11525.435      1718.42 
    7000    295.57803    -1155.897    6196.9847    11355.659    1753.9755 
    7100    304.19069    -1148.465    6247.4615    11597.564     1826.154 
    7200    303.84423   -1159.8327    6248.4361    11579.769    1788.1612 
    7300    298.19968   -1141.5958    6442.6909    11671.674    1879.5544 
    7400    299.70404   -1134.3922    6352.1409    11620.466    1800.8455 
    7500    299.28481   -1143.5532    6212.1602    11462.368     1773.029 
    7600    298.66468   -1149.6887    6275.2893    11506.113    1833.2464 
    7700    298.13003   -1140.1406    6307.3635    11536.314    1799.7252 
    7800    302.49477   -1154.0192    6302.8321     11611.15    1823.8397 
    7900    302.26896   -1146.1306    6371.3707    11682.753    1843.5508 
    8000    303.82146   -1142.5381    6331.3481    11679.489    1777.3974 
    8100    299.01947   -1129.8957    6370.3036      11628.5    1702.9897 
    8200    297.94711   -1130.0085    6369.2428    11604.417     1735.354 
    8300    303.81149    -1118.019    6353.7002    11726.147     1729.301 
    8400    304.91004   -1106.2651    6356.1946    11763.865    1697.2889 
    8500    297.48977   -1103.8353    6450.2254    11701.803    1720.3956 
    8600    294.60305   -1099.5341    6515.1536    11709.362    1714.3673 
    8700    302.06839   -1091.2786    6483.6558    11845.605    1710.1759 
    8800    296.54799   -1092.8314    6480.9712    11723.433     1706.097 
    8900    300.48712   -1089.4532    6475.0158    11805.009    1783.7709 
    9000    301.79172   -1092.7455    6377.4065    11731.978    1685.9174 
    9100    298.16304   -1095.4016    6492.9625    11767.357    1703.3146 
    9200     302.6746     -1097.99    6568.3746    11936.563     1739.834 
    9300    298.91318   -1100.5038    6530.3586    11815.676     1676.966 
    9400    298.09231   -1108.0676    6468.9158    11729.133    1706.7303 
    9500    298.18306   -1115.4174    6464.3035     11719.11    1707.1256 
    9600     301.6793   -1125.3547    6428.7352    11748.296    1651.9382 
    9700    301.93717   -1131.5108    6445.6667     11764.58    1630.9372 
    9800    298.40462   -1139.1927    6425.3073    11661.071    1645.0568 
    9900    295.95694   -1150.2612    6463.8904    11636.295    1715.0534 
   10000    298.09675   -1151.2197    6288.5002     11505.66    1702.3907 
   10100    293.74982   -1154.5841     6265.992    11386.922    1772.7765 
   10200    303.84204   -1157.1716    6397.8948    11731.842    1814.4065 
   10300    297.59681   -1147.5119    6435.2413    11645.429    1845.9409 
   10400    301.30546   -1156.0772     6286.391    11567.243     1856.863 
   10500    296.10297   -1158.4915    6340.4948    11507.789    1864.6591 
   10600    299.93103   -1149.5359    6392.4695      11650.5    1824.1958 
   10700    302.99443   -1155.1488    6435.5943    11753.457    1789.6938 
   10800    298.04589    -1165.612    6390.3947    11592.076    1765.1315 
   10900     305.3184   -1161.4117    6384.6764    11745.924    1785.3922 
   11000    302.44244   -1154.7235    6431.1441    11737.639    1841.5993 
   11100    303.40969   -1162.3263    6244.0123    11563.568    1792.6497 
   11200    298.74983   -1152.8026    6372.2825    11601.812    1920.7621 
   11300    299.39676   -1150.0261    6338.6737      11584.8    1912.1037 
   11400    301.72515   -1145.7089    6305.4237     11605.61    1900.4607 
   11500    295.39365   -1136.7027    6361.8933    11535.823    1827.7026 
   11600    300.03894    -1130.675    6521.0924    11800.289    1869.3543 
   11700    297.37771   -1132.8285    6327.2437    11547.434    1785.8768 
   11800    305.14187   -1122.4001    6389.6414    11786.129    1792.8641 
   11900    297.68606   -1110.7946    6488.5288     11737.34    1739.8018 
   12000    300.22217   -1105.6819     6467.321    11775.425     1750.671 
   12100    301.02939   -1100.6558    6499.9592    11830.335    1749.6415 
   12200     296.7132    -1095.674    6488.1443    11731.293    1745.6995 
   12300    298.33566   -1092.4766    6413.0163    11694.023    1730.3713 
   12400    303.79649   -1092.3531     6501.146    11898.939    1740.6611 
   12500    297.52869   -1091.0938    6474.9415    11740.092    1671.5792 
   12600    299.71792   -1093.8485    6455.4378    11764.603    1740.8206 
   12700    300.53931   -1094.3192    6483.3144    11809.556    1783.7684 
   12800    303.73949   -1099.2135    6406.0972    11795.812    1710.6977 
   12900    297.00491   -1101.2795    6476.7559    11720.531    1809.6076 
   13000    302.02759   -1109.8471    6411.0387    11753.548    1794.4682 
   13100    298.69183    -1116.165     6517.475    11782.403    1744.2894 
   13200    299.43931   -1116.1637    6392.9968    11673.894    1713.5416 
   13300     299.2415    -1122.189    6404.0938     11674.74    1694.0574 
   13400    296.83744   -1119.9727    6412.3347    11633.838    1726.5764 
   13500    301.07603   -1122.3801    6362.5485    11672.196    1804.4049 
   13600    298.85379   -1128.1664    6457.1352    11713.522    1828.1778 
   13700    299.13327   -1116.4349    6484.9831    11759.071    1893.9014 
   13800    297.84649   -1129.3069     6327.986    11561.712    1855.2696 
   13900    298.46496   -1127.0451    6459.7988        11709    1879.4149 
   14000    298.06292    -1130.289    6406.2241    11643.592    1822.9751 
   14100    299.41271   -1119.8075     6397.752    11674.438    1844.3216 
   14200    299.72344   -1123.3433    6517.7415     11797.53    1883.7121 
   14300    301.62254   -1129.8007    6397.6914    11711.594    1793.3954 
   14400     298.5997   -1134.8436    6399.7921    11644.073    1859.0904 
   14500    300.02523   -1139.0658    6336.0897    11606.603    1824.1439 
   14600    304.89401   -1132.3105    6531.5325    11912.815    1842.0534 
   14700    296.88843   -1133.4733    6403.6073      11612.7    1834.9326 
   14800    296.18916   -1125.2929     6414.351    11616.685    1886.6749 
   14900     299.9231   -1124.2691    6400.8103    11683.938    1817.6076 
   15000    296.36105   -1128.7912    6313.5303    11516.038    1735.8252 
   15100    301.65475   -1122.7966     6420.102    11741.696    1832.5021 
   15200    298.22321   -1127.7722    6514.2976    11757.607    1825.5817 
   15300    302.59947   -1129.5871    6404.4169    11739.403    1819.9206 
   15400    298.72772   -1130.8237    6322.3635    11573.399    1775.8931 
   15500    294.02907   -1132.5468    6437.3069     11586.24    1845.2482 
   15600    299.72058   -1140.8485    6369.6857    11631.908    1826.7212 
   15700    299.73758   -1139.8023    6432.9611    11696.592    1805.2231 
   15800    306.23065   -1138.7243    6341.8159     11745.24    1773.9994 
   15900    297.14178   -1139.8569    6461.3388     11669.46    1813.5011 
   16000    301.75406   -1136.0796    6330.5535    11640.986    1783.4143 
   16100    299.98543   -1140.9884      6411.84     11679.58    1847.8118 
   16200    305.05062   -1139.6167    6402.4303    11779.752    1785.6245 
   16300     298.3551   -1145.6551    6492.6845    11720.928    1820.0598 
   16400    302.20861   -1150.8511    6393.7695    11699.142    1750.0085 
   16500    296.40088   -1148.3132    6455.1517    11638.989    1773.4552 
   16600     292.1032   -1146.5096     6463.494    11557.321     1746.592 
   16700     302.1062   -1150.7147    6188.2665    11491.587    1684.3371 
   16800    299.16449   -1143.3885    6412.2949    11660.097    1726.8305 
   16900    300.39716   -1142.0902     6471.393    11746.827    1788.3662 
   17000     299.3796   -1139.7542    6417.9875    11674.019    1881.4133 
   17100    299.36265   -1142.9502    6418.4474    11670.921    1851.5235 
   17200    297.97204   -1142.9213    6425.5673    11648.361    1874.1312 
   17300     300.8537   -1141.3166      6327.04    11613.001    1801.9842 
   17400    303.37222   -1136.9637    6441.4363    11785.555    1883.4898 
   17500    298.85909     -1136.31    6365.5479    11613.904    1758.2432 
   17600    291.89394   -1136.5504     6516.874     11616.19    1806.0405 
   17700    300.98391   -1136.9317     6461.336    11754.464    1800.7153 
   17800    301.01882   -1134.6638    6367.3226    11663.464    1845.5375 
   17900    297.01066    -1132.597    6428.4837    11641.064    1889.3739 
   18000    302.75557   -1136.7502     6390.384    11721.542    1864.4717 
   18100    299.87526   -1136.2309    6377.5774    11647.721     1829.376 
   18200      297.896   -1137.0082    6413.3732    11640.456    1809.6715 
   18300    305.85405   -1137.2854    6403.1249    11799.942      1817.62 
   18400    298.92998   -1146.4157    6388.7492    11628.514    1777.5804 
   18500    299.55694    -1143.142    6357.6052    11614.038     1774.837 
   18600    298.93743   -1140.3903    6414.8408     11660.79    1900.1944 
   18700    298.93312   -1142.4348    6423.0284    11666.841    1871.0106 
   18800    299.95615   -1134.7713    6438.0518    11711.383    1877.8073 
   18900    297.52127   -1140.2834    6406.0762    11621.878    1790.9272 
   19000    301.57994   -1138.8245    6477.9632    11781.931    1800.2766 
   19100    295.85856    -1146.204    6265.6627    11440.023     1771.537 
   19200    299.49059   -1150.4775    6426.4606     11674.14    1848.3294 
   19300    299.12467   -1150.4575    6536.4466    11776.329    1817.0813 
   19400    301.51202   -1144.1375    6359.7822    11656.986    1790.7126 
   19500    302.70154   -1147.2892    6323.7179    11643.183    1841.5047 
   19600    300.29336   -1144.7452    6412.7404    11683.302    1841.7297 
   19700    305.10151   -1141.6631    6322.0191    11698.382    1790.7803 
   19800     293.3726   -1139.1677    6577.0793    11705.367    1828.8619 
   19900    297.04296   -1141.3591    6459.0282    11663.536    1794.2706 
   20000     302.9121   -1138.5616    6446.9065    11779.597    1832.5061 
   20100    304.22329   -1136.8482     6384.137    11746.553    1853.6539 
   20200    298.24913   -1140.3731    6317.7483     11549.01     1857.935 
   20300    304.57502   -1142.1455    6422.1123    11786.745    1869.3626 
   20400    299.45801    -1134.639    6428.9173    11691.739    1858.2693 
   20500    293.63914   -1134.1745    6426.4709    11565.446    1831.4411 
   20600    303.42421   -1133.6048    6384.6949    11733.283    1801.4008 
   20700    302.64506   -1136.3277    6377.8094    11707.029    1810.4274 
   20800    295.68358   -1129.0213    6348.1568    11535.962    1822.2515 
   20900    299.20077   -1132.7547    6321.1208    11580.331    1788.6899 
   21000    302.45428   -1125.3234    6420.4456    11756.594    1850.6028 
   21100    296.06537   -1123.4875     6453.001    11654.496    1911.8093 
   21200     303.3146   -1130.9652    6317.4086    11666.294    1825.5429 
   21300    297.48801   -1130.0148    6386.8751    11612.235    1792.3662 
   21400    299.94968   -1134.9506    6506.5103    11779.524    1859.3208 
   21500     297.9849   -1130.4353    6399.9648     11635.52    1755.3939 
   21600    300.41407   -1128.8574    6421.4076    11710.436    1861.2161 
   21700    301.55451   -1129.9046    6450.6551        11763    1863.3767 
   21800    297.61203   -1130.4079    6463.9912    11691.608     1857.928 
   21900    300.58217    -1129.437    6358.7863    11650.826    1794.8613 
   22000    299.72826   -1128.6959     6479.362      11753.9    1778.8795 
   22100    303.69762   -1128.2501    6531.0082    11890.792    1806.8206 
   22200    302.84736   -1126.6837    6454.2639    11797.449    1766.1618 
   22300    300.48717   -1127.0107    6383.9446    11676.381    1752.8942 
   22400    302.55871   -1128.8142     6422.437    11757.325    1805.6553 
   22500    302.62327   -1131.4038    6470.8494    11804.527    1855.7365 
   22600    299.75954   -1134.4143    6384.7997    11654.288    1889.5332 
   22700     302.3199    -1137.207      6445.47    11766.864    1908.2838 
   22800    301.49919   -1142.7838    6399.7939    11698.078    1783.5846 
   22900     295.8834   -1143.0658    6316.2228    11494.252    1776.1698 
   23000    300.58521   -1149.5274    6458.2993    11730.314    1824.9083 
   23100    299.81246   -1157.4279    6352.6338    11600.239    1891.5847 
   23200    298.01988   -1149.9081    6382.4814    11599.311    1882.1624 
   23300    305.69378   -1143.7461    6447.2584    11834.191    1938.6662 
   23400    301.01619   -1146.3651    6316.7087    11601.093    1907.4125 
   23500    296.08347   -1142.1587    6404.5489    11587.759    1955.3478 
   23600    299.83198   -1150.5878    6381.2607    11636.123    1891.3042 
   23700     303.2166   -1149.5771    6344.2542    11672.435    1784.4207 
   23800     297.2481    -1162.719     6405.379    11592.909     1868.469 
   23900    301.24991   -1160.3238    6461.9205    11737.339    1884.0023 
   24000    302.03632   -1161.1165     6477.662    11769.088    1860.3915 
   24100    301.57344   -1160.1645    6405.6249    11688.114    1893.7546 
   24200    299.72101   -1155.5947    6320.5194    11568.004    1877.6891 
   24300    296.87346    -1148.848    6454.3891    11647.787    1870.7549 
   24400    294.39069   -1149.2467    6365.2348    11505.194    1849.4218 
   24500    304.09077   -1144.7702    6437.3521    11789.015    1898.3991 
   24600    297.82874   -1146.9215    6449.7573     11665.49    1831.5447 
   24700    301.25749   -1148.0355    6259.5059    11547.374    1792.5073 
   24800    299.78248   -1145.0127    6431.5332    11690.913    1895.6505 
   24900    302.86999   -1142.2438    6512.8772    11840.986    1853.4234 
   25000    298.31234   -1142.9981    6491.6342    11721.622     1874.313 
   25100    303.31665   -1143.3344    6413.9658    11750.526    1865.5081 
   25200    302.78087   -1136.0395    6505.4463    11837.855    1810.4713 
   25300    298.04172   -1141.1469    6426.9689    11653.026    1780.4801 
   25400    305.40169   -1142.4081    6388.6026    11770.633    1909.3185 
   25500    299.50157   -1142.5396    6454.1109    11709.963    1956.0419 
   25600      304.824   -1143.3169     6456.407    11825.187    1914.6003 
   25700    301.25321   -1153.2991    6432.6406    11715.154    1890.1763 
   25800    300.53266   -1157.0156    6378.2753    11641.679    1839.8845 
   25900    299.81883   -1160.5118    6347.5512    11592.209    1797.2697 
   26000    301.55797    -1156.849    6411.6553     11697.13    1865.0776 
   26100    297.24373   -1158.3949    6447.7213    11639.483    1909.5443 
   26200    299.25408   -1163.1185    6311.6067    11541.593    1804.5484 
   26300    300.14852   -1155.4969    6370.3446     11627.06    1882.7965 
   26400     296.7571   -1157.3602    6346.9509    11529.351    1881.6544 
   26500    304.53072   -1156.3944    6382.9336    11732.371    1893.2809 
   26600    296.54615   -1158.9147    6373.5094    11549.848    1850.4783 
   26700    299.65635   -1162.6055    6381.2102    11620.303    1833.5251 
   26800    303.46852   -1163.8166    6493.0885    11812.411    1869.8655 
   26900    298.64879   -1170.4407    6394.8001    11604.533    1835.6612 
   27000    297.17122   -1163.2161    6310.8204    11496.211    1867.2376 
   27100    303.15253   -1157.0613    6339.7946    11659.122    1833.4418 
   27200    298.94922   -1154.2471    6572.5342    11804.878    1893.1156 
   27300    298.10302   -1153.1158    6315.5633    11530.961    1825.6441 
   27400    301.35425   -1151.6579    6409.0597    11695.373    1875.1372 
   27500    306.53471   -1153.2694     6330.201    11725.575     1829.362 
   27600    299.44463   -1152.6948    6549.4081    11793.888     1944.578 
   27700    293.53837   -1146.5082    6545.9372    11670.426    1916.6085 
   27800    298.90935   -1147.2302    6418.3005     11656.81    1828.5526 
   27900    295.52531   -1141.2362    6495.4095    11667.618    1900.7603 
   28000    303.05877   -1141.0025    6387.8996    11721.283     1899.883 
   28100    293.35479   -1138.0276    6395.1364    11524.184    1955.7001 
   28200    299.60012   -1137.4996    6406.7556    11669.753     1928.745 
   28300    300.43522   -1136.6297    6511.6462    11793.354    1852.0688 
   28400    300.75212   -1139.1061    6520.5387     11806.54    1897.4901 
   28500    303.60354   -1145.5269    6360.8288    11701.326    1841.3345 
   28600    296.65289   -1146.5131    6375.2078    11566.228    1832.1172 
   28700    301.92274   -1150.1927    6451.7746    11751.698    1864.8344 
   28800    295.07577   -1155.8491    6403.4565    11551.448    1835.8675 
   28900    303.87537   -1155.4104    6413.6805    11750.101    1881.2106 
   29000    300.71893   -1158.9613    6425.0163    11690.454    1883.2549 
   29100    299.16407   -1158.7817    6275.5231    11507.923    1889.8638 
   29200      300.557   -1152.7469    6423.5869    11691.779    2013.7691 
   29300    298.81684     -1152.93     6409.704    11640.537    1950.6367 
   29400    304.32445   -1159.9689    6282.7744     11624.23    1910.0384 
   29500    300.27689   -1163.1812    6413.0358     11664.81    1929.0081 
   29600    297.80198   -1168.9958    6451.6077    11644.694    1897.9873 
   29700    302.25909   -1172.4923    6313.9791    11598.788     1876.994 
   29800    297.29092    -1181.848    6351.7171    11521.033     1840.533 
   29900    299.56134    -1170.923    6400.8971    11629.643    1827.1405 
   30000    301.23032   -1169.3364    6451.9688    11717.956    1861.6694 
   30100    300.23905   -1160.5377    6373.6802    11627.289    1888.9559 
   30200    304.47383   -1162.1302    6395.6142      11738.1    1928.2909 
   30300    297.55766   -1166.8614    6313.2883     11503.29    1865.5924 
   30400      302.979   -1163.3404    6368.9322    11678.273    1803.2696 
   30500    299.17433    -1165.486    6544.3622    11770.277    1909.1874 
   30600    302.73109   -1171.3193    6405.4806    11701.546    1872.8212 
   30700    296.46978   -1165.5911    6424.3569    11592.388    1854.9319 
   30800    303.94046   -1161.1361    6413.4457    11745.531    1889.2097 
   30900    299.75102   -1162.2288    6365.5626    11607.054    1890.3624 
   31000     296.7562   -1158.2155    6384.1859    11565.711    1851.4338 
   31100    301.16871   -1150.6709    6493.8027    11777.139    1965.1581 
   31200    294.24461   -1157.6997    6390.8579    11519.243    1914.0205 
   31300    301.42891   -1149.5326    6406.5827    11696.616    1884.2874 
   31400    304.13509   -1149.7729    6451.7446    11799.351     1843.213 
   31500    296.52622   -1151.8448    6459.5488    11642.532    1901.9081 
   31600    300.36423   -1147.9707    6271.4974    11540.348      1826.11 
   31700    300.00441   -1149.9378     6339.022    11598.218     1806.893 
   31800     297.6584   -1146.7741    6508.0019    11720.243    1926.8424 
   31900     305.9496   -1145.9821    6524.4594    11914.621    1917.2476 
   32000    299.43188   -1140.2083    6363.4124    11620.107    1824.1425 
   32100    300.13486   -1143.7318    6344.4109      11612.6     1911.976 
   32200    299.04963   -1144.5103    6388.9739      11633.2    1913.1688 
   32300    301.11077   -1139.0183    6487.5749    11781.326    1879.5029 
   32400     297.4975   -1138.1988    6407.0469    11624.426    1820.7219 
   32500     299.4783   -1143.7895    6387.6075    11641.712    1865.6362 
   32600    300.43281   -1142.3592    6440.9322    11716.859     1834.342 
   32700      302.446   -1149.2756    6455.1612     11767.18    1768.1678 
   32800    299.05186   -1148.2459    6496.3825    11736.921    1818.0917 
   32900    295.12441   -1144.4742     6462.626    11623.032      1817.85 
   33000    299.17924   -1146.2316    6336.8085    11582.082     1769.421 
   33100     300.9223   -1142.7027    6425.2808    11711.321    1873.1642 
   33200    298.54616   -1142.1877    6535.7088    11771.502     1929.985 
   33300    305.60533   -1143.4414     6319.087    11704.435    1846.9662 
   33400     295.3923   -1146.5298    6319.0743    11483.148    1859.2557 
   33500    301.38228   -1146.9222    6520.4988    11812.146    1864.1031 
   33600    303.29764   -1154.5883     6427.821    11752.721    1801.7141 
   33700    295.51276   -1163.4155    6383.7894     11533.55    1852.3331 
   33800    292.71504   -1162.8023    6377.7961    11468.402    1779.3301 
   33900    299.82337   -1166.1124    6377.6513    11616.805    1841.9929 
   34000     299.3054   -1157.4795    6480.3692     11717.09    1897.1529 
   34100    304.85264   -1160.1982    6484.9678    11837.479    1979.3883 
   34200    300.35215   -1159.3347    6280.2746    11537.503    1930.4505 
   34300    300.35173    -1166.422    6290.6823    11540.814    1956.4529 
   34400    298.68045   -1165.3029    6460.2597    11675.806    1924.6394 
   34500    301.19234   -1160.3262    6465.0672    11739.253    1890.2272 
   34600    301.88371   -1177.0659    6244.7457    11516.962    1818.3042 
   34700    298.42575   -1174.0458    6327.7936    11529.156    1887.6947 
   34800    297.74986   -1170.0738     6430.746    11621.641    1880.8224 
   34900     299.1299   -1172.7747    6274.0551    11491.732     1871.157 
   35000    302.79197   -1164.1262    6420.5415    11725.101    1933.1009 
   35100    302.34218   -1163.7967    6438.9261    11734.206    1891.8283 
   35200     298.3778   -1162.9193    6334.2844    11545.749    1850.7296 
   35300    300.22553   -1161.7427    6337.4205    11589.536    1861.7776 
   35400    304.48588   -1163.1158    6391.5593    11733.317    1867.4469 
   35500      298.009   -1162.9396    6498.8872    11702.453    1946.7264 
   35600    309.90145   -1161.2133    6375.6802    11835.036    1917.9821 
   35700    298.42522   -1158.6557    6467.9603    11684.701    1862.2986 
   35800    297.86988   -1151.3255    6523.8436    11736.051    1861.9195 
   35900    303.29356   -1148.8501    6378.7741    11709.325    1878.0092 
   36000    297.24255   -1146.8448     6452.216    11655.502    1826.9927 
   36100    298.93229   -1144.8349    6466.8792    11708.274    1858.6576 
   36200    306.65392   -1149.4882    6434.7112    11836.413    1893.2572 
   36300    300.24259   -1140.9948    6500.6158    11773.843    1799.4085 
   36400    302.10314   -1140.4568     6466.811    11780.324    1782.2079 
   36500    295.70854   -1140.8893    6464.2651    11640.735    1822.9774 
   36600    299.73222   -1140.8669    6473.4187    11735.871    1808.8661 
   36700    303.45493   -1142.7473    6487.1116    11827.213    1838.3014 
   36800     295.4134   -1143.2968      6437.99    11605.747    1901.8655 
   36900     300.3451   -1142.1312    6438.6839    11712.965    1890.1947 
   37000    302.02726   -1150.5566    6484.2977     11786.09    1929.2131 
   37100     300.1744   -1150.6779    6477.0886    11739.176    1983.7485 
   37200    299.29875   -1149.2809    6375.9937    11620.771    1971.4174 
   37300      300.525   -1151.5492    6377.9275    11646.634    1961.0391 
   37400    306.14036   -1150.2945    6390.4778    11780.402    1990.5093 
   37500    299.94898   -1153.9705    6436.8493    11690.829    1927.9411 
   37600    297.46214   -1157.8823    6421.0465    11617.986    1912.3875 
   37700    306.76098   -1161.3126    6403.6696    11795.835    1885.1214 
   37800    297.57775   -1160.3541    6454.1972    11651.135    1876.5885 
   37900    302.24826   -1162.1565    6351.7487    11646.663    1877.5701 
   38000    301.33953   -1161.2992    6346.5757    11622.933    1839.0269 
   38100    299.67581   -1165.8977    6436.0665    11672.283     1863.699 
   38200    303.31234   -1161.5097    6410.1118    11728.405    1840.9207 
   38300    296.77207   -1166.1099    6412.0309    11586.001    1831.8623 
   38400    302.65582   -1169.7821    6369.8133    11665.808    1898.5698 
   38500    297.37583   -1169.8827    6376.0467    11559.142    1893.5356 
   38600    303.71852   -1171.7806    6436.7153    11753.415    1922.4051 
   38700    300.55498   -1170.5341    6510.3259    11760.688    1973.3468 
   38800    297.27844     -1164.79    6412.2675    11598.375    1940.0856 
   38900    303.09916   -1168.5274    6330.1343    11636.855    1916.1481 
   39000    296.80919   -1168.4912    6353.1955    11525.577    1852.1896 
   39100    300.29613   -1164.0521    6446.1599    11697.474    1832.9094 
   39200    300.15642   -1166.4932     6428.963    11674.851    1847.7339 
   39300    296.46818   -1167.8177    6427.2389    11593.009     1887.402 
   39400    299.26606   -1165.9014    6384.2613     11611.72    1899.6529 
   39500    301.76699   -1161.2918     6405.999    11691.496    1932.2269 
   39600    300.45959   -1163.3797    6428.2388    11683.717    2002.9667 
   39700    303.48428   -1161.8683    6463.3167    11784.924    2019.4254 
   39800    303.27068   -1150.5006    6534.1708    11862.583    1971.7456 
   39900    298.89157   -1161.6937    6400.0737     11623.74    1946.9933 
   40000     296.8508   -1162.9593     6246.465    11425.268    1880.2283 
   40100    304.37085   -1162.1809     6461.423    11801.658    1915.3859 
   40200     296.6989   -1158.0828    6382.0763     11562.51     1815.011 
   40300    304.13051   -1155.2302    6554.0385     11896.09      1946.04 
   40400    300.09153   -1151.6496    6418.9167    11678.262    1913.9032 
   40500    305.12546   -1153.1015    6318.1477    11683.583    1911.1471 
   40600    298.96439   -1155.5789    6368.9108    11600.247    1895.0034 
   40700    296.81592   -1146.9027    6534.2364     11728.35    1946.7589 
   40800    299.40826   -1149.5517    6380.6741     11627.52    1879.2999 
   40900    306.20637   -1151.0172     6350.802    11741.414    1899.2296 
   41000    299.54999   -1153.1714    6487.0355     11733.29    1986.1803 
   41100    301.20673   -1152.0843    6421.7391    11704.474    1957.8096 
   41200    304.31428    -1157.936    6364.2409    11707.513    1934.6572 
   41300    296.34525   -1154.4626     6505.252    11681.751    1936.5518 
   41400     299.7702   -1158.9733    6413.0052    11658.162    1847.7144 
   41500     300.3173   -1154.7948    6457.1449    11718.168    1957.5722 
   41600    302.92152   -1155.9552    6375.9846    11691.483    1934.7273 
   41700    296.68235    -1157.679    6322.5282    11503.013    1877.5126 
   41800     302.1377   -1154.5063    6407.8836    11708.086    1883.4234 
   41900    299.11877   -1157.3817    6458.4231    11691.255     1905.416 
   42000    300.05967   -1153.6243    6392.9015    11649.592    1921.8733 
   42100      299.716   -1152.4618    6403.6317    11654.142    1960.8143 
   42200    300.99922   -1158.9431     6337.933    11609.376    1916.5387 
   42300    297.72532   -1159.6995    6342.3856    11543.131    1907.0038 
   42400    297.28427   -1157.2059    6461.0563    11654.873    1901.0913 
   42500     302.8143   -1161.1882    6429.6557     11737.63    1884.7281 
   42600    296.78488   -1164.6162    6338.4338    11514.171    1857.2905 
   42700    293.79395   -1162.7951    6333.2421    11446.904    1866.5853 
   42800    306.68502   -1155.0738    6455.5526    11852.334    1974.0014 
   42900    297.75977   -1152.6871    6371.7056    11580.199    1911.9595 
   43000     304.5342   -1153.1483    6361.8642    11714.622    1919.2041 
   43100    295.40244   -1156.3549    6395.7596    11550.224    1942.3695 
   43200    300.90939   -1154.7503    6406.3172    11680.034    1987.2057 
   43300    299.66442   -1152.0802    6304.1868    11553.977    1906.6627 
   43400    299.72652   -1154.6184    6452.2292    11700.808    1888.0258 
   43500    299.05714   -1154.1519    6489.9471    11724.692    1902.8449 
   43600    300.61995   -1152.3835    6439.7263    11709.627    1974.6398 
   43700    300.04444   -1150.5126    6281.8243    11541.301    1819.8753 
   43800    299.30924   -1150.8196     6456.472    11699.935    1872.0866 
   43900    295.29014   -1149.4889    6488.5729    11647.505    1860.9235 
   44000    304.22893   -1148.9006     6404.256     11754.74     1865.777 
   44100    300.50203   -1146.3862    6377.7698    11651.148    1863.0001 
   44200    305.95578   -1150.9902    6450.4368    11835.722    1940.3158 
   44300     297.6492   -1146.9066    6495.8316    11707.744    1887.0907 
   44400    306.03109   -1144.7376    6448.4972    11841.644    1855.3814 
   44500    298.56707   -1151.7044    6483.2715    11709.995    1874.0807 
   44600    302.68531   -1155.1648    6351.1406    11662.383    1852.2649 
   44700    300.80559   -1148.9563    6408.8581    11686.152    1863.8967 
   44800    299.42388   -1153.7584    6403.2972     11646.27    1842.5944 
   44900    308.43089   -1151.7491    6543.2101    11980.614    1900.3173 
   45000    297.26949   -1156.1366    6421.3924    11615.962    1821.2046 
   45100    302.20291   -1164.3457    6356.4223    11648.178    1822.6514 
   45200    298.42847   -1159.4195    6443.3289    11659.376    1869.6973 
   45300    299.91075   -1164.9411    6446.1488    11688.341    1908.3074 
   45400    305.40714   -1162.0259    6346.0374    11708.566    1896.5033 
   45500    306.46045   -1162.1341    6432.6838    11817.607    1931.2604 
   45600    298.63479   -1159.3494    6497.3417    11717.866    1928.2267 
   45700    299.59295   -1165.7748    6404.4114     11638.98    1853.2376 
   45800    299.56868   -1169.5824    6380.5415    11610.784    1800.6203 
   45900     298.7161   -1166.3693    6442.3696    11657.612    1949.8754 
   46000    300.21252   -1170.0813    6357.3624    11600.861    1921.5193 
   46100    303.86841   -1175.7882    6422.5598    11738.454      1922.65 
   46200    297.54646   -1167.1387    6406.0618    11595.547     1880.697 
   46300    303.03503   -1165.5092    6473.8684    11782.238    1888.8647 
   46400     294.0317   -1162.5872     6443.481     11562.43    1874.7941 
   46500    298.25198   -1171.7155    6435.2384    11635.219    1978.5034 
   46600    305.02487   -1164.6445    6443.6032    11795.347    1946.3926 
   46700    297.93054   -1169.9966    6375.7324    11570.565    1869.9256 
   46800    298.73005   -1169.1075    6361.9513    11574.753    1889.4266 
   46900    292.40542   -1171.4694    6440.6665     11515.99    1943.9079 
   47000    299.82806   -1166.0642    6506.9636    11746.266     1955.235 
   47100    306.06368   -1161.6776    6338.9034    11715.807    1867.0677 
   47200    299.84626   -1158.9238    6369.9539    11616.785    1960.4226 
   47300    296.77788   -1156.3459     6535.256    11719.114    1992.7008 
   47400    300.52294   -1159.5741    6429.8544    11690.492    1906.0114 
   47500     305.1739   -1159.4744    6350.1363    11710.234    1941.3725 
   47600    301.54545   -1155.1143    6406.8705    11693.812     1937.652 
   47700    304.29009   -1160.8334    6431.5497    11771.407    1817.5805 
   47800    298.24058   -1162.0535    6569.3489    11778.748    1927.5918 
   47900    302.74386   -1152.5019    6390.2247    11705.381    1938.2168 
   48000    297.76649   -1153.5976    6422.7567    11630.483    1895.2728 
   48100    294.52989   -1149.9664    6435.6714    11577.884    1872.3486 
   48200    300.65361    -1150.548    6498.8426    11771.298    1917.7072 
   48300    299.16801   -1150.1785    6485.3751    11726.462    1933.1143 
   48400    298.93241   -1152.1454    6414.2887    11648.375    1948.7395 
   48500    307.84287   -1156.6092    6422.3542    11842.336    1983.7896 
   48600    298.52075   -1150.1831    6480.2932    11707.548    1923.4707 
   48700    302.54182   -1154.0795    6464.3776     11773.64    1912.5212 
   48800    297.98264   -1154.3766    6419.9588    11631.524     1921.619 
   48900    303.96741   -1150.4957    6434.8695    11778.171     1949.921 
   49000    297.11498   -1152.2999    6466.0225    11661.128    1903.0604 
   49100     304.4908   -1154.6723    6424.4787    11774.785    1921.0488 
   49200    297.64418   -1151.7592    6363.9294    11570.881    1855.4121 
   49300    300.87678   -1153.0843    6525.9733     11800.66    1961.4648 
   49400    299.53631   -1164.9304    6398.7254    11632.929    1900.1169 
   49500     301.2083   -1165.8133    6332.1069    11601.147    1850.7484 
   49600    297.49971   -1169.7635    6434.1533    11620.015    1893.2493 
   49700    302.58121   -1169.6167    6460.0156    11754.582    1933.8365 
   49800    301.94772   -1160.4521    6465.5276    11755.725    1935.7593 
   49900    298.93833   -1157.9181    6439.5327    11667.973    1970.7651 
   50000    301.22189   -1166.2377    6280.7115    11549.617    1945.4154 
   50100    302.10322   -1168.8906     6330.778    11615.859    1907.8487 
   50200    300.59169   -1163.1448    6550.9763    11809.512    1894.2445 
   50300    299.26234   -1167.2586    6519.4798    11745.502    1849.0582 
   50400    304.03756   -1171.1619     6470.306     11794.44    1878.9574 
   50500    303.02757   -1172.4744    6269.4027    11570.647    1830.2985 
   50600    294.96247   -1168.5304    6466.6361    11599.526     1957.562 
   50700    300.78831   -1163.4834    6470.5422    11732.939    1899.8503 
   50800    302.00422   -1153.1395    6499.8091    11798.526    1869.6105 
   50900    303.35046   -1161.3704    6429.9563    11749.203    1909.6803 
   51000    296.06446   -1157.4736    6388.6743    11556.164     1926.576 
   51100    301.88768    -1159.859    6345.2462    11634.754    1919.0484 
   51200    295.75572   -1160.0599    6410.6682    11568.975    1892.5709 
   51300    303.57069   -1161.4924    6419.9124    11743.742    1960.4777 
   51400    297.45285   -1160.9751    6423.3746    11617.023    1955.9028 
   51500    303.33819   -1152.1544    6504.0411    11832.242    1940.5302 
   51600    298.32722   -1147.8284    6493.8067    11719.282    1885.0179 
   51700     299.8022   -1153.7888    6352.9178    11603.943    1880.7115 
   51800    297.65701   -1140.3668    6469.8017     11688.42       1981.5 
   51900    297.10437    -1148.864    6406.3381    11604.653    1898.0565 
   52000    303.35896   -1150.5347    6464.0721    11794.336    1903.7774 
   52100    299.12254   -1150.3963     6489.766    11729.664    1843.6026 
   52200    300.70864   -1150.3593    6333.6979    11607.517     1829.603 
   52300    300.36775   -1153.8963    6448.4898     11711.49     1866.734 
   52400    301.41131   -1153.7663    6567.4726    11852.896    1920.9387 
   52500    296.32301   -1152.0862    6372.6549    11551.055    1897.0548 
   52600     297.6995   -1157.1454    6394.6431    11597.391    1922.0663 
   52700    299.35057   -1155.2947    6542.2275    11782.098    1956.0597 
   52800    300.47457   -1156.7282     6412.302    11674.752    1874.0021 
   52900    298.32315   -1157.6832    6402.4388    11617.972    1823.3041 
   53000    301.06372   -1161.8245    6500.4475    11770.387    1871.5737 
   53100    299.60487     -1164.16     6342.475    11578.913    1880.6343 
   53200    300.06499   -1167.5052    6443.9772      11686.9    1916.5754 
   53300    298.86044   -1164.3914    6428.4781    11648.781    1852.9168 
   53400    301.50286   -1170.5355    6416.5508    11687.161    1911.5838 
   53500    299.63833   -1167.1371    6478.4624    11712.638    1954.3214 
   53600    302.69437   -1162.4302    6353.7261    11657.897     1872.903 
   53700    297.74215   -1164.2013    6364.3213    11560.924    1928.9516 
   53800    298.50957   -1161.3739     6424.121    11639.946    1970.8023 
   53900    303.17307   -1162.3631    6425.5199    11739.984    1893.7098 
   54000    299.78092   -1175.2937    6349.6014    11578.667    1873.3351 
   54100    302.51145   -1172.6218    6468.2333    11758.305    1978.7021 
   54200    299.88943   -1176.3336       6395.1    11625.444    1872.3349 
   54300    299.01659   -1177.2031    6396.5183    11607.346    1877.8944 
   54400    303.85709   -1166.0954    6313.3996    11638.745    1906.0188 
   54500    299.49608   -1159.9549     6355.436    11593.755    1901.4852 
   54600    299.39986   -1151.5362    6477.7228    11722.405     1946.813 
   54700    299.19781   -1154.0616    6341.2295     11579.07    1943.4638 
   54800    298.67939   -1156.5914    6315.5219    11539.757    1921.2487 
   54900    294.12262   -1152.9062    6422.4341    11553.006    1894.5174 
   55000    302.72172   -1162.0912    6434.8745    11739.968    1899.5381 
   55100     300.4531   -1159.3458    6496.9236    11756.297    1908.0297 
   55200    299.68438   -1160.4925    6431.1228    11672.927    1851.5774 
   55300    305.44164   -1159.6807    6397.8484     11763.46    1885.9765 
   55400    297.01408   -1157.2452    6439.6313    11627.636    1864.2136 
   55500    300.60462   -1153.9987    6402.7434    11670.701    1830.4427 
   55600    303.51049    -1147.081    6538.7785    11875.733    1944.1797 
   55700    300.91207    -1149.972    6423.8207    11702.373    1922.6704 
   55800    299.12003   -1151.6996    6439.1867    11677.728    1908.0913 
   55900    295.30816   -1148.8571    6448.7225    11608.671    1887.5281 
   56000    297.19217   -1158.9299     6521.526    11711.651    1921.1943 
   56100    301.45812   -1159.8166    6420.5587    11700.932    1832.8704 
   56200    299.33237    -1166.536    6490.1433    11718.384    1858.2738 
   56300    299.63088   -1164.0652    6323.9137    11561.003    1831.7845 
   56400    304.55663   -1158.2272    6416.9289    11765.087    1861.0633 
   56500    292.52642   -1155.8379    6543.9139    11637.454    1885.5311 
   56600    299.81921   -1152.9159    6435.9079    11688.169     1952.173 
   56700    300.34802   -1156.2357     6415.111     11675.35    1927.1405 
   56800    296.64888   -1159.0422    6264.7496    11443.156    1858.2239 
   56900    302.28164   -1164.4436    6455.4845    11748.824    1936.9971 
   57000    295.53911   -1164.8168    6441.3095    11590.232    1850.6841 
   57100    303.33702   -1164.9415    6461.3947    11776.783    1825.1466 
   57200    306.31767   -1169.8445    6375.9646    11750.127    1830.1892 
   57300    300.19816   -1164.6246    6402.5458    11651.194    1856.0777 
   57400    303.91527   -1163.4484    6408.7028    11737.938    1814.1903 
   57500     297.1958   -1165.5942    6304.8642    11488.402     1845.841 
   57600    302.26199   -1157.5302    6398.7327    11698.566    1876.8657 
   57700    300.30087   -1161.8775    6420.2975    11673.887    1869.3447 
   57800    297.92853   -1163.3895    6342.9939     11544.39    1878.9289 
   57900    295.32618   -1163.4509    6484.4066    11630.146    1955.7303 
   58000    302.01333   -1163.5231    6422.5821     11711.11    1866.8794 
   58100    300.20587   -1168.4004     6399.691    11644.728    1858.1182 
   58200    293.34222   -1164.0861    6492.3655    11595.086    1866.1768 
   58300    303.69876   -1164.3669    6386.2147    11709.906     1856.103 
   58400     294.6401   -1159.2471    6357.7962    11493.083    1852.5908 
   58500    302.64471     -1157.44    6393.8853    11701.985    1899.3422 
   58600    297.96923   -1160.4722    6502.8935    11708.077    1899.1006 
   58700     300.3038   -1156.3767     6428.062    11687.215    1876.4097 
   58800    302.40668   -1155.8431    6299.7434    11604.355    1879.8694 
   58900    292.81622   -1158.4073    6390.4368    11487.599      1865.19 
   59000      298.756     -1161.37    6529.4928    11750.586    1906.0656 
   59100    298.96948   -1161.8821    6419.0982     11644.24    1804.6598 
   59200    302.60707   -1159.9902    6455.7536    11760.499    1833.2841 
   59300    300.03917   -1163.8454    6401.9519    11647.983    1792.5168 
   59400    298.95279   -1160.1174    6556.2578    11782.808    1936.6552 
   59500    303.80629   -1155.9573    6410.4585    11744.857    1873.0022 
   59600     300.1263    -1155.966    6455.9722    11711.744    1890.0912 
   59700    299.80374    -1152.163    6399.6795    11652.363    1881.9257 
   59800    306.31515   -1153.6802    6388.4401    11778.713    1836.1899 
   59900    300.78804   -1158.4821    6492.1744    11759.567    1896.3007 
   60000    299.49872   -1160.6559    6369.9842    11607.659    1880.2062 
   60100    298.97268   -1152.3863    6399.7358    11634.442    1872.0529 
   60200    300.19468   -1159.4307    6413.3461    11667.114    1861.9989 
   60300    299.92496    -1156.177    6452.5676    11703.827    1864.1551 
   60400     299.8943   -1157.0771    6429.0113    11678.716    1885.5004 
   60500    296.62609   -1157.7613    6437.6343    11616.834    1891.4068 
   60600    297.66193   -1156.5962     6413.338    11615.832    1889.0032 
   60700    298.87064   -1158.1099    6333.1485    11559.951    1854.3097 
   60800    296.14079   -1153.1472    6484.3236     11657.77    1884.9464 
   60900    303.88956    -1154.707    6409.4083    11746.836    1862.8663 
   61000    297.37564   -1155.8343    6357.5198     11554.66    1885.0619 
   61100    301.90071   -1159.8727    6447.0931    11736.866    1943.3757 
   61200    296.77399   -1163.4432    6295.7441    11472.422    1875.9516 
   61300    300.12557   -1163.7108    6436.7264    11684.738    1878.4628 
   61400      300.983   -1161.0741    6535.6241     11804.59    1846.5008 
   61500    296.68011   -1161.3366    6401.7379    11578.517    1810.5644 
   61600    301.08451    -1156.605    6411.5482    11687.152    1915.0198 
   61700     302.0879   -1157.6631    6472.8515    11768.833    1958.7782 
   61800    299.13606   -1154.7428    6308.1395     11543.98    1792.0433 
   61900    297.88644   -1157.6296    6453.3158    11659.573    1868.9535 
   62000    295.78265    -1159.147    6509.3223    11669.118    1922.2599 
   62100     301.6495   -1162.5597    6489.1218    11770.841    1907.5284 
   62200    294.43132   -1164.9338    6383.6137    11508.753    1910.7684 
   62300    301.66947   -1167.9592    6384.6214    11661.368    1950.6551 
   62400    299.88705   -1169.5703    6387.0185    11624.075    1847.7724 
   62500    298.78557   -1164.8162    6490.7726    11709.052    1896.8121 
   62600    293.61511   -1166.6264     6508.889    11614.899    1985.8993 
   62700    302.41177   -1162.8356    6274.8862    11572.614    1925.6186 
   62800     297.6842   -1164.8208    6306.8191    11501.564    1878.0916 
   62900    299.68437   -1158.4894    6399.4067    11643.214    1944.7522 
   63000     300.2434   -1159.2157    6461.8838    11716.908    1991.2892 
   63100    298.44283   -1160.0375    6338.3386    11554.074    1931.6542 
   63200    306.08084   -1167.7514    6419.3538     11790.55    1982.9715 
   63300     300.8601   -1175.5505    6482.5835    11734.447    1951.4994 
   63400    296.59934   -1162.2495    6482.5566    11656.697    1950.1842 
   63500    304.20385    -1173.114    6319.7115    11645.446    1914.1523 
   63600    292.99793   -1167.8158    6408.4689    11500.104    1934.1355 
   63700    300.44303   -1163.9416    6436.4798    11691.043    1895.8909 
   63800    298.74372   -1160.5101    6443.3446    11665.036    1915.7054 
   63900    303.79495   -1164.7493    6362.6865     11688.05    1932.8824 
   64000    298.61032   -1161.1778     6474.197     11692.37    1949.6314 
   64100    302.12587   -1164.2346    6441.7768    11731.998    1901.1369 
   64200    294.37152   -1159.9947    6400.0162    11528.817    1913.9773 
   64300    300.38108   -1160.9429    6462.5233    11718.761    1984.5873 
   64400    300.56469   -1162.8562    6426.8402    11685.087    1908.5454 
   64500    297.66739   -1157.8263    6409.4678    11610.849    1886.1466 
   64600    300.46864   -1158.4352    6471.8575    11732.474    1922.6005 
   64700    300.08037   -1163.7153    6450.7251    11697.766    1967.2369 
   64800    300.10742   -1160.2899    6323.7036    11574.748    1894.0177 
   64900    300.64245   -1158.2344    6444.3065    11708.837    1925.9303 
   65000    299.59849   -1150.6485    6515.5512    11765.365    1979.3102 
   65100    294.38463     -1155.11     6385.205    11519.171    1885.5486 
   65200     298.5224   -1154.6147    6399.0986    11621.957    1879.3386 
   65300    304.20126   -1158.9503    6454.7862    11794.629    1996.1573 
   65400    305.64707   -1165.0594    6465.7509    11830.372    1942.4762 
   65500    297.03579   -1166.8195    6429.7488    11608.643    1899.3995 
   65600    297.78337   -1163.9967    6337.5392    11535.227    1927.7267 
   65700    300.80252    -1169.956    6383.3398    11639.568    1924.0141 
   65800    298.90845   -1168.7309    6431.9678    11648.957    1901.2958 
   65900    297.27505   -1161.4358    6375.2044    11564.594    1898.2497 
   66000    299.28024   -1156.2326    6452.3749    11689.805    1992.5374 
   66100    300.36837   -1161.2654     6428.024    11683.668    1906.7749 
   66200    300.86827     -1166.61    6456.4418    11717.421    1941.9081 
   66300    297.58146   -1167.3512    6291.7766    11481.797    1939.0942 
   66400    300.48399     -1168.43    6327.2144    11578.164    1877.3903 
   66500    294.87761   -1175.0435    6574.3813    11698.946     1888.457 
   66600    300.05084    -1168.341    6406.6072    11648.392     1908.966 
   66700    297.03917    -1170.861    6381.3673    11556.292    1886.9238 
   66800    294.61988   -1167.5017    6396.8441    11523.444     1876.397 
   66900    301.68795   -1166.2578    6364.7365    11643.579    1964.2424 
   67000    299.98564   -1160.7403    6436.3172     11684.31     2042.386 
   67100    300.20954   -1165.3976    6396.1568    11644.275     1938.723 
   67200    298.75731   -1167.7512    6514.5036    11729.244    2008.7978 
   67300    298.11253   -1158.8271    6356.5408    11566.431    1974.2097 
   67400     302.5316   -1162.7193    6489.7892    11790.193    1964.7663 
   67500    298.25577   -1160.3354    6482.6774    11694.119    1872.3284 
   67600     301.9326    -1163.683    6308.5845    11595.228    1881.4826 
   67700    298.60913   -1164.3805    6374.1481    11589.094    1918.6616 
   67800    298.33398   -1159.0626    6476.7113    11691.096    1896.0977 
   67900    301.83168    -1155.955    6476.0231    11768.239    1958.2352 
   68000    301.25601   -1153.1833    6396.8646    11679.554    1887.3578 
   68100      297.713   -1155.3643     6381.454    11586.271    1926.8272 
   68200    298.55469   -1155.5289    6429.6527    11652.287    1892.6813 
   68300    297.73237   -1151.7507    6443.6517    11652.496    1873.2211 
   68400    299.76947   -1159.1936    6427.5103    11672.432    1906.6651 
   68500    296.94816   -1156.3852    6406.9891    11594.446     1811.995 
   68600    296.50525   -1158.5838    6554.0665    11729.862    1898.1102 
   68700    303.67531   -1158.9347     6374.785    11703.407    1912.3025 
   68800     300.4742   -1159.6368    6351.6424    11611.176    1943.3466 
   68900    302.27483    -1158.556    6493.7276     11792.81    1966.9182 
   69000    296.47019   -1154.2448    6482.1304    11661.516    1931.4227 
   69100    300.56189    -1156.936    6419.8839    11683.991    1924.3505 
   69200    301.65457    -1161.939     6344.733    11627.181    1917.2393 
   69300    295.67439    -1162.557    6361.4429    11515.516    1948.2977 
   69400    301.22381   -1163.7239    6483.5706    11755.031    1987.9124 
   69500     303.9078   -1165.8206    6458.9631    11785.666    1892.3444 
   69600    294.47507   -1165.1854    6435.7519    11561.575     1935.421 
   69700    302.62364   -1161.4241    6393.0329    11696.698    1882.5682 
   69800    293.44212   -1157.5428    6595.2325     11706.63    1893.7392 
   69900     299.1222   -1166.5479    6415.5457    11639.285    1825.4826 
   70000    302.94044     -1170.84    6254.8906    11555.908    1830.0429 
   70100    298.62396   -1167.4917    6467.6387     11679.79    1913.8732 
   70200    300.63549   -1165.2624    6471.9743    11729.328    1899.7015 
   70300    295.40638   -1170.9025     6293.657    11433.658    1835.7244 
   70400    298.67261   -1165.9005    6398.0873    11612.869    1946.7167 
   70500    299.79903   -1161.6146    6364.2684      11607.4    1894.2147 
   70600    301.32019   -1162.3387    6424.3631    11699.268    1877.5167 
   70700    297.74655   -1166.9388    6422.2452    11616.205    1846.9482 
   70800    299.02687   -1165.1896    6483.0065    11706.067    1847.1632 
   70900    305.90116   -1163.6375    6415.0263    11786.498    1874.3751 
   71000    299.33407   -1161.6539    6366.3862    11599.545    1893.5691 
   71100    303.88892   -1165.4513    6411.4593    11738.129    1898.1959 
   71200    297.87019    -1164.362    6464.0786    11663.256    1866.1805 
   71300    299.94901   -1161.4934    6453.6952    11700.152    1911.7299 
   71400    305.95031   -1156.9349    6381.6133    11760.837    1937.0037 
   71500     301.9765   -1160.6968    6427.7222     11718.29    1903.4822 
   71600    296.58102   -1159.3322    6378.5883    11555.255    1901.6028 
   71700    305.41312   -1166.7417    6361.1028    11719.044    1918.9218 
   71800    298.05106    -1162.336    6355.1478    11560.215    1803.3639 
   71900    300.82552    -1159.927    6435.7059    11702.455    1861.5732 
   72000    300.53292   -1158.8473     6480.611    11742.188    1979.6333 
   72100    301.69853   -1153.5836    6506.4716    11798.214    1966.1451 
   72200    297.66318    -1156.173    6354.1443    11557.088     1880.534 
   72300    303.81034    -1158.837    6469.8213    11801.426      1928.39 
   72400    298.77207   -1159.5389     6415.247    11638.515    1877.5493 
   72500    305.67742   -1160.0973    6420.2786    11790.511    1896.7223 
   72600    297.41856   -1162.4037    6433.5782    11625.066    1874.1756 
   72700    304.88626    -1164.974     6469.289    11817.742    1812.2567 
   72800    299.17228   -1158.8283    6504.2417     11736.77    1861.5777 
   72900    299.40833   -1163.5954    6308.2689    11541.073    1901.4888 
   73000    299.09658   -1165.9952    6287.9166    11511.661    1905.1398 
   73100    302.26429   -1165.0819    6523.9699    11816.301    1994.4722 
   73200    294.42885   -1161.0353    6450.9967    11579.982    1927.2647 
   73300    305.75139   -1162.3269    6447.9929    11817.575     1927.693 
   73400    301.94203   -1159.5128    6440.3467    11731.362    1894.3811 
   73500    298.34887   -1162.5404    6462.4491    11673.674    1930.8979 
   73600    300.09377   -1155.9897    6398.6725    11653.726    1927.0614 
   73700    296.59568   -1159.4806    6384.1464    11560.977    1916.8892 
   73800    302.13431   -1161.6683    6410.2941    11703.262    1932.8966 
   73900    293.09354     -1160.67    6530.5251    11631.349    1939.2572 
   74000     298.7213    -1163.475    6440.1049    11658.352    1889.4712 
   74100    300.42051    -1162.642     6424.787    11680.168     1944.471 
   74200    305.39218    -1164.833    6355.2966    11714.699    1946.3467 
   74300     299.4403   -1157.5311    6467.6225    11707.174    1938.4874 
   74400    292.40914   -1161.7422    6418.0546    11503.185    1940.9024 
   74500    302.97725   -1165.8543    6438.1167    11744.907    2064.9387 
   74600    295.17158   -1158.1566    6411.0959    11558.827    1936.3618 
   74700    302.05019   -1163.2313    6420.8086    11710.416    1932.0481 
   74800    299.64927    -1156.771    6414.8873    11659.663    1933.4495 
   74900    297.33701   -1158.3586    6488.0924    11681.883    1962.2674 
   75000    302.45027   -1164.2366     6410.098    11707.247    1935.7207 
   75100    296.53024   -1164.1234    6405.3781    11576.168    1939.5013 
   75200    299.75485   -1163.9928     6534.144    11773.954    1985.3029 
   75300    304.65558   -1164.9458    6332.9835    11676.537    1865.2117 
   75400    296.52904   -1164.2766    6422.6757    11593.287    1923.1251 
   75500    304.08669   -1157.9283    6450.3905    11788.808    1930.8367 
   75600    297.16847   -1162.1824    6354.7217    11541.088    1879.7764 
   75700    296.74752   -1164.6109    6410.8432    11585.788    1901.3657 
   75800    301.12886    -1167.135    6386.5404    11652.561    1949.2882 
   75900    298.95423   -1171.8693    6416.5843    11631.413    1905.1887 
   76000     300.8553   -1169.1147    6459.9536    11718.151    1941.8345 
   76100    301.23865    -1171.657     6378.012    11641.856     1904.983 
   76200    304.16919   -1166.0687     6426.919    11758.958    1974.7222 
   76300    297.65319   -1162.0245    6443.1507     11640.03    1944.3627 
   76400    300.05426   -1166.4718    6567.8791    11811.606    2031.3831 
   76500    299.55909    -1163.816    6331.5282    11567.333    1940.4578 
   76600    299.15502   -1165.9123    6432.4385    11657.514    2026.7482 
   76700    300.84702   -1162.0076    6361.2961    11626.424    1865.8357 
   76800    306.20774   -1163.4273    6419.4823    11797.714    1884.4894 
   76900     300.8898   -1166.4471    6469.3947    11730.996    1959.2149 
   77000    303.55607   -1167.2373    6387.5979     11705.37     1905.865 
   77100    300.02642   -1157.5114    6363.3293    11615.422    1902.6622 
   77200    300.60993   -1158.7954    6516.4635    11779.738    1973.4075 
   77300      301.298   -1163.1865    6457.6064    11731.189    1886.3979 
   77400    301.68572   -1157.9734    6290.5147    11577.594    1849.2088 
   77500    296.60384   -1156.1287    6448.4125     11628.77    1936.8041 
   77600    299.68729   -1163.5598    6553.3261    11792.125    1955.7213 
   77700    302.39619   -1159.3771     6494.545    11795.398    1919.0149 
   77800    297.17322   -1157.6618    6425.9748    11616.963    1911.7602 
   77900    297.44512    -1154.002    6416.0286    11616.485    1897.8458 
   78000    295.60748   -1161.1882    6400.0223    11554.034    1898.1124 
   78100    303.47371   -1164.2164    6440.7652    11759.799    1887.5991 
   78200    301.42834   -1157.2294    6458.0227    11740.347     1848.601 
   78300    296.67125   -1158.2746    6391.8592    11571.511    1836.1328 
   78400    296.68466   -1161.8669    6365.2291    11541.575    1822.2814 
   78500    297.86599   -1167.1524     6477.609    11673.906    1919.4836 
   78600     297.6072   -1162.6076    6367.6408    11562.954    1857.5782 
   78700    304.00497   -1158.9205    6504.4256    11840.105    1966.1871 
   78800    297.11393   -1160.5526    6458.0079    11644.838    1967.4394 
   78900    302.66802   -1162.3183    6301.4746    11605.194    1906.9964 
   79000    299.55885   -1163.8167    6401.7334    11637.532    1938.7111 
   79100    300.07368   -1168.9675    6391.5155    11633.162    1855.5281 
   79200    300.66333   -1167.2052    6485.5025    11741.508    1892.9912 
   79300    301.53276   -1169.6739    6448.7785    11720.889    1904.4642 
   79400    294.66127   -1168.7775    6435.0969    11561.305     1852.343 
   79500    298.02462    -1172.512    6364.6501    11558.977    1870.1021 
   79600    300.86622   -1170.4975    6413.6297    11670.677    1943.2526 
   79700    297.34368   -1172.5064    6368.9523    11548.737    1925.0167 
   79800    296.96297   -1160.0684    6518.6684    11702.758    1923.8673 
   79900    299.97972   -1162.8144    6442.3716    11688.164    1938.9782 
   80000    300.75046   -1167.1021    6451.5047    11709.475    1934.0981 
   80100    300.28219   -1163.5873    6388.3305    11639.811    1910.6498 
   80200    302.24283   -1159.8972    6368.1154    11665.172    1956.4961 
   80300    298.99743   -1167.2248     6355.731    11576.128    1894.8603 
   80400    297.60172   -1165.5056    6468.7137    11661.012    1869.4543 
   80500    303.82384   -1165.0459    6452.0034    11777.688    1900.8681 
   80600    301.66867   -1165.4372     6496.747    11775.998    1984.6648 
   80700    295.45178   -1161.7221    6480.8654    11631.017    1907.1798 
   80800    297.28906   -1161.3432    6305.2121    11494.994     1846.765 
   80900    299.64725   -1150.0847    6455.2047    11706.624    1907.3797 
   81000    298.89573   -1155.2211    6460.2527     11690.48    1913.3165 
   81100    300.79855     -1155.93    6420.2901     11690.46    1845.1452 
   81200    300.06434   -1160.5851    6473.5563    11723.385    1925.7872 
   81300    298.79383   -1161.6492    6452.1759    11673.798    1920.6861 
   81400    298.61927   -1160.2019    6371.9157    11591.256     1890.548 
   81500    300.89675   -1158.4017    6361.7769    11631.573    1872.3825 
   81600    298.97208   -1156.0484    6529.8013    11760.833    1928.1928 
   81700    298.50403   -1164.6152    6353.8437    11566.309    1827.7733 
   81800      298.707   -1160.3646    6295.3234    11516.375    1839.8209 
   81900    302.31655   -1159.3625     6509.126    11808.293    1937.4867 
   82000    300.73809   -1162.8076    6534.7695     11796.77    1888.2426 
   82100    302.52987    -1162.944    6416.9585    11717.101    1932.9878 
   82200    297.49716   -1165.5302    6349.8049    11539.845    1936.8762 
   82300    300.30983    -1171.764    6442.3195    11686.214    1910.1668 
   82400     303.0737   -1173.1604    6488.4665    11790.011    1948.9941 
   82500    299.34934    -1172.687    6504.1156    11726.568    1960.1673 
   82600     296.7959   -1163.9212    6426.9999    11603.668    1917.2173 
   82700    304.62416   -1164.2756    6431.5681     11775.12    1970.1533 
   82800    297.60297   -1163.3029    6345.9111    11540.439    1925.6627 
   82900    297.66227   -1161.5945    6247.1908    11444.694    1902.8615 
   83000     301.1788   -1166.5072    6408.7104    11676.426    1943.1195 
   83100    301.87329   -1164.8606    6531.6712     11815.87    1960.6426 
   83200    297.12938   -1165.5136    6484.9713    11667.171    1915.9292 
   83300    304.96641   -1172.5263     6337.347     11679.96    1866.8529 
   83400    294.45509   -1169.7321    6332.6258    11453.475    1846.7238 
   83500    301.26692   -1165.4449    6368.4228    11639.083    1860.5378 
   83600    296.07274   -1167.6433    6409.3541    11566.851    1902.1935 
   83700     301.1178   -1161.0481    6502.0263    11773.898    1938.2086 
   83800    298.67998   -1158.1414         6566    11788.698    1958.9495 
   83900    302.91288   -1160.0663    6343.5908    11654.793    1912.0587 
   84000    296.02346   -1160.2293    6347.0245    11510.882    1916.4586 
   84100    302.62409   -1158.3121    6543.0822     11849.87    1934.2125 
   84200    300.31074    -1161.947    6419.2699    11673.001    1799.8034 
   84300    297.90985   -1164.3124    6477.6931    11677.768    1926.1243 
   84400    302.87699   -1164.9869    6474.2074    11779.723    1912.4614 
   84500    297.99151   -1162.0998    6438.6968    11642.728    1865.7606 
   84600    304.86708   -1162.0884    6514.3531    11865.282     1959.184 
   84700    297.40711    -1159.092    6515.8284    11710.383    1931.6171 
   84800    300.24717   -1157.9956     6322.771    11579.096    1841.6005 
   84900    294.31084   -1164.2349    6362.0213    11485.286    1983.5344 
   85000    302.68414   -1162.7852    6410.7047    11714.302     1966.298 
   85100    299.38327   -1157.5511    6462.1513    11700.464    1937.3606 
   85200    299.38127   -1155.0902    6449.6465    11690.378     1959.866 
   85300    302.58684   -1167.2041    6344.2844    11641.384    1875.2211 
   85400    296.33607   -1167.7265    6433.2973    11596.336    1884.1634 
   85500    304.27284   -1167.0911     6456.023    11789.254    1974.8087 
   85600    301.67215   -1171.2648    6451.1821     11724.68    2002.2154 
   85700    293.62103    -1171.138    6360.3061    11461.931    1904.7235 
   85800     299.9513   -1169.5944    6230.1107    11468.516    1868.3372 
   85900    295.53643   -1168.5162    6541.8509    11687.017    2003.2403 
   86000    298.59601   -1160.2967    6506.6998    11725.449    1928.9884 
   86100    302.29827    -1167.994    6452.1087    11742.253    1938.4741 
   86200    299.55565   -1170.2926    6302.0208    11531.275    1891.5538 
   86300     301.7067   -1171.4887    6424.9926    11699.005    1949.6742 
   86400    299.44429   -1171.0836    6437.4505    11663.535    1883.9194 
   86500    302.30225   -1171.7812    6440.6257    11727.068    1899.9968 
   86600    302.58753   -1162.8576    6421.7009    11723.162    1832.4497 
   86700    299.70293   -1163.9157    6409.9686    11648.746    1852.9938 
   86800    299.39617   -1165.0094    6389.3442    11620.475    1923.0178 
   86900    302.99829   -1167.6497    6344.1183    11649.562    1927.9705 
   87000    295.68993   -1164.7691     6504.153    11656.346    1923.7363 
   87100    304.07012   -1161.1838    6366.8643    11701.672    1919.1523 
   87200     297.6174   -1158.1794    6298.5108    11498.471     1846.751 
   87300    301.33726    -1161.288    6452.7935    11729.114    1878.2029 
   87400    297.53419   -1158.4346    6549.3369    11747.264    1867.3278 
   87500    300.01828   -1159.4125    6301.1126     11551.13    1801.3172 
   87600    298.34506   -1160.8734    6456.2297    11669.041    1838.3919 
   87700    302.24479   -1158.4923    6549.7818    11848.286    1932.1226 
   87800     298.3867   -1157.7455    6395.9094    11612.738    1861.0105 
   87900    300.25097   -1161.0755    6364.3764    11617.702    1940.8595 
   88000    299.74218   -1156.6067    6459.9776    11706.903    1930.8923 
   88100     303.6852   -1159.2415    6441.1267    11769.654     1930.962 
   88200    297.51886   -1160.6422    6417.4744    11612.866    1923.5968 
   88300    300.94265   -1159.3526    6463.8697    11733.695    1879.8935 
   88400    297.75957   -1155.1139     6502.341    11708.403    1887.4084 
   88500    302.74794   -1162.7545    6369.0293     11674.02    1906.1824 
   88600    299.43285   -1161.0564    6302.6278    11538.495    1813.6993 
   88700    298.33894    -1163.885    6481.2852    11690.954    1843.8907 
   88800    302.45179   -1164.7894     6510.907    11807.536    1903.7802 
   88900    294.37272   -1164.7822     6444.255    11568.294    1894.9699 
   89000     296.8093   -1165.1359    6346.1148    11521.854    1844.1275 
   89100    301.84266   -1163.4209    6460.6491    11745.633    1937.8664 
   89200    302.27696   -1168.5006    6343.9778    11633.161    1890.4217 
   89300    296.00658   -1159.9683    6395.9262    11559.684    1858.0131 
   89400     302.3884   -1167.8019    6427.0924    11719.355    1875.9956 
   89500    299.46085   -1168.3199    6478.0671    11707.269    1915.3225 
   89600     301.6836   -1169.8294    6419.0762    11694.254    1882.1917 
   89700    302.86129   -1172.1249    6384.0613    11682.103    1877.5879 
   89800    296.58606   -1170.4675    6451.8058    11617.444    1883.8947 
   89900     298.8932   -1166.7279    6374.3654    11593.032    1877.1328 
   90000    300.55722   -1165.0037    6447.6837    11703.624    1916.6922 
   90100    301.47768   -1164.4334    6364.1889    11640.364    1858.5713 
   90200    299.85767    -1162.007    6407.4386    11651.431    1891.9332 
   90300     304.0043    -1166.356    6385.5811    11713.811    1868.6033 
   90400    299.71297    -1163.816    6433.6207    11672.712    1876.6596 
   90500    294.16699   -1164.2839    6519.6287    11639.771     1872.034 
   90600    301.55126    -1166.414    6408.3276    11684.094    1876.4783 
   90700    298.95844   -1163.0919    6379.9698    11603.666    1904.4538 
   90800    303.88063   -1162.6113    6410.1688    11739.501    1882.2536 
   90900    297.70337   -1162.9046    6515.8319    11712.903     1958.939 
   91000    294.68406   -1156.4933    6516.5003     11655.48    1922.9003 
   91100     300.3181   -1162.8302    6451.7275    11704.733    1867.0617 
   91200    302.37717    -1159.458    6307.3218    11607.688    1898.2897 
   91300    299.17963   -1159.0756    6540.0778    11772.516    1969.8258 
   91400    300.52223   -1165.9104    6431.3259    11685.612    1911.8673 
   91500     301.8613   -1169.0828    6327.5709    11607.292    1850.1775 
   91600    300.46983   -1161.0363    6608.1217    11866.162    1943.6539 
   91700    304.90076   -1162.4976    6378.5157    11729.755    1865.3818 
   91800    300.35304   -1166.4809     6451.496    11701.597    1944.0964 
   91900    302.44919    -1165.889    6555.7486    11851.222    2000.4193 
   92000    303.11253   -1162.0397    6438.6929    11752.187    1958.6845 
   92100    301.50656   -1163.3181    6357.5285    11635.435    1949.5032 
   92200    298.59501   -1157.0962    6466.7961    11688.724    1899.5137 
   92300    302.58224   -1160.7576    6450.1182    11753.566    1888.4338 
   92400    301.79637   -1165.2084    6335.7632    11617.971    1929.1865 
   92500    304.20325    -1165.908    6479.8843    11812.812    1987.5793 
   92600    305.52477   -1166.3093     6454.137    11814.896    1982.0393 
   92700    299.17009   -1164.5452    6403.5419    11630.307     1941.775 
   92800    297.52165   -1163.2809    6451.2461    11644.059    1903.2892 
   92900    304.13584   -1168.5433    6438.2389    11767.091    1863.9971 
   93000    299.81692   -1167.3732    6526.5879    11764.343    1962.9046 
   93100    299.49498   -1167.5103    6434.7008    11665.441    2006.6609 
   93200     300.2515   -1169.1933      6417.59    11662.809    1916.7817 
   93300      300.011   -1165.4893    6472.6522    11716.438    1884.0252 
   93400    294.97367   -1155.6177    6457.3487    11603.391    1904.9555 
   93500    299.91251   -1164.2043    6355.5246    11598.491    1900.0697 
   93600    301.15585   -1166.1711    6472.2354    11739.797     1927.836 
   93700    295.03293   -1163.1944    6347.8998    11487.631    1861.4656 
   93800    299.98111   -1161.2813    6387.0755     11634.43    1870.9685 
   93900    299.93839   -1157.4413    6547.5531    11797.835    1910.7274 
   94000    298.96652   -1160.8726    6400.5159    11626.604    1958.2325 
   94100    298.90021   -1157.7105     6409.946     11637.78    1933.5911 
   94200     303.1325   -1159.8896    6562.2519    11878.323    1940.1893 
   94300    300.68114   -1162.1202    6383.1276    11644.599    1903.1067 
   94400    291.51448   -1166.6894    6333.8586    11394.929    1884.0462 
   94500    305.58964   -1163.9751     6462.064    11826.543    1915.4013 
   94600    296.38075   -1162.6658    6314.7779    11483.832    1821.7582 
   94700    302.75499   -1163.8277    6473.3722     11777.44    1886.7202 
   94800    300.96041   -1158.1707    6507.6385    11779.025    1877.1812 
   94900    300.75975   -1160.2938    6429.8578    11694.834    1897.3764 
   95000    296.36398   -1162.4521    6306.4037    11475.313    1877.1945 
   95100    301.24386   -1163.7326    6411.0449    11682.925     1864.517 
   95200    303.08358   -1165.6951    6554.3265    11863.547    1954.6909 
   95300    297.83637   -1166.9959    6422.5147    11618.336    1871.3557 
   95400    300.41352   -1167.3983    6487.6447     11738.12    1897.8349 
   95500    302.40078    -1170.578    6448.9903    11738.741    1923.3805 
   95600    295.93684   -1168.9242    6385.2223    11538.535    1921.6054 
   95700    303.77456   -1163.4689    6475.7191    11801.928    1952.7461 
   95800    298.35555   -1164.0068     6384.872    11594.774    1819.3478 
   95900    302.58133   -1167.1655    6522.8496     11819.87    1928.5616 
   96000     300.5096   -1163.2264    6372.3255    11629.026    1852.1708 
   96100    295.50406   -1162.9847    6368.4726    11518.479    1837.5554 
   96200    301.56545    -1166.436    6396.8566    11672.904    1890.4793 
   96300    297.49899   -1163.0984    6492.4269    11684.938    1930.6088 
   96400    297.27737   -1161.3402    6385.0918    11574.626    1900.8156 
   96500    300.99046   -1164.4056    6451.8491    11717.643    1936.2286 
   96600    303.30731   -1167.3297    6548.0098    11860.375    1936.5819 
   96700    299.83366   -1167.8611    6453.8645     11691.49    1918.9926 
   96800    298.45936   -1171.2439    6340.5439    11545.426     1900.941 
   96900     302.1463   -1166.2048    6486.5616    11775.249    1933.7363 
   97000    301.09815    -1159.696     6412.766     11685.57    1933.3076 
   97100    303.23434   -1160.5833    6460.2871     11777.84    1969.2068 
   97200    297.16011   -1154.0986    6465.2573    11659.529    1919.4873 
   97300    303.17428   -1166.1431    6415.9396     11726.65    1940.7854 
   97400    297.61727   -1165.4118    6393.7625    11586.487     1942.113 
   97500    298.44146   -1163.4173    6432.4605    11644.787    1925.7389 
   97600    299.20777    -1164.758    6516.3281    11743.685    1961.2886 
   97700    297.01701   -1164.8332    6443.0069    11623.486    1904.2799 
   97800    298.42727    -1165.394    6456.6979    11666.745    1918.0842 
   97900    304.06386   -1158.2833    6516.0768    11853.651    1986.0051 
   98000     299.9418   -1162.2191    6287.5083    11533.085    1905.5589 
   98100    299.92137   -1156.8304    6413.1094    11663.639    1913.7148 
   98200    303.51914   -1162.3039    6561.6601    11883.577    1967.5606 
   98300    299.11999   -1160.0761    6490.3499    11720.514    1944.8845 
   98400    304.68673   -1166.9523     6301.922    11644.134    1920.2524 
   98500    297.06908     -1168.48    6358.5871    11536.532    1907.4265 
   98600    301.55855   -1164.0389    6438.0609    11716.358    1887.3565 
   98700    296.74726   -1163.9236    6431.5466    11607.173    1833.8346 
   98800     301.9732   -1160.1059    6408.7411    11699.829    1880.0238 
   98900    298.83832   -1157.3701     6455.798     11682.65    1927.7011 
   99000    297.35946   -1160.7937    6392.2769    11584.112    1984.5764 
   99100    303.57913    -1157.405    6293.5077    11621.605    1932.8487 
   99200    301.66654   -1158.2223    6533.3924    11819.813     2030.556 
   99300     302.7273   -1160.3992    6393.1489    11700.054    1961.3994 
   99400    301.11325   -1161.8167    6422.2933    11693.299    1920.6428 
   99500    294.64804   -1167.1741    6474.3779    11601.907    1912.0093 
   99600    301.56939    -1165.492    6408.1124    11685.188    1937.3515 
   99700    302.15894    -1166.587    6457.3424    11745.918    1906.3386 
   99800    297.87425   -1163.5514    6475.2945    11675.369    1911.3752 
   99900    298.44123   -1163.7889    6360.2908    11572.241    1839.4347 
  100000    302.51674   -1161.2882    6503.4718     11804.99    1936.8717 
  100100    295.57327   -1160.3729    6531.1891    11685.286    1981.6507 
  100200    302.98505    -1160.749    6318.6839    11630.746    1967.5325 
  100300    300.47242   -1159.2547    6386.9676    11646.845    1915.1476 
  100400    296.91565   -1161.4912    6512.5869    11694.243     1985.892 
  100500    302.78422   -1162.8309    6480.7086    11786.398    1952.4418 
  100600    296.64555   -1166.4033    6391.1322    11562.106    1877.3425 
  100700    299.11262   -1161.3355    6386.1913    11614.938    1911.5016 
  100800    303.43827   -1167.3088    6391.9805    11707.165    1936.7849 
  100900    296.83804   -1162.9956    6453.8251    11632.319    1910.9799 
  101000    299.48378   -1166.4342    6342.7981    11574.375    1926.4718 
  101100    297.74431   -1165.9637    6398.9888    11593.875    1905.4758 
  101200     301.5685   -1166.0133    6397.2852     11673.82    1891.2413 
  101300    294.38691   -1169.1245    6410.7741    11530.774    1896.3151 
  101400    300.91441   -1165.1415    6490.5669        11754    1870.8219 
  101500    297.58932   -1168.8109    6504.0437    11692.772    1875.0368 
  101600    303.06417   -1167.2337    6394.4838    11701.751    1853.3988 
  101700    295.97697   -1169.1792    6398.5344    11552.449    1858.5021 
  101800    306.74144   -1159.9044    6399.3003    11792.456    1903.8324 
  101900    297.39039   -1160.4925    6410.0268    11602.824    1875.3895 
  102000    299.51316   -1157.4623    6504.1708    11745.348    1900.6325 
  102100    294.29925   -1159.4933    6523.1803    11650.939    1911.9784 
  102200    301.63244   -1161.7461     6477.917    11760.085    1974.3109 
  102300    305.75102   -1162.7645    6267.4923    11636.629    1912.6495 
  102400    301.66701   -1158.8446    6363.4878    11649.296    1900.8896 
  102500    298.43738   -1159.4101    6511.5857    11727.832    1949.1834 
  102600    302.55993   -1162.2705    6456.1004    11757.559    1870.9404 
  102700    295.17139   -1159.6211    6378.3057    11524.568    1848.7211 
  102800     303.9125   -1156.1432    6399.0125    11735.494    1893.4641 
  102900    297.72407    -1161.783    6389.2674    11587.902    1916.1127 
  103000    304.18589   -1161.6175    6361.4857    11698.333    1983.2503 
  103100    300.36903   -1154.9358    6485.0743    11747.062    1983.8016 
  103200    293.16887   -1155.3474    6452.5758    11560.331    1910.9139 
  103300    302.18663   -1157.5254    6433.8703    11732.099    1982.7509 
  103400    297.05531    -1155.221    6407.0764    11597.986    1906.7902 
  103500    302.41819   -1160.3486    6435.4446    11735.797    1874.9129 
  103600     297.6984   -1164.5083    6376.7447    11572.106    1863.0711 
  103700    299.63201   -1167.2313    6480.9443    11714.891    1913.2924 
  103800    302.39213   -1161.9537    6493.7717    11791.962    1868.0576 
  103900    296.56212   -1159.0331    6374.4537    11551.015    1865.4686 
  104000    296.94951    -1163.512    6485.4856    11665.844    1962.0445 
  104100    301.42766   -1166.6814    6398.5115     11671.37    1911.8217 
  104200    304.37835   -1167.1011    6345.7467    11681.222    1886.5071 
  104300    295.77181   -1177.1829    6447.0279    11588.556    1917.0313 
  104400     301.6567   -1163.4264    6454.6052    11735.611    1841.8345 
  104500    295.10962   -1161.9273    6414.7233     11557.36    1871.3242 
  104600    300.03972   -1171.3338    6417.4594    11656.014    1972.7593 
  104700    303.53168   -1171.1011    6323.9127      11637.3    1865.4381 
  104800    300.21871   -1165.7456    6387.1805    11635.147    1853.4795 
  104900    298.74987   -1163.2349    6520.9748    11740.073    1885.6122 
  105000    296.12076   -1169.9102    6456.4052    11612.661      1827.81 
  105100    296.16316   -1167.5808    6327.5191     11487.01    1837.1214 
  105200    299.05457   -1164.8002    6227.5907    11451.633     1798.499 
  105300    303.73043   -1165.2747    6483.5179    11806.978    1915.5282 
  105400     298.8845   -1163.5162    6590.2552    11811.948    1961.1608 
  105500    301.48925   -1169.5568    6356.4995    11627.798     1843.878 
  105600    301.68999   -1169.4237    6410.5109    11686.231    1905.4996 
  105700     297.8733   -1164.6484    6434.7728     11633.73    1872.1094 
  105800     302.1693   -1159.1643    6498.9705     11795.19    1899.4952 
  105900    298.41977   -1162.4054    6445.8792    11658.754    1900.1874 
  106000    297.19069   -1156.1624       6414.9    11607.761    1838.3394 
  106100    306.57405   -1160.4381    6366.1065    11755.153    1877.6018 
  106200    299.49057   -1161.2592    6396.4432     11633.34    1821.3433 
  106300    299.48191   -1160.9402    6492.2504    11729.282    1876.5563 
  106400    303.71548   -1159.4692    6465.5538      11794.5    1873.7876 
  106500    294.81302   -1158.9194    6426.6755    11565.984    1908.1564 
  106600    302.37103   -1159.4678    6444.2394    11744.465    1953.8372 
  106700     305.4894   -1155.0252    6358.7573    11730.044    1920.2234 
  106800    300.60658   -1159.4531    6418.3163    11680.862    1901.8557 
  106900    301.60114   -1158.2814    6508.3912    11793.355    1932.5687 
  107000    295.18006   -1163.4687    6477.4892    11620.089    1904.2688 
  107100    298.90117   -1162.9906    6478.3951     11700.97    2008.3871 
  107200     297.4106   -1160.0296    6387.2749    11580.966    1922.5681 
  107300    302.25467   -1158.3275    6353.7503     11652.63    1912.0223 
  107400    299.99404   -1164.1061    6389.8137     11634.62    1933.7083 
  107500    298.83773   -1165.9797    6501.8159    11720.046    1993.5345 
  107600    301.51813   -1170.8501    6480.2104    11750.832    1899.1978 
  107700     292.3328   -1169.6379    6425.3598    11500.964    1908.5949 
  107800    296.67642   -1167.2707    6343.6429    11514.409    1871.9913 
  107900    297.97852   -1165.8532    6457.2896     11657.29    1879.3132 
  108000     297.8324   -1160.1858    6406.9071    11609.453    1918.5967 
  108100    300.98825   -1166.6339    6404.9194    11668.438    1900.0973 
  108200    302.71306   -1163.4135    6469.2095    11772.796     1912.158 
  108300    297.02632   -1168.9932    6350.6595    11527.178    1840.3494 
  108400    300.18905   -1166.3981    6365.3334    11612.014    1880.5126 
  108500    298.09066   -1164.5428    6378.3565    11582.063    1833.4905 
  108600    301.58142   -1170.1291    6466.6792    11739.374    1895.0279 
  108700    296.16231    -1170.609    6445.6221    11602.066    1854.1963 
  108800    301.78221   -1160.5492    6357.1032    11643.668    1860.6731 
  108900    301.75809   -1161.6245     6446.071    11731.045     1904.406 
  109000    295.26764   -1160.5729    6436.4984    11583.866    1902.4485 
  109100    302.93898   -1160.0847    6376.5749    11688.317    1884.4646 
  109200    299.55835   -1157.8341     6369.894    11611.664    1924.7238 
  109300    294.25425    -1160.074    6441.4142    11567.631     1902.202 
  109400    303.82762   -1158.5428     6499.449    11831.717    1929.6685 
  109500    300.44572   -1162.3602    6408.8906    11665.092    1872.7222 
  109600    301.55905   -1156.7892    6550.3433      11835.9    1916.3763 
  109700    293.81295   -1162.5504    6355.1702    11469.483    1823.1394 
  109800    301.98375   -1158.5513    6373.1882    11666.056    1900.5991 
  109900     299.9939   -1152.1767    6375.6821    11632.415    1848.4142 
  110000    301.65964   -1156.3209    6509.6118    11797.786    1903.5708 
  110100    301.12696   -1158.6974    6480.3518     11754.77    1876.4146 
  110200    302.67429   -1153.3009    6438.6609    11751.532    1859.4295 
  110300    297.01678   -1160.3722    6377.8969    11562.833    1854.5505 
  110400    300.64388   -1167.8618      6391.68    11646.613    1875.3603 
  110500    297.40489   -1161.7132    6418.7555    11610.641    1876.2529 
  110600    300.76706   -1162.2964      6455.85     11718.98    1917.8431 
  110700    297.98575   -1162.8593    6512.1705    11715.319    1906.6464 
  110800    303.36137   -1156.8166    6431.7097    11755.743    1905.4773 
  110900    297.71173   -1162.4948    6432.1543    11629.814    1914.5264 
  111000    298.74475   -1164.4455    6270.7391    11488.517    1865.1913 
  111100    300.83543   -1166.2202     6469.341    11730.008     1923.948 
  111200    297.79406   -1173.7643    6432.0066    11620.155    1819.5819 
  111300    300.98284    -1164.831    6363.1655    11628.371    1833.0837 
  111400    299.67013   -1166.9075    6468.9907    11704.076    1988.5921 
  111500     300.6806   -1165.0489    6445.4578    11703.988    1968.2202 
  111600    302.57873   -1162.0615    6355.2257    11657.295    1852.1041 
  111700    294.94877   -1165.5095    6416.8558    11552.474    1862.7913 
  111800    304.31672   -1157.9937    6431.2629    11774.529    1960.2816 
  111900    299.06592   -1161.1092    6326.0115    11553.987    1855.4025 
  112000    297.13669   -1173.2026    6367.4585    11542.125    1807.4719 
  112100    306.14234   -1174.1315    6468.4428    11834.573    1892.0836 
  112200     300.4872   -1164.6477    6513.7532    11768.553    1884.2461 
  112300    301.20383   -1169.2434    6348.7299    11614.244    1879.2627 
  112400    302.78837   -1162.3347    6399.2511    11705.525    1915.9435 
  112500    301.62397   -1159.4356    6503.5665    11787.864    1899.9288 
  112600    301.68189   -1151.6055    6377.1276    11670.493    1862.9169 
  112700    300.55687   -1160.5577    6346.9007    11607.279    1944.3593 
  112800    295.20433   -1152.4497     6441.574    11595.712    1951.2722 
  112900    298.79882     -1158.24    6542.0185    11767.157    1909.9332 
  113000    300.52417   -1164.3768     6363.947    11619.808    1871.6567 
  113100    298.23615   -1161.0539     6389.854    11600.158    1907.4749 
  113200    293.59235    -1164.121    6484.7062    11592.735    1918.3542 
  113300    300.61359   -1159.2167    6392.8438    11655.775    1885.7852 
  113400    299.70381   -1161.5167    6362.2473    11603.443    1871.6676 
  113500    302.36243   -1152.5305    6581.8195    11888.798    1976.5451 
  113600    299.64224   -1155.3047    6379.7128    11625.805    1883.6299 
  113700    298.18588   -1154.9961    6499.0088    11714.297    1950.9568 
  113800    305.12343   -1155.2957     6371.834    11735.032    1886.4848 
  113900    298.06254   -1160.5136    6384.8353    11591.971    1897.4594 
  114000    303.00919   -1164.1881    6447.3523    11756.491    1888.9696 
  114100    301.44968    -1163.838    6441.0614    11717.233    1890.0073 
  114200    294.92865   -1168.6387    6466.0526    11598.112    1940.1321 
  114300    300.12586   -1166.0057    6471.9815    11717.704    1868.5526 
  114400    297.91928   -1165.3714     6423.271    11622.488    1886.4843 
  114500     302.7156   -1165.3002    6363.8703    11665.625    1947.6277 
  114600    297.24276   -1164.4437    6422.8652    11608.557    1828.2723 
  114700     299.7412   -1167.5822    6548.9071    11784.836    1884.1905 
  114800    299.50688     -1164.16    6368.2216    11602.567    1904.8167 
  114900    298.84276   -1173.3164    6387.8418    11598.842    1904.3798 
  115000    295.81062   -1171.2339    6385.7818    11534.088    1871.0575 
  115100    298.88078   -1166.3595    6462.8654    11681.635    1978.0892 
  115200    302.47451   -1167.0812    6403.6852    11698.508    1937.1613 
  115300    297.09607   -1167.7217    6493.9047    11673.185    1925.6684 
  115400      296.536    -1171.017    6410.8531    11574.873    1979.1749 
  115500    300.69914   -1166.4005    6423.9599    11681.535    1961.8711 
  115600    300.73989   -1167.5871    6475.2322    11732.491    1911.9357 
  115700    299.94566   -1170.1865    6274.1692    11511.862    1898.5288 
  115800    301.09696   -1167.9343    6460.9764    11725.517    2056.5734 
  115900    298.52968   -1160.2017    6441.5467    11658.973    1948.3686 
  116000    301.58092   -1158.2286    6405.4675    11690.052    1930.3337 
  116100    299.75115   -1163.0634    6445.9694    11686.629    1953.0205 
  116200     300.0778   -1159.4508    6466.7727    11718.024    1885.7605 
  116300    295.15198   -1158.2527    6412.2787    11559.495    1865.1488 
  116400    300.41793   -1158.5306    6408.8981    11668.336    1937.6962 
  116500     298.4256   -1157.9508    6398.8758     11616.33    1908.0729 
  116600    303.29668   -1162.6563     6440.991    11757.803    1838.2461 
  116700    299.65219   -1155.5642    6421.4515    11667.497    1875.9458 
  116800    301.07946   -1156.2861    6478.9724    11754.787    2003.1208 
  116900     298.4448   -1159.0953    6353.8948    11570.615    1867.9412 
  117000    300.65097   -1157.6685    6411.5614     11676.84    1885.8601 
  117100    296.60701   -1154.1713    6399.8344    11582.217    1905.5554 
  117200    301.18195   -1156.4408    6461.9152    11739.765    1975.3593 
  117300    294.37072   -1160.2484    6334.3531    11462.883    1848.6808 
  117400    299.72683   -1164.7773    6474.8511    11713.278    1934.3221 
  117500      305.457   -1161.7615     6392.365    11756.223    1858.0678 
  117600    300.91378   -1163.5611    6439.6172    11704.617    1824.9068 
  117700    304.07814   -1167.0891     6421.813    11750.887    1842.4856 
  117800    297.34445   -1168.9169    6370.4698    11553.861     1810.546 
  117900    302.00401   -1163.8925    6441.9579    11729.918    1903.1675 
  118000    299.92955   -1162.9677     6382.854    11627.421    1964.6802 
  118100     300.5967   -1161.3038    6368.9477    11629.431    1952.8476 
  118200    305.28606   -1163.0542    6406.5137    11765.428    1942.7792 
  118300    295.67456   -1163.8354     6497.992     11650.79     1937.229 
  118400    299.94121   -1169.7218    6435.7492    11673.811    1957.1469 
  118500    292.68137   -1176.4774    6394.1095     11470.32    1963.3037 
  118600     302.4759   -1174.3819    6439.2649    11726.816    1909.5607 
  118700    301.76363   -1173.0905    6392.6054    11666.232    1916.9383 
  118800    298.43665   -1169.0889    6405.4742    11612.026    1938.6407 
  118900    300.54379   -1163.5105    6429.7503    11686.897    1902.2068 
  119000    304.11625   -1166.4505    6422.3216    11752.848    1911.7917 
  119100    298.00948   -1162.5982    6369.9268    11573.844    1940.5193 
  119200    302.35686   -1167.6175    6409.4819    11701.255    1875.0011 
  119300    301.17082   -1167.2784    6462.9013    11729.675    1931.6862 
  119400    301.33608   -1168.8946     6399.805    11668.493    1922.5512 
  119500    298.98433   -1163.4585    6508.3256    11732.209    1908.0887 
  119600    304.04368   -1166.5909    6381.1968    11710.033    1821.7674 
  119700    300.49253    -1168.201    6406.3719    11657.733    1852.8302 
  119800    297.61746    -1160.786     6462.304    11659.658    1807.6735 
  119900    301.86667   -1161.9698    6362.2941    11649.243    1821.3937 
  120000    297.88112   -1158.0442    6293.6744    11499.403    1814.9377 
  120100    298.04915    -1158.192    6523.5919    11732.763    1907.8443 
  120200     300.9478   -1155.5988    6545.6876    11819.377    1903.5428 
  120300     296.3001   -1160.3918    6392.8885    11562.494    1860.9084 
  120400    300.58654   -1164.2947     6414.958    11672.234     1897.163 
  120500    304.54409   -1163.3903    6493.4021    11836.129    1889.5696 
  120600    297.53803   -1162.1027    6406.2767    11600.617    1804.5048 
  120700    304.71551   -1164.0871     6332.077    11677.769    1847.1837 
  120800    300.00282   -1164.3118    6413.9172    11658.705    1873.0197 
  120900    300.63714   -1165.4425    6405.5455    11662.754    1853.8117 
  121000     300.2701   -1154.3907    6445.4848    11705.904    1930.8001 
  121100    298.43282   -1161.0633    6353.6769    11568.173    1908.7192 
  121200    303.07803   -1163.5788    6321.1468    11632.365    1883.1185 
  121300    302.45365    -1162.461    6434.6083    11733.605    1852.3741 
  121400    297.81049   -1166.6214    6527.2788    11722.922    1959.6975 
  121500    297.72253   -1168.0428    6381.1413    11573.483    1861.0849 
  121600    300.59619    -1174.084    6439.2673     11686.96    1836.8616 
  121700     298.8047   -1174.3488    6407.3133    11616.468    1848.5874 
  121800    296.14285   -1170.1039    6526.7936    11683.327    1858.0482 
  121900    300.05001   -1167.5323    6422.2142     11664.79    1808.4575 
  122000    295.03461   -1173.4692    6310.6157    11440.108    1817.5948 
  122100    301.04681    -1167.728     6375.455     11639.13    1910.1227 
  122200    302.68115   -1162.0554    6420.1194    11724.382    1860.0938 
  122300    298.63862   -1154.7696    6556.2198    11781.406    1961.3743 
  122400    301.24834   -1159.4792    6364.1807     11640.41    1924.9385 
  122500     297.5999   -1160.5521     6424.854    11622.067    1943.5557 
  122600    301.48535    -1166.626    6318.4374    11592.583    1894.2905 
  122700    297.58098   -1163.2997     6476.501    11670.562    1946.7572 
  122800    303.52651   -1159.7294    6499.6537    11824.303    1920.9991 
  122900    300.91059   -1165.6688    6416.5382    11679.362    1838.1171 
  123000    298.26568   -1160.5114    6404.3244    11615.802    1879.9481 
  123100    299.83907   -1158.5983    6435.9224    11682.926    1911.1836 
  123200    301.99829   -1161.1797    6376.1968    11666.747     1832.057 
  123300     299.6507   -1156.2372    6431.0607    11676.401    1870.3712 
  123400    298.97912   -1152.0633    6528.7873    11763.954    1916.3126 
  123500    307.27203    -1157.226    6459.1196    11866.289    1930.0582 
  123600    299.82074   -1161.5257     6349.516      11593.2    1929.5495 
  123700    290.81011   -1159.0711    6396.2551    11449.896    1896.4097 
  123800    301.08654   -1162.5243    6485.3609    11755.088    1889.2527 
  123900    300.01681   -1165.8034    6412.6807    11656.276    1874.9575 
  124000    300.24713   -1165.9244    6468.4314    11716.826    1959.0569 
  124100    300.70617   -1163.7026    6430.5485    11690.972    1956.6571 
  124200    305.73114   -1162.3089    6367.8355    11737.003    1919.3271 
  124300     299.1411   -1160.1779    6420.6039    11651.117    1992.3788 
  124400    298.09783   -1164.6959    6455.7634     11659.47    1966.3892 
  124500    297.82432   -1170.5377    6379.1577     11571.18    1874.8779 
  124600    303.21194   -1167.6621    6381.9907    11691.986    1884.6083 
  124700    296.87997   -1168.3826    6501.4893    11675.492    1874.4087 
  124800    304.74998     -1170.45    6462.0434    11802.109    1914.8147 
  124900    297.03353   -1172.9166    6389.9384    11562.687    1934.1678 
  125000    299.31489   -1173.3123    6365.8947    11586.986    1945.3495 
  125100    300.64889   -1170.2071    6420.4198    11673.115    1907.0181 
  125200    302.43495   -1170.7997    6498.9097    11789.169    1977.2947 
  125300    298.86242   -1172.2725    6312.6361    11525.101    1894.1888 
  125400    297.43624   -1165.2966    6385.0488    11574.021    1917.1247 
  125500    301.35044   -1164.2568    6443.5348    11717.168    1973.4483 
  125600    295.31712   -1165.1004    6280.1386    11424.035    1877.0171 
  125700    301.22432   -1169.6775    6473.0013    11738.519    1917.8004 
  125800    301.00064   -1167.9608    6470.2316    11732.688    1905.8273 
  125900    299.79042    -1168.101    6412.0845    11648.546    1860.3484 
  126000    301.28661    -1164.303    6366.1813    11638.405    1844.5229 
  126100    298.87667   -1159.5007     6537.442    11762.983    1865.0461 
  126200    296.74355   -1159.2798    6414.3808    11594.572    1812.0822 
  126300    301.83803   -1153.0187    6426.2012    11721.489    1898.7684 
  126400    295.45126   -1156.1959    6481.9284    11637.595    1919.8639 
  126500    300.48456    -1159.363    6383.7522    11643.781     1942.729 
  126600    298.75072   -1154.9114     6358.004    11585.443     1893.967 
  126700     304.4773   -1156.0924    6459.7376    11808.336    1857.9487 
  126800    297.02546   -1152.6154    6516.4442    11709.322    1872.9036 
  126900    301.15041   -1157.0279    6374.8221    11651.411    1884.4755 
  127000    301.00937   -1156.8658    6373.7722     11647.51    1884.9822 
  127100    300.76579   -1156.5682    6464.4221    11733.254    1908.1629 
  127200     299.6486   -1153.1959    6550.6238     11798.96    1954.5629 
  127300    301.40461   -1157.0374    6374.5825    11656.592     1852.552 
  127400    297.68828   -1161.2971    6327.0667    11525.423    1802.2707 
  127500    305.84491   -1164.5203    6402.3261    11771.713    1915.0338 
  127600    298.50115   -1154.4902    6405.6897    11628.219    1857.5523 
  127700    298.70425   -1159.9251    6283.9386    11505.371    1791.7046 
  127800     293.3553   -1164.7345    6390.3117    11492.663    1882.3204 
  127900    300.86856   -1170.2313    6407.9215    11665.285     1865.494 
  128000    293.45739   -1159.7881    6361.2061    11470.685    1762.5175 
  128100    299.27434   -1167.7102    6438.7571    11664.584    1938.7472 
  128200    303.32786   -1167.2464    6285.2472    11598.135    1857.2439 
  128300     300.4894   -1165.4734    6424.6901    11678.712    1923.2446 
  128400    298.51167   -1165.6246    6523.9221    11735.541    1891.7846 
  128500    304.51729   -1167.1672    6429.7565    11768.134    1915.1283 
  128600    301.65001   -1170.8088    6358.4038    11631.884    1875.4274 
  128700    298.76325   -1167.9217    6281.2596    11495.956    1893.6728 
  128800    301.39555   -1171.1974    6382.0498    11649.706    1801.2966 
  128900    304.88877   -1170.9451    6608.1903    11950.726    1859.1895 
  129000    298.52491   -1168.4687    6373.1559    11582.214    1781.1042 
  129100    302.15361   -1169.7424     6385.441    11670.747    1934.2957 
  129200     294.9069   -1161.6163    6467.4357    11606.053    1932.0768 
  129300    296.82337   -1160.3981    6407.2463    11588.024    1901.5322 
  129400    298.33171   -1155.6664     6341.164    11558.897      1878.34 
  129500    306.59618   -1161.2815    6382.8015    11771.477    1823.6741 
  129600    296.67952   -1162.2929     6461.615    11637.425    1843.7697 
  129700    306.91743   -1159.8388    6390.3603    11787.342    1859.0542 
  129800    294.97962   -1156.8741    6429.8831    11574.796    1841.7985 
  129900    295.52561   -1152.3513    6375.4671    11536.567    1776.7891 
  130000    302.35194    -1155.469     6523.698    11827.514    1866.0584 
  130100    297.06249   -1156.3924    6431.1206    11621.013    1894.6427 
  130200    300.32395   -1159.5898    6268.1697     11524.54    1849.9182 
  130300    305.45427   -1153.5735    6454.9945    11826.983    1842.9931 
  130400    296.95233   -1155.9494    6579.5583     11767.54    1891.4593 
  130500     301.9582   -1160.1655    6367.7744    11658.483    1864.2395 
  130600    296.56889   -1159.0614    6301.9158    11478.594    1844.0164 
  130700    301.64493    -1155.792    6446.6665    11735.056    1907.6788 
  130800     301.8503   -1158.1605    6395.2018     11685.61      1822.36 
  130900    298.10329   -1159.0983    6515.2431    11724.664    1883.8459 
  131000    297.66147   -1160.2865    6333.6839    11532.478    1833.2086 
  131100    304.81373   -1167.3216    6339.4213    11683.977    1830.5155 
  131200    306.79464   -1159.7028     6480.865    11875.359    1852.3887 
  131300    300.38093   -1164.9761    6511.2837    11763.485    1834.2802 
  131400    300.64044     -1170.63    6361.6855    11613.777    1823.2659 
  131500    300.78159   -1163.6753    6278.9248    11540.986    1826.3736 
  131600    302.96181   -1163.6804    6419.5321    11728.166    1895.8066 
  131700    299.37395   -1166.0141    6463.3925    11693.043    1905.9835 
  131800    302.91013   -1166.1625    6428.5502    11733.598    1951.4343 
  131900    298.04629   -1163.4639    6419.7941    11623.632    1872.6482 
  132000    297.98184   -1169.2497    6371.8731    11568.548    1842.7489 
  132100    298.82751   -1164.1395    6440.1108    11659.963    1813.1331 
  132200     304.7276   -1166.9511    6391.4491    11734.536    1857.0142 
  132300    297.15357   -1166.0548    6399.7798    11581.955     1837.179 
  132400    304.56208   -1159.1918     6407.501    11754.811    1817.6091 
  132500    300.21676   -1165.6034    6391.3823    11639.449    1814.1803 
  132600    302.29154   -1170.2126    6417.0823    11704.865    1833.5471 
  132700    298.52018   -1162.4497    6324.5689    11539.545    1813.6988 
  132800    300.15858   -1154.8861    6433.2437    11690.785    1911.4714 
  132900    302.53868   -1155.6118    6418.6064    11726.269    1918.0852 
  133000    294.11713   -1157.7567     6333.627    11459.231    1828.8277 
  133100    299.72801   -1157.9511    6413.9286    11659.207    1886.4927 
  133200    290.97742   -1158.5946    6451.7612    11509.453    1855.6132 
  133300    300.19644   -1162.0884     6406.693    11657.841    1847.4663 
  133400    304.76782   -1155.4511    6422.6067    11778.052    1856.4262 
  133500    299.16472   -1156.8109    6383.0429    11617.427    1809.7847 
  133600    306.36524   -1160.3309    6447.4157    11832.108    1911.4299 
  133700    296.93644   -1156.0393    6317.8652    11505.417    1807.5549 
  133800    301.14059   -1153.7867    6433.8247    11713.445    1866.0494 
  133900    301.57243   -1153.9021    6471.7236    11760.454     1919.829 
  134000    292.26746   -1162.3711    6396.9139    11478.389    1845.3487 
  134100    303.28642   -1163.4775    6400.0325    11715.804    1871.5854 
  134200    302.43787   -1162.2412    6526.4381    11825.318     1906.986 
  134300    300.60959   -1164.0552    6473.2033    11731.211    1856.4914 
  134400    296.68737   -1164.7221    6391.3852    11564.934    1856.1878 
  134500    298.81984   -1165.3194    6370.2716     11588.78    1889.4974 
  134600    296.86223   -1164.7952     6424.511    11601.722    1887.5963 
  134700    303.64582   -1159.6728    6497.6551    11824.909    1903.8566 
  134800    299.68091   -1166.6131    6404.3022    11639.912    1870.0708 
  134900    299.01857   -1163.9087    6359.3823    11583.547    1806.9944 
  135000    295.45557   -1161.6472    6453.1709    11603.479    1816.7009 
  135100    303.11227   -1162.0053    6459.9903    11773.514    1817.8831 
  135200     296.3905   -1166.0978    6422.3037    11588.134    1826.8216 
  135300    297.98758   -1171.2591    6396.1167    11590.905     1822.892 
  135400    302.74161   -1165.1562    6313.5747    11616.029    1821.8415 
  135500    297.98771    -1164.449    6424.1173    11625.719    1913.1134 
  135600    299.41189   -1170.1811    6539.2063    11765.501    1922.7673 
  135700    295.94766   -1164.9528    6419.3907    11576.906    1874.5236 
  135800    302.66961   -1171.7553    6263.5806    11557.897    1889.7303 
  135900    297.31364   -1163.3886    6382.0573    11570.318    1902.0018 
  136000    303.08703   -1168.5979    6560.1037    11866.495    1827.9441 
  136100    293.08275   -1164.9263    6379.0574    11475.394    1758.3219 
  136200    299.86513   -1169.0207    6452.3296    11689.467    1827.0806 
  136300    300.98144   -1162.8156    6458.2763    11725.467    1893.2954 
  136400    298.16788   -1166.2908    6364.1317     11567.74    1929.7595 
  136500    304.25378   -1164.9583    6458.6831     11793.64    1919.3909 
  136600    299.82901   -1155.1921    6420.5533    11670.748    1787.3761 
  136700    297.23758   -1162.4628    6408.2497    11595.812    1859.6391 
  136800    298.98419   -1163.5306    6455.7106    11679.518    1898.8293 
  136900    293.70092   -1162.0236    6359.9797    11472.425    1864.9742 
  137000    300.91872   -1160.9867    6347.1668    11614.847    1841.8806 
  137100    305.03222   -1164.9521    6517.0673     11868.66    1971.1268 
  137200    296.93278   -1162.4838    6458.5025    11639.532    1935.1675 
  137300    296.85474   -1161.8891    6449.1672    11629.124    1894.0631 
  137400    295.78557   -1160.7505    6525.4396    11683.694     1937.002 
  137500    300.92584   -1161.2323    6357.8845    11625.471    1901.6869 
  137600    297.30689    -1166.122    6443.7749    11629.158    1909.2923 
  137700    299.87713   -1163.4608    6455.1666    11698.121    1859.0715 
  137800    299.81505   -1166.1666    6384.5187    11623.441    1868.9825 
  137900    297.09881   -1165.3695     6347.763    11529.454    1856.3835 
  138000    298.03734   -1163.9857    6480.1556     11683.28    1866.6928 
  138100    300.42405   -1160.5395    6509.7859    11767.345    1919.3081 
  138200    300.73447   -1161.4933    6368.6445    11631.882    1901.5342 
  138300    298.27766   -1164.3943    6361.2931    11569.143    1868.9488 
  138400    300.74086   -1164.0763     6432.064    11692.855    1967.5517 
  138500    296.95328   -1164.2421    6484.7927    11664.502    1989.6447 
  138600    300.35073   -1167.4944    6370.5451    11619.583    1872.0695 
  138700    293.95699   -1162.6402    6501.9661    11619.266    1840.1333 
  138800    303.13607    -1164.523    6505.1219    11816.636    1888.6434 
  138900    298.98928   -1167.5548    6375.8403    11595.733    1843.7253 
  139000    302.28644    -1164.505    6371.2604    11664.641    1912.6468 
  139100    299.37257    -1165.834    6284.2724    11514.074    1878.2945 
  139200    297.58436   -1160.2618    6488.1621    11685.334    1912.8838 
  139300    302.01446   -1164.6928     6499.142    11786.525    1895.4202 
  139400    299.96445   -1161.6731    6448.2152    11694.822     1857.875 
  139500    300.20373   -1166.4843    6292.3336    11539.241    1821.2029 
  139600    300.87454   -1164.1928    6434.2295     11697.76    1918.1263 
  139700    301.00235   -1166.8806    6419.5572     11683.13    1885.2599 
  139800    300.57327   -1163.6487    6440.1731    11697.811    1825.1527 
  139900    295.53501   -1163.9771    6475.2451     11624.92    1900.7258 
  140000     300.6736   -1171.6783    6281.3794    11533.131    1779.7879 
  140100    296.20377   -1165.3292    6485.2928    11647.903    1859.2651 
  140200    304.12932   -1157.4099    6433.7387    11773.585    1902.9796 
  140300    297.46869   -1162.6353    6331.4546    11523.782    1903.6052 
  140400    300.13876   -1164.7226    6424.8324    11672.114    1895.9222 
  140500    302.76919   -1166.0565    6529.2078    11831.351     1916.018 
  140600     296.2073   -1163.3835    6414.9388     11579.57    1894.8454 
  140700    298.45956   -1163.5002    6436.3401     11648.97    1915.2633 
  140800    302.76347     -1165.95     6470.519    11772.646    1909.5146 
  140900    299.82334   -1161.5806    6401.4611    11645.146    1855.5716 
  141000    299.94017   -1159.7029    6401.2495    11649.308    1936.9675 
  141100    302.19518    -1167.038    6431.0128    11719.911    2000.6969 
  141200    297.46255   -1165.2697    6413.2489     11602.81    1924.5453 
  141300    296.41842   -1163.8229    6436.4354    11605.137    1901.8134 
  141400    301.36466   -1164.0495    6416.7168    11690.861      1858.35 
  141500    300.80811   -1163.0494    6415.9349    11679.189    1839.8458 
  141600    296.50653   -1165.7499    6419.0806    11587.738    1905.7495 
  141700    299.18438   -1161.8253    6401.4374    11631.227    1886.1841 
  141800    300.33625   -1166.5065    6438.3474    11688.064    1951.2266 
  141900    302.24384   -1165.8346    6400.1705    11691.312    1924.6637 
  142000    300.03094   -1169.1425    6406.4399    11646.998    1852.6769 
  142100    299.18924    -1166.352     6412.253     11637.62    1855.1405 
  142200    309.05172   -1164.9985     6374.391    11811.808    1829.7196 
  142300    298.87415   -1160.8798    6521.1892    11745.297    1833.0208 
  142400    302.59383   -1168.8795    6340.0166     11635.59    1834.9778 
  142500    300.06924   -1166.8359    6304.3516    11548.035    1860.0581 
  142600    294.66049   -1160.8088    6356.3799     11490.54    1768.2704 
  142700    300.40987   -1163.6125    6519.8285    11774.012    1844.8761 
  142800    309.39334   -1161.2816    6539.5682    11988.001    2007.3937 
  142900    303.61395    -1164.758    6360.2345    11681.723    1918.1633 
  143000    296.12828   -1166.2417     6333.039    11493.124    1993.7592 
  143100    302.03863   -1166.5253      6394.56    11680.627    1955.1845 
  143200    299.57147   -1161.3038    6436.5192      11675.1    1798.0259 
  143300    295.90546   -1163.1428    6528.1821    11686.605    1856.2721 
  143400    299.38925   -1167.5641    6396.5425     11624.97    1860.2315 
  143500    304.69407   -1165.9402    6372.1716    11715.553    1846.4669 
  143600     300.0817   -1160.4448    6406.2494     11656.59    1912.4817 
  143700    297.38822   -1167.6367    6348.2838     11533.89    1893.2772 
  143800    298.79319   -1159.2165    6369.5948    11593.636    1851.1584 
  143900    301.75799   -1161.5461    6483.4603    11768.511    1903.3381 
  144000    301.36494   -1161.4467    6424.8395    11701.592    1943.7143 
  144100    300.45034   -1160.9982    6440.7296    11698.392     1894.789 
  144200    300.88214   -1162.4477    6404.1835    11669.621    1874.5146 
  144300    294.12441   -1160.9655    6405.5586     11528.11    1884.9957 
  144400    295.83495   -1171.8907     6538.163    11686.332    1915.8192 
  144500    302.46457   -1169.6631    6517.0607    11809.089    1853.5029 
  144600    300.00477   -1167.0764    6450.1233    11692.188    1874.3816 
  144700    296.82723   -1162.8508    6265.5837    11443.991    1863.0021 
  144800    296.89001   -1158.5991    6340.5025    11524.503    1782.4385 
  144900    305.06566   -1157.7387    6523.1173    11882.638    1920.1094 
  145000    299.05111   -1156.6342    6384.8794    11617.013    1866.0261 
  145100    302.11922   -1164.1281    6308.1383    11598.324     1805.003 
  145200    301.11255   -1158.8899    6537.0285    11810.946    1955.6345 
  145300    301.87804   -1168.6284    6481.8683    11762.401    1916.0471 
  145400    304.07523   -1166.4801    6374.6822    11704.303    1858.2848 
  145500    299.74311   -1167.4241    6428.5841    11664.712    1878.1729 
  145600    299.55449    -1170.868     6434.884    11663.538    1927.5402 
  145700    297.73781   -1165.8287    6348.6087    11543.492     1822.989 
  145800    300.88312   -1161.1119    6409.8749    11676.669    1866.9859 
  145900    301.89213   -1158.5094    6473.6654    11764.618    1989.4264 
  146000    297.48625   -1154.8445    6325.8883    11526.381    1906.2108 
  146100    303.46109   -1157.1004    6469.0177    11794.898    1883.6013 
  146200    300.15304    -1155.996    6380.2112    11636.524    1879.2314 
  146300    294.30676   -1171.5796    6479.3262    11595.159    1981.9779 
  146400    300.05073   -1163.8778    6376.5625    11622.808    1865.7264 
  146500    295.39171   -1163.7292    6449.3575    11596.219    1898.2121 
  146600    299.91572    -1167.219    6428.6902     11668.71    1853.5541 
  146700    297.07938   -1170.5602    6466.0753     11642.16     1825.396 
  146800    302.26436   -1166.3349     6356.768    11647.847    1795.4218 
  146900    299.32081    -1162.979    6527.0138    11758.565    1924.1857 
  147000    299.90837   -1151.2223    6389.9313    11645.791    1855.9043 
  147100    300.51222   -1154.6565    6390.9308    11656.257    1842.8359 
  147200    297.56236   -1153.1173    6361.3663    11565.212    1879.9508 
  147300     302.1483   -1166.0208    6406.8208    11695.735    1894.4795 
  147400    296.52361   -1161.2433     6420.986    11594.515    1883.8329 
  147500    299.27149    -1167.061    6401.4792    11627.894    1832.2533 
  147600    305.40229   -1165.4805    6534.3252    11893.296    1914.3855 
  147700    295.54114   -1165.8321    6396.4838    11544.435     1755.187 
  147800    301.69108   -1161.0908     6539.769    11823.845     1928.561 
  147900     297.1347    -1162.944    6348.5925    11533.475    1866.5729 
  148000    296.94254   -1162.5826    6289.9272    11471.066    1831.7232 
  148100    301.85956   -1159.7616    6419.6183    11708.623    1950.8813 
  148200    295.53735   -1160.8801    6494.8824    11647.704     1934.864 
  148300    300.83226   -1162.0608    6425.8851    11690.644    1854.2153 
  148400    298.16543   -1160.5779    6424.7406     11634.01    1841.1087 
  148500    300.76755   -1161.3669    6368.3443    11632.415    1875.4004 
  148600    304.24183   -1168.1581    6330.4919    11661.994    1842.0211 
  148700    300.78431   -1163.2272    6486.3743    11748.942    1776.1361 
  148800     300.4629   -1158.4402    6540.2206    11800.709    1789.0591 
  148900    299.93483   -1164.3362    6321.4829    11564.794    1818.9822 
  149000     294.9883   -1159.5867    6377.5719    11519.958    1908.2386 
  149100    300.93767   -1163.8815    6309.0828    11574.273    1773.8397 
  149200    297.17642   -1159.1565    6479.9947    11669.556    1834.3329 
  149300    303.87864   -1158.5931    6380.3538    11713.662    1836.8171 
  149400    298.65378   -1162.7165    6419.6094    11637.173    1838.3004 
  149500    303.64204   -1160.0771    6431.6147    11758.384    1902.4094 
  149600    298.07996   -1156.8434    6356.3825     11567.56    1846.2975 
  149700    304.17977   -1162.7527    6418.2679    11753.849    1837.2308 
  149800    297.07503   -1162.5572    6482.8793    11666.874    1846.5337 
  149900    302.90908    -1160.883    6435.6825    11745.987    1912.3096 
  150000    303.09362   -1156.1978    6385.5973     11704.53    1892.6041 
  150100    298.49237    -1157.383    6444.0111     11663.46      1883.08 
  150200     300.6891   -1162.6254    6366.9204    11628.056    1849.6786 
  150300    301.43771    -1159.487    6506.2838    11786.551      1935.92 
  150400    296.54871   -1160.0195    6478.8872    11654.176    1885.6234 
  150500    302.66245   -1163.0325    6277.8216    11580.708    1789.7032 
  150600    294.64792   -1159.1701    6489.8612    11625.392    1933.3955 
  150700    299.80549   -1164.7376     6484.833     11724.98    1827.3091 
  150800    299.64078   -1157.2877    6444.4523     11688.53    1819.1035 
  150900    303.91014   -1164.2053    6376.8224    11705.191    1860.6829 
  151000    305.35755   -1162.6894    6415.5939      11776.4    1882.8546 
  151100    298.22352   -1165.5556    6385.2307    11590.763    1817.2766 
  151200    298.31164   -1159.4505    6488.1656    11701.686    1894.4564 
  151300      303.973   -1167.4936    6419.4239    11745.847    1906.2929 
  151400    297.72022   -1166.1281    6318.9613    11513.169    1851.6646 
  151500    300.52495   -1162.2823    6442.9427    11700.915    1918.1733 
  151600    298.47585   -1162.0316    6414.9862    11629.433    1951.3248 
  151700    302.35295   -1171.2966    6417.7753    11705.786    1915.7879 
  151800    304.06692   -1172.7943    6432.1881    11755.317    1852.8494 
  151900    298.68971   -1166.2576    6458.3711    11673.161    1842.5119 
  152000    291.71732   -1167.7015    6564.4219    11628.813    1942.2486 
  152100    301.98518   -1166.4053     6391.997    11677.042    1874.3425 
  152200    299.72468   -1167.8072    6313.9227    11549.273    1922.2709 
  152300    299.34453   -1159.6146    6413.8059    11649.228    1909.1532 
  152400    304.83465   -1164.1154    6484.9664    11833.176    1857.0491 
  152500    293.64021   -1164.4938    6429.8204    11538.499    1818.6174 
  152600    299.80025    -1160.237    6411.7542     11656.29    1858.7894 
  152700    302.31846   -1168.1171    6375.6643    11666.117      1869.94 
  152800    296.39787   -1163.2274    6423.9143    11592.773    1866.8702 
  152900    301.42193   -1163.5594    6563.1193    11838.977    1910.0866 
  153000    302.12762   -1162.3569     6369.269    11661.405    1900.1511 
  153100    293.69139   -1163.2065    6330.9716    11442.031    1869.9243 
  153200    307.15168   -1156.9146    6435.2384    11840.148    1942.2285 
  153300    301.62099   -1161.5323    6462.8661    11745.004    1917.8223 
  153400    301.14929   -1160.8998    6477.2545    11749.947    1898.6807 
  153500    299.17415   -1159.9753    6465.0153    11696.437    1881.9688 
  153600    300.26692   -1158.3928    6448.2482    11704.597     1902.125 
  153700    297.23212    -1158.547    6468.6575    11660.019    1889.4814 
  153800    302.50203   -1165.4031    6489.7022    11786.791    1903.0827 
  153900    300.15167   -1170.6136    6481.6209    11723.287    1880.2754 
  154000    299.10669   -1161.7203    6408.0123    11636.247     1874.544 
  154100    299.06011   -1164.4717    6444.0974    11668.586    1886.5132 
  154200    300.13836   -1162.8235    6342.7604    11591.933    1836.3323 
  154300     304.8217   -1158.3915    6447.2063    11800.863    1959.5465 
  154400    298.59669   -1161.4143     6467.955    11685.601    1894.0733 
  154500    299.93414   -1164.1309    6408.3597    11651.862    1845.4546 
  154600    300.12629   -1162.5755     6502.611    11751.773    1889.4121 
  154700     307.4654   -1167.7347    6331.9562    11732.748     1813.316 
  154800    301.62985   -1173.7675    6520.4046    11790.496    1881.9271 
  154900    299.55957   -1172.4287     6361.488     11588.69    1847.7874 
  155000    297.88103   -1173.3603    6385.9374    11576.348    1846.8388 
  155100    301.80224   -1171.2282    6419.4892    11695.803    1883.3761 
  155200    305.73904   -1166.3183     6505.487    11870.814    1974.2591 
  155300    293.12987   -1156.2619    6388.7721     11494.78    1861.9962 
  155400    297.32806   -1158.1622    6451.7463    11645.542     1890.474 
  155500    303.78908   -1164.7432    6321.5425    11646.787    1868.7584 
  155600    298.74254   -1158.4447    6364.4046    11588.136    1904.8468 
  155700    305.01011   -1171.3234    6515.0134    11859.763    1939.4077 
  155800    298.11499   -1172.7568    6470.8886    11666.901     1855.659 
  155900     299.3852   -1176.9838    6382.5844    11601.506    1814.2335 
  156000    298.35814   -1171.3162    6398.7043    11601.352    1892.2459 
  156100    306.25471    -1163.839    6349.6192    11728.442    1942.8539 
  156200     297.4895    -1155.005    6398.4039    11598.806    1921.0583 
  156300    302.70467   -1158.8367    6582.4018    11890.386    1928.0938 
  156400    299.94107   -1153.1239     6502.651    11757.308    1899.1566 
  156500    308.78897   -1157.1937    6359.1879    11798.797    1872.6321 
  156600    295.58896   -1158.8579     6352.961    11508.908    1844.8164 
  156700    296.47744   -1156.9191    6493.5808    11670.447    1870.0581 
  156800    305.01789   -1163.7999    6431.7617    11784.201    1858.8615 
  156900    298.49445    -1160.834    6442.4404    11658.482    1869.8267 
  157000    297.18122   -1160.4039     6475.578    11663.995    1926.4875 
  157100    301.92094   -1158.5149    6395.5185    11687.081    1904.5109 
  157200    300.79412   -1154.8671    6332.9018    11604.039    1895.5798 
  157300     302.9022   -1157.8119    6400.6437    11713.873    1936.7184 
  157400    301.60898   -1152.3977    6557.1491    11848.165    1940.3336 
  157500    298.07249   -1161.2759    6513.8453    11720.431    1847.2566 
  157600    300.56652   -1159.1555     6281.459    11543.446    1823.9714 
  157700     299.4229   -1162.0638    6362.5892    11597.236    1915.7038 
  157800    295.41717   -1169.0345    6500.1932    11642.293    1860.4606 
  157900    302.98662   -1166.7915    6546.6522    11852.705    1879.1163 
  158000    296.17804   -1166.5064    6447.8187    11608.702    1869.8943 
  158100    298.71223   -1166.5349    6372.2112    11587.205    1827.7745 
  158200    297.25173   -1157.0999    6479.7467    11672.974    1926.8671 
  158300    300.09386   -1165.9132    6312.2704    11557.402    1863.5559 
  158400    308.37177   -1163.1212    6465.1096    11889.878    1908.1248 
  158500    297.77793   -1161.5927    6566.0484    11766.024      1930.77 
  158600    301.49643    -1163.553    6344.2549    11621.711    1849.7394 
  158700    299.21509   -1170.5077    6385.9177    11607.681    1894.4588 
  158800    301.96739   -1164.9641    6404.2974    11690.403    1906.4588 
  158900    298.54268    -1168.234    6512.5739    11722.246    1914.3061 
  159000    300.34752   -1167.1679     6420.415    11669.711    1855.3006 
  159100    303.28526   -1167.5141    6420.9353    11732.645    1874.4853 
  159200    303.87993   -1171.4566    6455.4985     11775.97     1881.057 
  159300    297.18208   -1160.3182    6390.5659    11579.087    1828.6262 
  159400    296.43546   -1162.7328    6395.9072    11566.063    1868.5325 
  159500     301.6233   -1163.7038    6367.4158    11647.431    1813.6105 
  159600    301.05982   -1161.6076    6486.2191    11756.293     1933.272 
  159700    304.66285   -1157.0163    6422.6112    11774.249     1891.643 
  159800    295.34891    -1163.158    6389.1391    11535.657    1881.3128 
  159900    301.28098   -1164.3078     6445.762     11717.86    1852.5019 
  160000    300.68969   -1163.9359    6381.7108    11641.549    1885.3016 
  160100    302.07795   -1161.7556    6426.6693    11718.346    1931.1323 
  160200    292.64473   -1159.7348    6432.6529    11524.824    1802.7414 
  160300    302.83732   -1163.6387    6481.8521    11787.868     1893.646 
  160400    299.62269   -1163.4478    6519.9597    11757.491    1976.2629 
  160500    303.73798   -1160.0783    6326.4313    11655.249    1855.8449 
  160600    295.72146   -1161.9109    6422.3283    11578.053    1922.3185 
  160700    304.94611   -1161.1874    6338.2973    11691.816    1909.9904 
  160800     296.2748   -1160.9971    6488.5609     11657.02    1886.1877 
  160900    297.11127   -1164.2342    6480.1575     11663.25    1838.6204 
  161000     302.1092   -1166.6683     6539.385    11826.816    1968.9111 
  161100    298.89976   -1163.2681    6457.6289    11679.895     1873.487 
  161200    300.22029   -1161.0631    6316.4868    11569.169    1869.0015 
  161300     302.4445   -1170.5842    6371.5402    11662.219    1908.7803 
  161400    299.47794   -1163.4061    6529.3914    11763.872     1896.309 
  161500    293.46975   -1169.9822      6320.59    11420.139    1806.5511 
  161600    298.68501   -1164.3161    6385.9561    11602.587    1908.3794 
  161700    299.55179   -1168.3206    6449.0404    11680.184    1921.0021 
  161800    299.41967   -1163.8814    6439.8402    11672.601    1974.0336 
  161900    300.04631   -1169.8533    6275.0589    11515.235    1893.7808 
  162000    304.15651    -1158.864    6428.6732    11767.646    1909.0832 
  162100    292.98343   -1166.8435    6547.0884    11639.386    1860.6893 
  162200    301.11302   -1170.8787    6383.9679    11645.907    1823.9543 
  162300    298.65955   -1167.0459    6396.3816    11609.739    1879.8597 
  162400    297.67774   -1166.1778    6431.2511    11624.502    1861.8484 
  162500    295.74065   -1166.1877    6506.9213    11658.779    1903.5616 
  162600    303.74394   -1167.3542    6496.9535    11818.622    1904.3029 
  162700    296.28776   -1165.7331    6395.9642    11559.965    1861.1839 
  162800    300.51208   -1163.1165     6404.093    11660.956    1915.2923 
  162900    301.39127   -1162.9421    6451.8879    11727.708    1859.2499 
  163000    298.21749   -1162.6878    6457.2777    11665.549     1882.906 
  163100     303.5113   -1160.0239     6337.318    11661.347    1849.4699 
  163200    298.21039   -1159.7041    6341.3526    11552.456    1802.2349 
  163300    294.76232   -1162.6591    6452.4168    11586.902    1860.6834 
  163400    304.33929   -1164.5549    6528.0473    11865.234    1945.4444 
  163500    298.53557    -1163.463    6413.5176    11627.809    1877.6193 
  163600    300.48715   -1161.8501    6452.0595    11709.656    1864.0573 
  163700    299.44111    -1163.954    6448.3699    11681.516    1899.5004 
  163800     304.6297   -1161.0036    6382.6241    11729.567    1880.6579 
  163900     296.3584    -1159.558    6394.7557     11566.44     1858.127 
  164000    300.47539   -1160.9844    6437.8803    11696.092    1932.9048 
  164100    299.58587   -1165.7592    6401.8192    11636.252    1887.7218 
  164200    303.90632   -1164.9188    6467.8282    11795.402    1945.1265 
  164300    304.07936   -1164.4718    6500.7449    11832.462    1966.8378 
  164400    299.54738   -1167.9504    6447.0929    11678.513    1890.8091 
  164500      305.493   -1169.8782     6424.675    11781.186    1922.3258 
  164600    297.64993   -1175.2897      6397.06    11580.604    1928.5671 
  164700    300.02908   -1161.1862    6391.6985    11640.173    1915.2357 
  164800    299.76347   -1166.8351    6408.9086     11646.06    1850.7115 
  164900    297.67517   -1165.3681    6402.2007    11596.206     1849.717 
  165000    299.55282   -1161.0735    6351.8997    11590.313    1916.3769 
  165100     301.0157   -1169.1474    6544.8997    11806.491    1972.0119 
  165200    296.28826   -1171.2331    6373.6692     11532.18    1895.1324 
  165300    300.13601   -1168.4321    6385.4488    11628.962    1890.8586 
  165400    299.03645   -1167.8289    6507.6424    11728.268    1863.2533 
  165500     301.0563   -1168.8836    6311.0096    11573.732    1779.3233 
  165600    303.67038   -1162.1304    6392.6221    11717.943    1933.4597 
  165700    298.18107   -1159.2849    6417.2665    11628.163     1961.696 
  165800    303.43961   -1158.7269    6394.6494    11718.444    1886.6796 
  165900    297.74915    -1168.874    6433.7559    11625.836    1915.1209 
  166000    301.88464   -1165.2473    6465.4445    11749.499    1868.3063 
  166100    299.80237   -1160.4632    6458.4521    11702.807    1871.0623 
  166200    299.45604   -1163.6438    6473.6085    11707.384    1929.6564 
  166300    297.01731   -1164.7248    6337.5863    11518.181    1824.3304 
  166400    299.21012   -1157.6238    6496.4119    11730.953    1819.2208 
  166500    300.86445   -1159.4537     6479.775    11747.829    1806.4016 
  166600    297.46317   -1155.9124    6342.7708    11541.703    1829.2567 
  166700    303.36878   -1159.4511    6268.6619    11590.219     1804.665 
  166800    297.81275   -1159.0523    6552.2052    11755.465    1885.1721 
  166900    300.71818   -1163.5203    6558.6101    11819.472    1876.9583 
  167000    297.69923   -1163.5594    6417.7193    11614.047    1826.1037 
  167100    300.65964   -1163.3542      6422.04    11681.818    1780.1427 
  167200    304.58757   -1159.9927    6416.4001    11763.453    1854.4149 
  167300    296.92184   -1154.6548    6410.7997    11599.424     1865.027 
  167400    299.74235   -1163.5061     6449.648    11689.677    1889.9817 
  167500    294.71065   -1164.4684     6443.466    11575.039    1874.5475 
  167600    303.86374     -1162.19    6474.6926    11804.085    1896.4954 
  167700    298.43517    -1167.106    6310.7327    11519.236    1825.7505 
  167800    298.86515   -1166.9497    6382.4741     11600.32    1871.6099 
  167900    306.25638   -1166.3262    6422.3634    11798.735    1902.8028 
  168000    299.06774   -1166.4119    6431.7853    11654.497     1866.756 
  168100    299.11798   -1169.8834     6452.365    11672.678    1846.1118 
  168200    302.19568   -1168.9122    6340.6131    11627.648    1890.5704 
  168300    298.75338   -1171.2684    6359.5199    11570.659    1859.0643 
  168400    294.34038   -1159.8383    6486.4679     11614.76    1877.9827 
  168500    298.25722   -1159.2946    6413.1223    11625.636    1892.5983 
  168600    299.78558   -1170.2101    6346.9709     11581.22    1870.6413 
  168700    299.27089   -1166.6576    6357.5962    11584.402    1806.5689 
  168800    300.05204   -1162.8722    6511.6919    11758.971    1867.5771 
  168900    298.80349   -1168.0076    6389.6603    11605.131    1834.5232 
  169000    306.86306   -1166.8914    6297.3374    11686.104    1846.4668 
  169100    299.45219   -1158.2362    6381.9279    11621.028    1846.2526 
  169200    296.74832   -1157.9262    6374.9973    11556.644    1812.9686 
  169300    303.68954   -1165.8637    6512.1937    11834.191    1800.2493 
  169400    298.01862    -1165.018    6513.7502    11715.443    1829.1569 
  169500    302.44555   -1160.2747    6463.2032    11764.214    1820.2354 
  169600    295.03701   -1165.3799    6415.8442    11553.477    1847.9153 
  169700    298.75048   -1162.4257     6477.307    11697.227    1875.0165 
  169800    305.76645   -1158.6734    6457.6925     11831.25    1887.2939 
  169900    298.26276   -1158.2777    6460.6452    11674.294    1858.6996 
  170000    299.63924   -1154.0693    6453.8778    11701.141    1823.7393 
  170100    305.19783   -1156.8538    6423.7821    11787.012    1873.9124 
  170200    298.93686   -1158.7404     6383.513      11611.1    1841.5358 
  170300    299.09261   -1160.9495    6351.0621    11579.767    1778.3298 
  170400     305.1341   -1163.0381     6383.996     11739.68    1764.9184 
  170500    299.72354    -1161.003    6600.8644    11842.995    1813.9911 
  170600    301.19189   -1156.9843    6453.1362    11730.654    1784.5096 
  170700    300.64684   -1162.9106    6360.4573    11620.405    1844.8709 
  170800    300.49669   -1159.9725    6359.7441    11619.422    1867.5963 
  170900    296.14025   -1157.7374    6409.3992    11578.244    1852.3858 
  171000    300.07745   -1160.8761    6395.8846    11645.703    1851.7153 
  171100    301.55591   -1165.0326    6482.0101    11759.257    1976.1056 
  171200    301.08602    -1163.081     6434.239    11703.399    1896.6086 
  171300    298.32417   -1172.0332    6360.4255    11561.631    1902.2871 
  171400     302.1473   -1169.5318    6317.2538    11602.636    1887.2024 
  171500     298.9464   -1170.6428     6477.542     11693.43    1838.0277 
  171600     300.5707   -1167.1783    6478.2295    11732.283    1882.4944 
  171700    298.89382   -1163.7203    6453.9718    11675.659    1901.1556 
  171800    307.00537   -1168.6384    6370.9056    11760.966    1877.4567 
  171900    299.49818   -1163.6139     6432.153    11666.858    1875.1113 
  172000    300.75274   -1165.9432    6350.7019    11609.879    1899.5953 
  172100    300.20189   -1166.0236     6407.154    11654.483    1898.2824 
  172200    292.98527   -1163.5097      6488.74    11584.411     1834.634 
  172300    302.36422   -1161.4103    6430.6827     11728.82    1913.5499 
  172400    297.24221   -1166.6933    6352.1006    11535.531     1891.685 
  172500    297.59631   -1167.5921    6396.5922    11586.689    1875.4264 
  172600    300.03576    -1165.224    6494.5041    11739.084    1927.9629 
  172700    299.45516   -1165.3294    6438.5467    11670.617    1904.3186 
  172800    299.94047   -1166.9487    6379.0528    11619.872    1818.7645 
  172900    302.17576   -1163.3973    6391.7132    11683.837    1896.2071 
  173000    300.64986   -1159.5539    6388.4668    11651.836    1914.2337 
  173100    300.39914   -1164.1775    6494.1728    11747.562    1851.8126 
  173200    299.89149   -1158.7568    6525.8953     11773.86    1908.7464 
  173300    305.36102   -1162.7116    6396.3057    11757.164    1860.4542 
  173400     301.0826   -1156.1562    6373.3914    11649.403     1782.189 
  173500    300.73163   -1159.1658    6453.2217    11718.726    1887.3604 
  173600    298.63493   -1162.1601    6405.7783    11623.495    1849.2639 
  173700    298.85162   -1158.8336    6473.3956    11699.068    1895.1474 
  173800    300.89547   -1163.1621     6351.915    11616.923    1892.9692 
  173900    301.21935   -1162.1333    6449.9332    11722.889    1893.1752 
  174000    297.39064   -1160.6501    6488.1899    11680.834    1904.9388 
  174100    304.60765   -1163.7599    6385.8778    11729.593    1925.4391 
  174200    300.87553   -1162.8701    6496.0752    11760.949    1995.7025 
  174300    304.86105   -1160.1845    6462.5398    11815.244    1901.7661 
  174400    301.53707   -1169.7078    6293.2938    11565.463    1879.2136 
  174500    305.11068   -1168.4235    6375.0736    11724.872    1967.8129 
  174600    298.92719   -1171.2796    6419.8797    11634.721    1973.9222 
  174700    301.06773   -1170.6296    6477.2899     11738.51    1919.5864 
  174800    297.74554   -1166.0929    6345.2714    11540.055     1896.276 
  174900    293.58768   -1168.4802    6464.1002     11567.67    1918.9461 
  175000    299.50219   -1171.7757    6497.1614     11723.79    1887.4278 
  175100    307.59786   -1168.2759    6361.7478    11764.828    1830.1056 
  175200    298.00175   -1166.0031    6401.8795    11602.227    1886.1387 
  175300    299.86709   -1164.9227    6365.2276    11606.505    1875.0927 
  175400    299.07248   -1163.1286    6422.9994    11649.095     1860.268 
  175500    300.54793   -1162.4974    6448.2218     11706.47    1892.0008 
  175600    295.23434   -1166.9756    6450.5237    11590.777    1860.2457 
  175700    302.55444   -1170.5958    6438.1852    11731.201    1891.4532 
  175800    300.95917   -1169.8083     6440.487     11700.21    1886.7644 
  175900    296.10437   -1165.2047     6556.096    11716.707    1829.0133 
  176000    301.86039   -1164.9536    6479.8165    11763.647    1828.1155 
  176100    300.49875   -1159.1108    6374.7177    11635.302    1827.4289 
  176200    304.27919   -1164.0426    6416.0722    11752.487    1918.3022 
  176300    301.43161   -1155.7552    6411.4035    11695.272    1917.5429 
  176400    302.47442   -1157.2691    6365.7604    11670.393    1898.4804 
  176500    295.90346   -1156.9986    6461.4681    11625.993    1910.8047 
  176600    304.69543   -1155.4938    6394.2399    11748.096     1854.996 
  176700    299.18716   -1158.5201    6395.5083    11628.663    1849.7349 
  176800    300.11725   -1159.6603    6478.8871    11730.771     1911.045 
  176900    297.84842   -1168.1191    6506.1404    11701.096    1876.5025 
  177000    302.67768   -1156.2845    6376.5433    11686.503    1818.6946 
  177100    299.53464   -1158.8257    6458.5311    11698.803    1913.3096 
  177200    304.27797   -1154.3708    6493.4331    11839.494    1934.3097 
  177300    298.63962    -1163.806    6482.6813    11698.853    1910.9006 
  177400    298.99861   -1165.3634    6411.0169      11633.3    1933.6136 
  177500    300.13847   -1162.5914    6375.9548    11625.361    1891.1823 
  177600    294.90878    -1159.491    6446.8576     11587.64    1930.2203 
  177700    304.39386    -1164.358    6290.2379    11628.788    1927.0459 
  177800    296.34509   -1166.1186    6432.1928    11597.032    1816.5116 
  177900    305.22087   -1170.4864    6467.7997    11817.889    1832.5087 
  178000    299.49656   -1167.4845    6475.6713    11706.471    1864.9232 
  178100    300.84593   -1170.0188    6396.2834    11653.376    1823.4326 
  178200    298.19391   -1171.4841     6386.269     11585.24    1870.8482 
  178300    295.15067   -1166.8462    6469.4621    11608.057    1907.1968 
  178400    299.86624   -1171.6744    6539.2486    11773.756    1868.9535 
  178500     302.6506   -1170.2721    6485.9852    11781.379    1841.7545 
  178600    300.41874   -1166.0447     6318.894    11570.835    1897.9029 
  178700    299.91179   -1166.9956    6319.8996    11560.059    1847.0986 
  178800    300.31566   -1159.6598    6479.2788    11735.402    1874.0196 
  178900    299.12792   -1162.6216    6454.0874    11681.875    1818.1635 
  179000    306.04398   -1161.4316    6395.9028    11772.631    1850.3679 
  179100    299.41447   -1173.0884    6453.3192    11676.762      1848.66 
  179200    301.07515   -1162.7697    6400.9737    11670.213    1861.1011 
  179300    305.13867    -1163.664    6454.5499    11809.705    1857.3049 
  179400    296.87775   -1162.1481    6460.6292    11640.819    1850.9297 
  179500    299.67854   -1161.2201    6420.2861    11661.238    1855.7375 
  179600    299.59331    -1162.185     6440.414     11678.58    1869.9816 
  179700    303.42619   -1154.9232    6345.9873    11673.299    1862.0251 
  179800    299.36358   -1155.5208    6431.9867    11671.909    1824.0909 
  179900    305.25909   -1156.2202    6475.4254    11840.597    1870.0532 
  180000    296.11037     -1150.16     6546.111    11721.895    1880.2781 
  180100    303.99348    -1163.634    6411.5454    11742.266    1828.7259 
  180200    298.01742   -1159.5846    6391.2198     11598.32    1868.6707 
  180300      305.296   -1159.0692    6436.5835    11799.695    1922.2552 
  180400    298.41034   -1155.4695    6493.9617    11713.571     1889.024 
  180500     298.6107   -1159.4021    6449.0844    11669.042    1916.3673 
  180600    301.93544    -1159.145    6378.4757    11669.718    1935.3347 
  180700    299.37198   -1156.0504    6382.7835    11622.356    1875.8536 
  180800    296.17788   -1164.8674    6452.3777    11614.896    1876.7828 
  180900     305.9334   -1161.7297     6363.759    11737.827    1952.3043 
  181000    298.97137   -1165.6222    6405.0755    11626.518    1908.0122 
  181100     301.4539   -1167.2291    6419.6439    11692.515     1777.927 
  181200    301.38231   -1167.3033    6493.7587    11765.026    1893.0469 
  181300    299.20011   -1166.0939    6416.2617    11642.119    1858.9236 
  181400    305.19598   -1165.6487    6433.5527    11787.948     1820.787 
  181500    299.47952   -1169.4473    6467.9389    11696.412    1938.1647 
  181600    295.69188   -1170.8704    6422.4479    11568.581    1922.4457 
  181700    305.05347    -1163.854    6338.0658    11691.211    1868.0164 
  181800    296.70411   -1168.1006    6331.9758    11502.503    1865.7915 
  181900    300.19741   -1170.6208    6410.4253    11653.062    1966.5118 
  182000    297.27073   -1165.8199    6355.0315    11539.945    1874.8447 
  182100    295.36418    -1166.819    6462.0036    11605.187     1889.456 
  182200    302.06731   -1170.8962    6513.9908    11796.299    1956.4981 
  182300    301.34824   -1170.2088    6369.9538    11637.588    1854.4715 
  182400    296.63042   -1167.6032    6438.9935    11608.444    1927.5094 
  182500    304.39228   -1163.0648    6444.6091    11784.418    1927.8224 
  182600     300.4374   -1172.3254    6383.8247    11629.883     1913.013 
  182700    300.86786   -1159.5857     6402.648    11670.642    1895.3414 
  182800    301.76879   -1161.1252    6421.3458    11707.048    1906.4907 
  182900    296.60062   -1161.4242    6432.0211    11607.014    1910.6948 
  183000    303.12775    -1158.399     6315.779    11633.239    1801.1882 
  183100    297.04734   -1164.4632    6542.3633    11723.861    1860.2296 
  183200    305.88724   -1159.6404    6409.9337    11785.105    1841.8015 
  183300    298.97593   -1159.3217    6416.8841    11644.724    1868.2549 
  183400    300.94924   -1161.0386    6384.8184    11653.099    1831.7203 
  183500    294.57168   -1163.7164    6448.0679    11577.424    1876.7345 
  183600    300.22673   -1156.5656    6483.8062    11741.124    1871.5606 
  183700    303.32943   -1157.8505    6491.2469    11813.564    1905.9927 
  183800    296.24332   -1157.5565    6358.4115    11529.639    1896.9626 
  183900    300.45848   -1159.7982    6368.0011    11627.037    1849.5428 
  184000      298.006   -1152.9286    6572.7555    11786.268    1915.2834 
  184100    297.86571    -1162.698    6436.5275    11637.273    1842.5333 
  184200    295.19815   -1164.4487    6410.4576    11552.465    1788.6705 
  184300     303.4284    -1165.823    6458.2532    11774.712    1775.3931 
  184400    297.25288   -1167.3217    6529.1974    11712.227    1819.0378 
  184500    297.48593     -1167.92    6412.3171    11599.728    1803.4203 
  184600    303.09369    -1167.967    6406.8154     11713.98    1836.3046 
  184700    299.76939   -1165.3955    6376.4761    11615.194    1889.6285 
  184800    303.08666   -1160.1394    6411.2377     11726.08    1916.6678 
  184900    295.23008   -1154.6128     6430.905     11583.43    1891.1271 
  185000    299.29317   -1164.4872    6309.7238    11539.176    1856.6902 
  185100    294.15018    -1166.925    6442.8077     11559.95     1899.489 
  185200    296.35706   -1173.4577    6373.4994    11531.256    1829.4643 
  185300    297.21753   -1173.9618    6468.5033    11644.138     1951.497 
  185400    303.29786   -1172.7971    6389.8141     11696.51    1892.5656 
  185500    302.76778   -1171.5341     6418.241    11714.876    1863.9805 
  185600    299.13831   -1168.2094    6276.5444    11498.966    1810.6444 
  185700    299.18386   -1160.4204    6454.6731    11685.857    1963.4703 
  185800    295.70083   -1164.0394    6433.6641    11586.819    1929.7667 
  185900    300.13419   -1160.0687    6492.3192    11744.157    1892.9225 
  186000    303.19026   -1165.2034    6407.8648    11719.856      1887.38 
  186100    295.06052   -1167.0675    6372.4282    11508.876    1942.1565 
  186200    298.99648   -1169.9074    6442.5416    11660.235    1907.2799 
  186300    298.72572   -1171.8273    6375.7988    11585.788    1883.3918 
  186400    300.88327    -1169.462    6529.9242    11788.372    1945.0953 
  186500     300.1693   -1166.6535    6436.0565     11682.06    1841.9493 
  186600    300.01474   -1159.7301    6407.1767    11656.801    1863.1552 
  186700    300.17818   -1165.5078    6393.6133    11640.952    1926.2502 
  186800    291.69822   -1163.5594    6457.6255    11525.751    1991.8595 
  186900    301.32358   -1160.8767    6398.4305     11674.87    1875.5739 
  187000    304.98536   -1159.6574    6398.7747    11754.662    1925.8513 
  187100    294.00393   -1168.3139    6464.6245    11577.253    1934.0686 
  187200    301.03881   -1168.8835    6338.4946    11600.843    1818.6288 
  187300    299.70721   -1169.9815    6373.6132    11606.417    1819.2778 
  187400    300.15643   -1166.9843    6520.3475    11765.745     1918.919 
  187500    297.94985   -1159.2382    6375.1112    11581.114    1871.7757 
  187600    300.41048   -1160.4073     6384.691    11642.093    1925.5148 
  187700     295.4887   -1159.4815    6499.7848    11652.966    1992.2149 
  187800    299.00273    -1157.621    6378.2946    11608.408    1937.2538 
  187900    299.81491   -1162.9634    6436.3633    11678.485     1950.346 
  188000    299.53345   -1166.3289    6368.7767     11601.52    1920.8496 
  188100    305.94122   -1168.8285    6438.9715    11806.108    1957.4257 
  188200    297.37095    -1171.846    6501.0902    11682.118    1913.3987 
  188300     298.5178   -1171.9935     6465.516    11670.897    1937.7522 
  188400    303.68234    -1172.587    6355.1627    11670.283    1943.7151 
  188500    298.16252   -1163.1124    6421.0564    11627.729    1883.2025 
  188600    301.46263   -1168.5574    6499.3697    11771.099     1926.661 
  188700    306.31188    -1166.169    6360.6913    11738.406    1956.3192 
  188800    297.50141   -1165.9877    6393.4673    11583.141    1942.3244 
  188900    299.19256   -1166.2739    6448.0317    11673.548    1869.9639 
  189000    299.74035   -1166.6726    6402.1992    11639.019    1923.2564 
  189100    303.18061   -1167.8719    6355.8247    11664.941    1917.4587 
  189200    298.00285   -1171.4989    6388.5815    11583.456    1892.0974 
  189300    301.33567    -1167.528    6473.8089    11743.855    1936.5737 
  189400    299.06516   -1165.1852    6415.5898    11639.473    1835.9556 
  189500    305.26511   -1166.0504    6508.4343    11863.905    1849.2166 
  189600    297.27769   -1162.4463    6389.6851    11578.121    1839.2149 
  189700    304.09289   -1159.8309    6330.3436    11666.991    1910.7166 
  189800    295.63971   -1163.4332    6461.6136    11614.069    1930.2736 
  189900    302.60184   -1160.3068    6402.1547    11706.472    1875.0963 
  190000    298.34107   -1162.3373    6412.5848    11623.847    1857.9885 
  190100    303.99701   -1166.8275    6524.2585    11851.861    1940.5538 
  190200    301.45105   -1163.6802    6478.8861    11755.245    1875.6572 
  190300    300.37188   -1160.3018    6442.2351    11698.918    1828.4166 
  190400    299.81495   -1164.5555    6395.9763    11636.507    1896.7158 
  190500    305.07241   -1160.6678    6421.4145    11778.151     1910.364 
  190600    299.16851   -1153.2138    6431.7621    11669.825     1924.735 
  190700    300.50911   -1163.3137    6442.1163    11698.719    1914.1835 
  190800    303.19656   -1160.1095    6433.9558    11751.176    1909.0005 
  190900    299.80477   -1164.0164    6435.6999    11676.552    1897.8266 
  191000     299.4011   -1161.7421    6339.4989    11574.002    1892.6136 
  191100     299.0585   -1160.5843    6518.4706    11746.812     1962.788 
  191200    297.52053   -1159.8735    6475.1452    11671.341    1909.2651 
  191300    297.21807   -1160.3913    6367.5674    11556.784    1901.7438 
  191400    300.30164   -1166.6777    6413.2983    11662.104    1923.7645 
  191500    297.14066   -1162.9873    6390.8805    11575.847    1946.6659 
  191600     299.0711   -1160.6702    6436.8313    11665.356    1947.3712 
  191700    302.71855   -1163.2801    6444.1934    11748.031    1957.1591 
  191800    296.71749   -1165.5888    6449.9436    11623.269    1966.9804 
  191900    301.68089    -1168.633    6424.0832      11700.4    1900.2511 
  192000    302.37618   -1161.0145    6436.1172    11734.906     1963.598 
  192100    297.74777   -1165.0943    6411.9378    11607.768    1938.1943 
  192200    304.71742   -1168.5147    6478.8603    11820.166    1937.3031 
  192300    298.02339    -1168.079    6470.3793    11669.113    1947.4884 
  192400    298.41242   -1170.4724    6402.3982    11607.049    1896.6237 
  192500    304.37651    -1158.772    6371.1044    11714.869    1873.4079 
  192600    299.08665   -1167.4484    6418.8111     11640.89    1890.2398 
  192700    301.15071   -1166.5557    6425.6136    11692.681    1881.8963 
  192800    298.79861   -1161.9532    6526.6824    11748.103    1935.3691 
  192900    299.68002   -1156.8632    6359.8463    11605.187      1879.77 
  193000    306.01915   -1165.4442    6311.1546     11683.34    1879.1849 
  193100    298.19206   -1164.7574    6546.0927    11751.751    1950.5036 
  193200    300.26017   -1167.3725      6440.01    11687.235    1935.2931 
  193300     301.9555   -1166.0043    6444.3121    11729.124    1901.6894 
  193400    297.35765   -1163.1821    6426.0859    11615.494    1907.6493 
  193500     305.1866   -1164.9591     6378.628    11733.512    1960.6768 
  193600    301.19432   -1160.0278    6443.1897    11717.716    1963.1769 
  193700    299.82868   -1162.1734    6442.9102    11686.117    2008.1337 
  193800    301.43026   -1161.7245    6361.2128    11639.083    1944.5337 
  193900    299.16245   -1158.1783    6484.4019     11717.37     1979.103 
  194000    298.47976   -1166.1854    6423.5959    11633.973     1938.933 
  194100      300.721   -1163.5625    6444.7761    11705.656    1953.7863 
  194200    304.97191   -1164.8215    6394.5751    11745.011    1888.1118 
  194300    296.63922   -1163.9476    6387.8598    11561.154     1863.168 
  194400    297.56072   -1160.7965     6412.102    11608.234    1969.4104 
  194500    303.96179   -1165.6768    6403.4177    11731.418    1945.7917 
  194600    297.70481   -1164.2021    6403.0329    11598.837    1933.7389 
  194700    301.68668   -1163.3268     6386.767    11668.513    1880.3615 
  194800     299.8377   -1160.0329    6511.9759    11757.515    1991.9626 
  194900    296.27717   -1165.2553    6324.2035    11488.455    1885.8356 
  195000    303.06303   -1164.3335    6313.4339    11623.577    1934.9321 
  195100    299.72696   -1166.1055    6461.8087     11698.91    1991.0824 
  195200    300.34166   -1168.9972    6437.7552    11685.097    1888.2248 
  195300    296.10409   -1169.1437    6526.5467    11683.213    1869.3695 
  195400    300.61346   -1168.6054      6442.02     11695.56    1889.0655 
  195500    299.29722   -1158.4444    6380.4868    11616.068    1860.7423 
  195600    300.89461    -1165.317    6465.1751     11728.01    1897.7083 
  195700     304.0669   -1161.4901    6430.3737    11764.806    1953.9312 
  195800    299.94974   -1164.1096    6458.8955    11702.752    1909.4545 
  195900    297.60213   -1170.2746    6447.5044    11635.043    1831.0254 
  196000     301.9736   -1168.2301    6473.3714    11756.344    1898.3152 
  196100    299.77518    -1170.383    6382.1831    11616.037    1910.4566 
  196200    306.70165   -1162.2425    6395.9404    11785.908    1880.2069 
  196300     295.1969   -1162.6632    6461.0647     11604.83    1936.3043 
  196400    303.39992   -1163.1092    6351.9477    11670.512    1870.5051 
  196500    297.94404   -1161.9663     6425.741    11628.892    1840.8777 
  196600    295.03034    -1160.281    6468.7517    11611.341    1888.1474 
  196700    297.89308   -1157.4094    6350.4119    11557.031    1954.3878 
  196800    296.34956   -1159.4241    6451.5348    11623.164    1979.1394 
  196900    304.69722   -1161.8876    6402.9812    11750.482    1913.8473 
  197000    298.39112   -1157.8528     6439.234     11656.05    1940.2782 
  197100    302.63802   -1163.7881    6302.9558    11604.565    1931.3029 
  197200    299.15047   -1163.8383      6414.87    11641.922    1946.8989 
  197300    296.86696   -1155.5108     6573.966    11760.562    1952.6992 
  197400    299.33789   -1155.0561    6363.9586    11603.797    1931.1501 
  197500    299.70087   -1154.0516    6321.3745    11569.972    1881.4903 
  197600    302.15367   -1167.0382    6475.5928    11763.604    1966.5334 
  197700    299.87596   -1160.7524    6456.5829     11702.22    1918.1089 
  197800    301.80645   -1163.6148    6551.6242    11835.641    1850.9118 
  197900    300.82158   -1163.2444    6561.9183    11825.265    1922.9852 
  198000    298.28939   -1167.9303    6278.7435    11483.308     1882.144 
  198100    296.39306   -1166.4577    6317.5088    11483.034    1901.1358 
  198200      302.037   -1159.2437    6422.8343    11716.148    1853.7573 
  198300    296.20033   -1165.2539    6483.5106    11646.122    1839.4205 
  198400    298.62539   -1160.1607    6561.6929    11781.206     1902.848 
  198500    300.91077   -1165.0898    6340.5133     11603.92     1819.668 
  198600    298.21047   -1167.4645    6450.8016    11654.146    1953.7452 
  198700    303.59433   -1166.1122    6435.2143    11754.929    1941.1153 
  198800    294.72679   -1166.7199    6412.8571    11542.523    1858.5991 
  198900    297.95787   -1168.8617    6412.9299    11609.481    1881.6035 
  199000    297.79544   -1168.5243    6499.7077    11693.126    1928.9012 
  199100    296.02849   -1171.7962    6438.7099    11591.108    1919.6278 
  199200    300.88936   -1169.0126    6355.0388    11614.066    1889.9375 
  199300    301.33735   -1166.7387    6408.9216    11679.793    2005.0008 
  199400    301.93891   -1163.4198    6435.9286     11722.97     1955.507 
  199500    298.41598   -1164.8169    6470.5443    11680.927    1953.2045 
  199600    303.49336   -1165.5963    6471.2224    11789.296    1947.9203 
  199700     296.1097   -1168.9038    6331.1503    11488.176    1936.5531 
  199800    301.34831   -1169.0581     6308.351    11577.137    1919.4777 
  199900    299.56397   -1167.7054    6486.5008     11718.52    1930.8944 
  200000    302.65975   -1165.0661    6456.3251     11757.12    1945.7709 
  200100    300.44188   -1169.5081    6417.7892    11666.761    1913.1645 
  200200    298.67195   -1171.3325    6521.3129    11730.648    1923.6494 
  200300    300.86544    -1160.145    6456.7908    11724.174     1900.819 
  200400    304.34753   -1162.3952    6304.6544    11644.177    1869.5876 
  200500    296.88009   -1166.7254    6441.9499    11617.612    1881.3493 
  200600    301.38187   -1162.2092    6407.8539    11684.206    1866.8085 
  200700    297.66985   -1164.6147    6525.4436    11720.089    1921.0542 
  200800    301.09393     -1166.46    6328.3932    11594.343    1852.7956 
  200900    303.59419   -1169.2953    6345.1575    11661.686    1842.9311 
  201000    300.72006   -1165.9913    6454.0042    11712.436    1884.1769 
  201100    293.65377   -1162.8609    6528.1952    11638.797    1857.4269 
  201200    299.80619   -1163.0008    6419.5478    11661.446    1814.9832 
  201300     301.7256   -1167.6737    6416.8548    11695.086    1872.3429 
  201400    301.26426   -1166.6171    6416.2486     11685.68    1924.9682 
  201500    298.55128   -1165.0518    6338.8787    11551.917    1906.3487 
  201600     302.1932   -1164.2857    6420.8409    11712.449    1897.5235 
  201700    299.05662   -1157.9159    6460.6284    11691.598    1841.5389 
  201800    298.97678   -1162.0492    6401.6001    11626.731    1832.8486 
  201900    302.97511   -1164.6997    6445.3711     11753.27    1890.3739 
  202000    295.14443   -1166.7639    6357.1979    11495.742    1809.4719 
  202100    301.98699   -1160.9025    6364.5802    11655.166    1832.4508 
  202200    296.70977   -1163.2559    6457.0018    11632.495    1891.6487 
  202300    300.94318   -1165.8663    6481.6414    11744.964    1915.3938 
  202400     296.7478    -1162.012    6434.1038    11611.653    1866.3121 
  202500    299.51326   -1164.1789    6239.0146    11473.477    1846.3335 
  202600    302.05837   -1167.8083    6457.1622    11742.367    1963.0216 
  202700     300.2949   -1166.9081    6450.2104    11698.642    1852.7344 
  202800    298.24143   -1161.3394    6407.5729    11617.704    1903.3953 
  202900    306.43278   -1160.1647    6487.9632    11874.265    1926.6021 
  203000    298.30808   -1163.8611    6397.5368     11606.57    1864.8391 
  203100    299.44801   -1164.9049    6335.5765    11567.919    1899.7328 
  203200    304.09125   -1163.9621    6387.5908    11720.072    1965.7084 
  203300    294.64222   -1162.7618    6407.9062    11539.723    1869.2209 
  203400    301.07922   -1168.2311    6522.3008    11786.165     1873.626 
  203500     301.5574   -1164.3952     6372.454     11650.37    1844.4466 
  203600    297.92801   -1165.4011    6348.4751    11547.849    1905.1448 
  203700    303.09218   -1164.7063     6406.612    11717.005     1878.135 
  203800    304.34828   -1159.6712    6430.7737    11773.036    1839.7245 
  203900    297.17965   -1164.7153    6459.5865    11643.659    1867.5669 
  204000    300.58555   -1159.7873    6536.9836    11798.745    1902.7883 
  204100    296.86228   -1160.6689    6367.6547    11548.993    1827.0949 
  204200    299.58822   -1166.2414    6422.8138    11656.815    1866.2382 
  204300    302.94245   -1164.1934    6353.6441    11661.351    1791.2721 
  204400    299.31792   -1167.8424    6447.2113    11673.837    1856.5302 
  204500    294.30316    -1163.194    6438.6952    11562.837    1824.3273 
  204600    301.85905   -1164.9682    6393.8076    11677.595    1849.1831 
  204700     302.3733   -1160.8906    6394.5596     11693.41    1896.2699 
  204800    298.40569   -1162.3864    6404.9955    11617.589    1911.7863 
  204900    297.97852   -1160.5963    6425.2213    11630.479    1928.6384 
  205000    295.85085   -1159.4112    6387.8247    11548.813    1897.7367 
  205100    302.46457    -1163.608    6406.2976    11704.381    1962.0836 
  205200    293.57745   -1154.4755    6444.8984    11562.255    1940.0398 
  205300    302.48078   -1164.8863    6346.9213    11644.073    1883.8489 
  205400    298.50278   -1163.6191    6418.5765    11632.011    1976.9006 
  205500    301.98839   -1158.8801    6407.1389    11699.777    1890.3049 
  205600    301.29023   -1162.6869    6447.8251    11721.742    1917.4623 
  205700    296.63761    -1163.872    6451.3952    11624.731    1924.4525 
  205800    302.52425   -1167.9392    6414.0097    11709.037    1908.5066 
  205900     296.3672   -1161.1613     6340.902    11511.171    1878.7491 
  206000    298.58538   -1165.7267    6380.1345    11593.226    1899.3498 
  206100    303.63924    -1167.101    6452.3504    11772.036    1825.8231 
  206200    301.21505   -1160.7723    6549.0896    11823.315    1871.2702 
  206300    300.57452    -1160.814    6389.6226    11650.122    1897.2051 
  206400    300.38362   -1159.1677    6433.4427     11691.51    1958.7552 
  206500    300.55883    -1164.573    6417.4919    11673.897    1841.6242 
  206600    298.89787   -1167.2604    6425.3419    11643.576    1838.0253 
  206700     301.4937   -1166.0834    6528.2339    11803.101    1903.1839 
  206800    309.70973   -1161.7509    6573.9986    12028.721     1938.359 
  206900    298.26142   -1175.2626    6339.9348     11536.57    1810.6744 
  207000    303.22215   -1169.1419    6358.0406    11666.775    1891.9408 
  207100    297.43296   -1159.5214    6419.0507    11613.728    1807.9809 
  207200    298.93455   -1161.2652    6575.9097    11800.922     1851.652 
  207300    298.05831   -1164.2262    6433.4193    11636.752    1926.0779 
  207400    304.20795   -1158.5612    6258.5397    11598.915    1854.2295 
  207500    296.46591    -1158.147    6309.0347    11484.427    1885.3361 
  207600    300.49247    -1162.665     6384.924     11641.82    1962.4772 
  207700     300.3788   -1158.4894    6433.3193    11691.962    1910.8812 
  207800    297.09018   -1166.6718    6368.5502    11548.754    1834.3245 
  207900    301.78638   -1163.8372    6459.7961    11743.162     1897.273 
  208000     296.5923    -1164.694    6475.5006    11647.046    1934.3293 
  208100    301.49535   -1168.5487    6305.2923    11577.729    1827.6811 
  208200     298.5928   -1157.5083    6368.1405    11589.609     1879.946 
  208300    295.18398   -1157.4598    6525.3638    11674.057    1917.5454 
  208400    298.71068   -1155.7296     6530.396    11756.162    1922.3861 
  208500    300.28438   -1164.5014    6290.0811    11540.695    1928.2653 
  208600    303.91034   -1162.8572    6299.7298    11629.451    1944.0941 
  208700    298.72948   -1157.6269    6507.7114    11731.982    1887.3535 
  208800    306.37802   -1167.2992    6501.4154    11879.412    1934.6648 
  208900    296.50571   -1164.8367    6332.6173     11502.17    1865.6062 
  209000    306.82703   -1165.2777    6398.9226    11788.534    1865.5761 
  209100    298.37833   -1160.6471    6442.2562    11656.004    1839.7115 
  209200    302.72259   -1164.3933    6429.2753    11732.086     1875.284 
  209300    299.05927    -1167.016     6343.701    11565.627     1843.061 
  209400    302.52348   -1161.9753    6446.4317    11747.406    1832.5431 
  209500    298.80787   -1159.8669    6594.0952      11817.8     1886.866 
  209600    300.04106   -1163.7468    6390.6582    11636.828    1854.9436 
  209700    298.03286   -1170.9765    6363.8589    11559.897    1871.4722 
  209800    298.11703   -1168.1015    6416.8058    11617.517    1975.4373 
  209900    308.47741   -1165.4166    6370.6531    11795.383     1908.736 
  210000    300.08437   -1160.9857    6616.1193    11865.976    1870.1238 
  210100    299.94805   -1170.6165    6518.9191    11756.232    1814.3002 
  210200    299.16346   -1166.4367    6402.2218    11626.953    1894.1017 
  210300    296.59332   -1165.3542    6298.1759    11469.083    1861.5495 
  210400    295.33109   -1169.9491    6502.9471    11642.294    1925.4245 
  210500    297.96113   -1165.6479    6447.0786    11646.913    1869.6084 
  210600    298.61448   -1160.8086    6542.7477    11761.379    1905.9083 
  210700    300.64007   -1168.2574    6440.8561    11695.312    1893.4811 
  210800    298.38627    -1168.389    6423.2323    11629.408    1997.6619 
  210900    293.44418   -1161.7132     6285.779     11393.05    1871.8882 
  211000    303.16238    -1162.109    6460.6866    11775.177    1918.0239 
  211100    305.49296    -1163.649    6496.5219    11859.261     1968.026 
  211200    298.32706   -1161.7996    6427.7044    11639.205    1885.4826 
  211300    300.11699   -1163.4373    6470.6724    11718.774    1904.6844 
  211400    298.05217   -1166.6489    6310.0965    11510.875    1904.5565 
  211500    300.36919   -1167.5361    6439.1797     11688.57    1973.1342 
  211600    293.62784   -1167.4456    6489.0426    11594.505    1860.7292 
  211700    302.24722   -1161.7094    6433.7076    11729.046    1880.6089 
  211800    298.92869   -1164.4346    6333.5693    11555.288    1889.7073 
  211900    298.69837    -1160.865    6403.5146    11623.882    1847.6532 
  212000     304.8736   -1159.0694    6510.5298    11864.617    1891.8502 
  212100    298.06899   -1164.4095    6371.5156    11574.893    1877.0858 
  212200     300.2603   -1162.6448    6381.9719    11633.928    1859.1732 
  212300    301.84648   -1163.7817    6472.7529    11757.458    1772.8779 
  212400    297.62835   -1163.4962    6407.6684    11602.545    1835.7535 
  212500    295.96813   -1162.0266    6511.7127    11672.591    1903.7674 
  212600    300.58489   -1158.5903    6331.8054     11594.75    1846.9721 
  212700    295.67301   -1161.7214    6435.6894    11590.568    1844.4055 
  212800    297.43557   -1163.9873    6444.4452    11634.712     1863.759 
  212900    298.91421   -1166.5928     6409.228    11628.479    1821.9413 
  213000    308.24607   -1168.5177    6491.7905    11908.477     1873.051 
  213100    300.50526    -1157.533    6431.8867    11694.188    1902.7583 
  213200    297.61543   -1162.1071    6399.6492    11595.639    1859.6299 
  213300    300.20827   -1160.0568     6425.473    11678.905    1829.2985 
  213400    300.31395   -1166.1071    6445.6023    11695.242    1903.1298 
  213500    302.53251   -1166.5092    6388.2474    11684.881     1886.135 
  213600    295.97714   -1165.6695    6402.5843    11560.012    1801.3873 
  213700    306.56834   -1163.6357      6478.35    11864.077    1902.0078 
  213800    298.28623   -1165.6293    6454.4231    11661.221    1874.5339 
  213900    300.58636   -1165.4352    6445.9598    11702.091    1821.2242 
  214000    296.58537   -1159.6886    6308.4577     11484.86    1841.2237 
  214100    305.01343   -1162.3939    6472.8209    11826.571    1943.8705 
  214200    298.64616   -1160.3563    6428.7959    11648.557    1915.1575 
  214300    303.51513    -1167.322    6411.8069     11728.62    1951.1021 
  214400    296.36122   -1158.7349     6376.768    11549.336    1957.8631 
  214500    301.22039   -1166.4129     6471.571     11740.27    1920.5401 
  214600    297.60045   -1164.4027    6469.9146    11663.289    1857.3048 
  214700    303.10224   -1169.3556    6419.4933    11725.452    1904.0366 
  214800    303.81489   -1167.7437    6458.8997    11781.695     1884.138 
  214900    300.23953   -1162.5406    6421.4644    11673.081     1851.405 
  215000    297.73871   -1170.7646    6380.8027    11570.769    1866.7392 
  215100    300.50454   -1163.2849    6439.0831    11695.617    1911.1841 
  215200    298.61517   -1164.5571    6479.4329    11694.331    1930.3911 
  215300    305.71077   -1163.3406    6276.5828    11644.284    1864.0849 
  215400     298.1298   -1163.4937    6455.3494    11660.941    1881.3052 
  215500     303.5121    -1157.302    6504.6816     11831.45     1905.761 
  215600    301.69817    -1169.726    6333.2061    11608.799    1888.5284 
  215700    292.10534   -1168.1396    6471.9408    11544.183     1913.448 
  215800    298.74126   -1166.0976    6422.7615    11638.812    1812.5585 
  215900    297.12733   -1165.1955     6410.693    11593.167    1860.1041 
  216000    304.17553   -1165.8933    6387.0907    11719.441     1917.686 
  216100    299.86672   -1163.9754    6330.0096    11572.227     1935.491 
  216200    299.70338   -1159.5901    6455.7362    11698.849     1968.469 
  216300    301.15175   -1161.0761    6443.4262    11715.995    1894.6152 
  216400    300.59437   -1166.0825    6364.2536    11619.909    1844.8221 
  216500    286.72023   -1160.6847    6480.8364     11445.49    1919.8833 
  216600    298.63628   -1163.7352    6303.0415    11519.212    1872.6788 
  216700     304.8426   -1165.9127    6491.7204    11838.302     2005.523 
  216800    295.47255   -1170.4374     6496.583    11638.463    1922.0888 
  216900    301.90836    -1164.468    6425.0786    11710.419    1903.2445 
  217000    298.17688    -1163.928     6333.416    11539.579    1902.9843 
  217100    300.63349   -1171.4164    6445.7027     11696.86    1940.7614 
  217200    296.78526   -1163.9987    6471.6138    11647.977    1900.1523 
  217300    305.73494   -1164.2774    6439.8394     11807.12     1961.475 
  217400    295.59543   -1165.5078    6354.7681    11504.203    1925.0482 
  217500    299.38135   -1162.9809    6427.3944    11660.237    1886.4212 
  217600    296.56305   -1164.7974     6393.162    11563.979    1825.2363 
  217700    302.85261   -1172.8401    6471.6163    11768.757    1900.9875 
  217800    301.40696    -1173.702    6440.7263    11706.122    1857.0045 
  217900    297.31073   -1169.9617    6459.9877    11641.614    1848.2085 
  218000    298.26663   -1173.6839    6393.7023    11592.027    1936.1739 
  218100    298.86996   -1170.0305    6337.0881    11551.956     1895.795 
  218200     301.0668   -1165.6014    6345.7154    11611.944    1844.1092 
  218300    297.43984   -1158.4935    6528.7227    11724.575    1968.5979 
  218400    301.51535   -1166.7188    6343.8849    11618.579    1857.2416 
  218500    297.45058   -1162.1615    6373.9392    11566.353    1879.7687 
  218600    302.65372     -1168.97    6397.2252    11693.988    1922.7319 
  218700    301.21717   -1174.2311    6510.5111    11771.323    1912.1503 
  218800    293.41566   -1170.0443    6408.4863    11506.818    1837.5265 
  218900    304.10106   -1164.7894    6500.9753    11832.838    1898.8926 
  219000    296.82273   -1167.3018    6509.5353    11683.396    1919.4025 
  219100    303.64175   -1161.6276    6420.5407    11745.753    1877.1753 
  219200    300.62278   -1161.8591    6321.6946     11582.18    1837.7138 
  219300    301.65176   -1164.3124    6304.4136    11584.428    1809.0593 
  219400    302.25666   -1159.3242    6451.6033    11749.529    1896.6861 
  219500    297.99593   -1160.5436    6408.7728    11614.455    1914.9072 
  219600    296.46973   -1163.8365    6451.8536    11621.638    1945.0748 
  219700    298.36184    -1167.579    6358.5095    11564.974    1886.0629 
  219800    297.99696   -1162.1577    6487.3312    11691.421     1931.118 
  219900    295.25895   -1164.7602    6488.3609    11631.355    1909.4367 
  220000    301.31161   -1165.1802    6448.0055    11719.885    1884.3568 
  220100    294.32997   -1159.2075    6412.2385    11540.939    1905.2311 
  220200    303.12201    -1158.359    6350.7071    11668.085    1967.7206 
  220300    300.78101   -1158.5683    6481.8262    11748.983     1950.505 
  220400    294.27576   -1160.1801    6412.1544    11538.724    1850.5114 
  220500    298.50394   -1165.1002    6448.8965    11660.875    1921.4696 
  220600    299.79647   -1164.8472    6423.2298    11663.074    1881.0281 
  220700    297.83935   -1168.3713    6422.4257    11616.935    1839.9623 
  220800     298.5835   -1169.7317    6526.3258    11735.372    1864.6895 
  220900    298.55061   -1166.2447    6579.4267    11791.258    1935.9628 
  221000    296.68429   -1161.5623    6330.0671     11506.71    1871.9593 
  221100    300.81952   -1163.0853     6368.797    11632.259     1916.481 
  221200    302.06209   -1167.3596    6408.6782    11694.412    1921.2856 
  221300    297.63309   -1167.7126    6427.3093    11618.071    1937.0537 
  221400    298.74162   -1162.8881    6352.7961    11572.064    1876.4899 
  221500    300.60594   -1170.2534    6395.1169    11646.848    1897.3176 
  221600     299.2946   -1170.1008     6536.652    11760.521    1897.4426 
  221700    295.46688   -1165.2393    6329.7504    11476.708    1758.8536 
  221800    295.64025   -1166.2512    6379.9003    11529.549    1829.1312 
  221900    305.69396   -1165.5586    6423.3255    11788.449    1894.3269 
  222000     298.6779    -1165.866    6437.1872    11652.116    1882.9484 
  222100    300.08157   -1166.7689    6391.7326    11635.746    1876.1196 
  222200    298.17312   -1163.9321    6461.9716    11668.051    1936.9556 
  222300    302.37338   -1165.0984    6440.5847     11735.23     1925.656 
  222400    297.77369   -1166.1444    6401.0402    11596.374    1919.0881 
  222500    301.47937   -1161.4137    6434.1387    11713.369    1975.9875 
  222600    296.12811   -1158.2964    6440.5494    11608.576    1956.5513 
  222700    303.47075   -1161.1768    6396.7801     11718.79    1926.0092 
  222800    296.83902   -1158.1139    6404.4831    11587.879     1950.385 
  222900    302.82887    -1159.552    6473.0627    11782.985    1946.5715 
  223000    300.01846   -1161.2816    6394.7314    11642.884    1889.0175 
  223100    299.25432    -1163.767    6408.1733    11637.516    1917.3526 
  223200    301.98432   -1163.7801     6494.828     11782.48    1890.7577 
  223300    297.51438   -1153.5011    6507.8991    11710.336    1876.6855 
  223400    303.45659    -1153.507    6388.5334    11717.911    1882.4273 
  223500    297.76425   -1160.0616    6393.5665    11594.781    1916.9005 
  223600    300.45378   -1163.4682    6464.1365    11719.402    1917.4585 
  223700    302.63555   -1157.2484    6387.9169    11696.013    1892.6463 
  223800    298.48421   -1163.2835    6417.0349    11630.409    1902.4634 
  223900    304.25867   -1158.6447     6466.525      11807.9     1905.169 
  224000    298.55702   -1162.8008     6477.133    11692.545    1837.7296 
  224100    301.32411   -1164.6037    6468.9804    11741.704    1821.2284 
  224200    299.52794   -1165.3699    6415.2773    11648.862    1863.5716 
  224300    304.93339   -1166.1804    6419.4446    11767.698    1900.4822 
  224400    297.87163   -1157.8648    6392.8185    11598.524    1910.5673 
  224500    299.19482   -1158.2634    6489.9213    11723.496    1883.0225 
  224600    296.71955   -1165.9585    6375.0403     11548.04    1868.2823 
  224700    302.52423   -1159.9371    6353.7213     11656.75    1873.9946 
  224800    296.22853   -1157.4197    6486.0855    11657.134    1924.9481 
  224900    302.54826   -1169.2871    6388.7563    11682.949     1873.977 
  225000    297.84342   -1168.1548    6403.6835    11598.496    1889.5445 
  225100    303.05184   -1171.9556     6498.707    11800.989    1932.2967 
  225200     299.8736   -1171.6919    6528.7219    11763.369    1935.9453 
  225300    298.88324   -1167.7207    6316.9239    11534.385    1870.0321 
  225400    295.02138    -1165.741    6404.0112    11540.949    1940.3375 
  225500    307.35231   -1166.6942    6354.5676    11753.984    1962.1761 
  225600    298.69171   -1167.3391     6433.534    11647.285    1936.2198 
  225700    298.85448    -1165.221    6429.0394    11648.386    1910.6125 
  225800    302.77272   -1160.8676    6492.6117    11800.019    2004.1339 
  225900    299.07398   -1169.9894    6289.1333    11508.401    1924.5802 
  226000    299.98367   -1167.7409    6440.8044    11681.754    1976.2954 
  226100    300.84584    -1166.954    6377.2101    11637.366    1944.2298 
  226200    296.60917   -1162.2269    6547.8212    11722.194    1965.4699 
  226300    305.13243   -1169.4565    6469.6792    11818.909    1927.6819 
  226400    292.99943   -1165.1434    6433.7778    11528.118    1854.9463 
  226500    300.49879   -1164.6981     6429.788    11684.785    1907.6417 
  226600    300.17235   -1162.0113    6382.3559    11633.066    1909.6777 
  226700    294.78391    -1170.408    6434.8004    11561.998     1884.487 
  226800    301.47292   -1164.2919    6456.9237    11733.138    1908.5199 
  226900    304.98461   -1163.2689    6374.8576    11727.117    1876.7992 
  227000    299.84337   -1165.9734    6448.1657    11687.886    1892.1144 
  227100    299.99038   -1165.8479    6473.7761    11716.762    1953.7432 
  227200    299.81313   -1163.7226    6372.5453     11613.87    1946.0897 
  227300    295.06146   -1166.3455    6406.4977    11543.688     1919.076 
  227400    301.18131   -1160.9254    6397.4509    11670.802    1864.6735 
  227500    304.18913   -1160.5439    6484.6954    11822.685    1871.8728 
  227600    296.48553    -1164.061    6511.8058    11681.703    1955.5786 
  227700    303.61995   -1159.9805    6329.4854    11655.879    1923.2251 
  227800    295.47136   -1167.5529    6355.7298    11500.469    1901.8473 
  227900    305.37501   -1165.2643    6473.9792    11832.583    1910.4484 
  228000    304.38358   -1167.8339    6484.1288    11818.983    1856.8557 
  228100    298.53945   -1163.0083    6334.0331    11548.862    1872.8511 
  228200    301.36938   -1160.4187    6401.5867    11679.462    1994.0885 
  228300    300.17278   -1158.2229    6465.5246    11720.032    2012.9351 
  228400    302.10535   -1162.3822    6409.7493    11701.384    1932.7183 
  228500    297.06657    -1165.596    6414.1182    11594.894    1924.8878 
  228600    297.22717   -1165.1662     6455.732    11640.368    1905.6884 
  228700     302.3653   -1170.8587    6431.7487    11720.461    1891.9698 
  228800    299.21242    -1167.891    6390.9231    11615.246     1903.161 
  228900    296.90301   -1170.1866    6572.8822    11745.573    1914.6702 
  229000    301.84063   -1165.6825    6480.5472    11763.227    1934.1322 
  229100    298.42394   -1165.8621    6319.0688    11528.576     1915.619 
  229200    295.25768   -1165.6512    6384.1464    11526.223    1938.0389 
  229300    298.19087   -1158.6323    6524.6512    11736.409    1892.1338 
  229400    298.69409   -1165.2353    6314.7447     11530.65    1802.3746 
  229500    303.12215   -1163.7076    6456.1408    11768.173    1944.7193 
  229600    302.10554   -1166.8826    6375.7497    11662.889    1855.7383 
  229700    299.04174   -1169.5222    6469.1896    11688.235    1913.8871 
  229800    302.47817   -1172.4767    6435.5807    11725.086    1924.6471 
  229900    298.03598   -1172.1914    6335.8918    11530.782    1847.2675 
  230000    299.33025   -1163.0387    6457.9717    11689.664    1895.4146 
  230100    301.29113   -1162.7909    6394.3677    11668.199    1919.8063 
  230200     295.5651   -1165.4943    6378.7931    11527.594    1919.9745 
  230300    301.26876    -1165.816    6397.4482    11667.777    1912.6319 
  230400    297.97101   -1162.7947    6458.5911     11661.49    1937.2627 
  230500    306.80527   -1163.5514    6495.8151    11886.688    1894.9451 
  230600    294.78224   -1163.6592    6454.8501    11588.761    1882.3772 
  230700    301.22753   -1167.3704    6273.3561     11541.25    1862.3242 
  230800    299.74974   -1167.7967    6469.2728    11705.169    1910.0451 
  230900    299.95498   -1164.0288    6474.9438    11718.993    1877.7688 
  231000    301.23991   -1162.1921    6505.0212    11778.358    1908.9124 
  231100    297.96264   -1157.9905    6458.8782    11666.402    1899.4153 
  231200    300.61263   -1160.3866    6314.5106    11576.252    1869.7526 
  231300    294.72835   -1157.5374    6381.1664    11520.048    1893.6211 
  231400    297.97655   -1156.7167    6460.8627    11669.958     1904.395 
  231500    299.72583   -1160.3445    6453.4796    11696.317    1822.4872 
  231600    300.17884   -1164.5274    6546.1978    11794.531    1912.9461 
  231700    301.89002   -1163.3996    6429.4036    11715.421    1994.7473 
  231800    293.78379    -1166.455    6399.8961    11509.681    1946.6503 
  231900    303.01844   -1159.8032    6393.1601    11706.881    1922.3562 
  232000    291.71607   -1165.6509    6540.8423    11607.258    1915.6688 
  232100     299.9525   -1161.5067    6391.6354    11638.154    1798.4594 
  232200     303.4126   -1164.9948    6455.5749    11772.525    1854.2249 
  232300    308.93606   -1165.5454      6338.08     11772.48    1873.4978 
  232400    299.82844    -1166.717    6432.5202    11671.178    1903.0228 
  232500    299.95151   -1168.0041     6442.662    11682.662    1892.6006 
  232600    300.06957   -1165.9968    6400.4849    11645.014     1907.371 
  232700    299.02331   -1170.9871    6366.2492    11583.436    1905.7841 
  232800    305.69188   -1163.1432    6377.5953     11745.09    1915.1159 
  232900    297.82819   -1159.9498    6438.2624    11640.955    1949.3117 
  233000    294.86467    -1159.933     6464.546    11603.944    1914.2087 
  233100    301.32488   -1167.8241    6442.8944    11712.414    1865.6766 
  233200    294.85105   -1166.7774    6284.8345    11417.097    1850.2519 
  233300    299.05204   -1164.0996     6356.346    11581.034    1858.5441 
  233400    296.15605   -1162.7227    6409.7354    11573.932    1819.9547 
  233500    300.72603   -1167.8559     6433.662    11690.356    1893.5742 
  233600    297.57302   -1166.3713    6421.1766    11611.996    1896.1892 
  233700    302.41845   -1163.9259     6472.368    11769.148    1895.5698 
  233800    300.25152   -1165.8294    6301.2512    11549.835    1816.8456 
  233900    298.79823   -1162.6841    6391.3687     11612.05    1918.9974 
  234000    298.16152   -1161.0734    6511.9558    11720.646    1850.0588 
  234100    300.92613   -1155.4868    6428.8981    11702.236    1899.3271 
  234200    301.19537   -1157.7764    6305.4046    11582.205    1897.4017 
  234300    299.88297   -1158.6929    6401.5437     11649.39    1908.4397 
  234400    302.63346   -1160.4103    6528.6029    11833.492     1886.656 
  234500    298.07553   -1164.4028    6397.5411    11601.065    1829.3876 
  234600    302.01469   -1158.3347    6487.2445     11780.99    1893.4576 
  234700    299.73839   -1160.7937    6429.6101    11672.267    1873.8658 
  234800    296.08595   -1159.9512    6473.7205    11639.191     1916.018 
  234900    300.07897   -1152.6604    6398.5118    11656.578    1906.2987 
  235000    304.34774   -1157.2621    6448.5524    11793.213    1945.6445 
  235100    301.17766   -1159.2215     6394.011    11668.988    1899.6708 
  235200    302.90473   -1158.0195    6433.2164    11746.292    1972.0182 
  235300    295.80012   -1162.4415    6514.2115    11671.086    1935.2212 
  235400    302.33935   -1159.4324    6498.8184    11798.402    1883.1701 
  235500    298.94093   -1159.0559    6395.5107    11622.869    1814.4281 
  235600    299.81916   -1163.7763    6367.0351    11608.435    1909.4524 
  235700    296.01792   -1162.8362    6372.9254    11534.058     1946.053 
  235800    300.00277   -1158.5601    6392.3378    11642.876    1844.5147 
  235900    298.87638   -1161.8133      6520.03    11743.252    1894.6315 
  236000    303.06783   -1164.5039    6412.5128    11722.588    1828.7877 
  236100    302.19487   -1162.5265    6375.9225    11669.326    1831.5387 
  236200    296.38153   -1160.1419    6427.9298    11599.525    1946.4838 
  236300    299.58316   -1161.2382    6408.5362    11647.433    1925.1102 
  236400    299.54813   -1167.2212    6394.0265    11626.191    1839.6371 
  236500    300.57942   -1171.1437    6444.1011    11694.375    1930.0328 
  236600    302.14428   -1167.8702    6414.3293    11701.308    1871.3018 
  236700    307.95515   -1162.6568    6497.8472     11914.18    1939.7144 
  236800    297.29664   -1165.6252    6463.2668    11648.928    1866.7095 
  236900    296.42948   -1163.4745    6336.4244    11505.711    1832.5241 
  237000    301.17019   -1163.5327    6414.9825    11685.489    1901.4443 
  237100    295.61627   -1162.7072     6364.165    11516.846     1839.377 
  237200    303.14607   -1164.1227    6543.2612    11855.389    1936.4779 
  237300    296.13486   -1169.1383    6352.6801    11510.009    1844.8957 
  237400    297.61764     -1168.74    6378.1292    11567.533    1924.1543 
  237500    301.03445   -1164.9946    6470.8217    11736.966     1953.918 
  237600    301.10006   -1158.1418    6369.4421    11643.841    1856.5949 
  237700    298.17733   -1157.3798    6466.5177    11679.239    1899.9961 
  237800    303.10596    -1164.448     6497.931    11808.877    1946.2139 
  237900    301.22163   -1157.3594    6447.1227    11724.901    1952.3031 
  238000    301.05459   -1161.1102    6352.4104    11622.869    1890.0616 
  238100    299.90974   -1163.9747     6466.754    11709.891     1923.609 
  238200    302.78558   -1159.2234    6397.5217    11706.848    1878.4705 
  238300    303.53608   -1159.7921    6393.2302    11718.021    1904.1241 
  238400    298.64876   -1158.2078    6518.9963    11740.961    1937.4875 
  238500    299.35781   -1162.8137    6429.8458    11662.352    1800.7556 
  238600    299.60789   -1165.9576    6434.2854    11668.991    1931.4024 
  238700    307.05989   -1158.5923    6401.3684    11802.639    1952.0969 
  238800    299.95294   -1161.8182     6477.033    11723.249    1956.1915 
  238900    298.87791   -1157.6481      6371.42     11598.84    1924.4702 
  239000    301.21624     -1158.48    6410.9877    11687.531    1962.2656 
  239100    299.53061   -1155.4443    6566.4723     11810.04    1940.6926 
  239200    300.55435   -1161.8723    6464.8031    11723.813    1906.1177 
  239300    303.25572   -1162.4063    6355.4252    11671.612    1939.2764 
  239400    297.97991   -1162.0337    6437.7307    11641.581    1895.0763 
  239500    294.10406   -1159.8532    6412.7622    11535.991    1860.7876 
  239600    302.82371    -1158.083    6419.2019    11730.483    1949.1245 
  239700    299.35453   -1157.3753    6438.5332    11676.408    1933.0888 
  239800    305.64045   -1164.2475    6441.7397    11807.031    1953.3083 
  239900    293.91731   -1161.0245    6371.9722     11490.04    1914.3678 
  240000    302.50856   -1161.5229    6394.8116     11695.92    1877.7941 
  240100     296.3552   -1160.9002    6533.8786    11704.153    1869.9453 
  240200    304.09102    -1161.896    6475.6443    11810.186    1922.0018 
  240300    301.38115   -1160.8538    6404.3702    11682.062    1863.2806 
  240400    300.19479   -1162.2721    6412.5223    11663.451    1870.6342 
  240500    297.14818   -1161.1468    6371.1013    11558.069    1841.3834 
  240600    297.83454   -1163.4353    6404.0874     11603.43     1873.348 
  240700    303.87947   -1167.1349    6482.6839    11807.468    1869.8081 
  240800    300.49176   -1162.5821    6441.3391    11698.302    1846.5745 
  240900    303.33534   -1162.4645    6436.4955    11754.325    1938.6634 
  241000    301.61728    -1160.716    6385.7929    11668.667    1840.0839 
  241100    297.30008   -1160.9071    6479.2468      11669.7    1883.2526 
  241200    300.51103   -1166.4585    6338.5124    11592.011     1927.503 
  241300    303.15922   -1166.3265     6382.595      11692.8    1860.7686 
  241400    297.37643   -1161.3251    6399.6872    11591.353    1833.3823 
  241500    302.46664   -1167.5657     6465.738    11759.908     1885.639 
  241600    297.31253   -1163.1915      6416.49    11604.924    1838.9998 
  241700    300.32592   -1165.5493     6487.151    11737.604    1955.7172 
  241800    296.85492   -1167.3573    6463.3483    11637.841    1895.9165 
  241900    301.29184   -1162.1814    6458.6099    11733.066    1923.9331 
  242000    299.84595   -1163.0388    6364.9622    11607.672    1853.3265 
  242100    298.40893   -1158.5713    6425.0442    11641.522    1867.0709 
  242200    301.58162   -1166.2795    6530.4353    11806.984    1954.9663 
  242300    295.45668   -1162.0982    6368.6477    11518.528    1879.4819 
  242400    301.57314   -1164.3757    6368.4606    11646.732     1891.643 
  242500    300.39198   -1166.7503    6343.7917    11594.455    1836.9966 
  242600    295.43978   -1163.1468    6490.4234    11638.894    1805.6296 
  242700    301.16482   -1160.3755    6404.4211     11677.97    1754.4294 
  242800    293.64644   -1160.4759    6448.9263    11561.756    1787.5501 
  242900     301.8477   -1163.7281    6423.6921    11708.477    1817.6328 
  243000    306.16593   -1163.0734    6380.8416    11758.534      1874.85 
  243100    296.92175   -1163.5091    6506.2728    11686.041     1936.376 
  243200    303.72758   -1159.3366    6423.3098    11752.647    1907.1155 
  243300     295.9414   -1156.3397    6284.6358     11450.63    1844.6089 
  243400    301.53699    -1161.682    6380.3371     11660.53    1877.7633 
  243500    297.42917    -1164.888    6559.6183    11748.848    1932.1968 
  243600    301.05524   -1159.5741    6386.8429    11658.852    1828.3826 
  243700    303.12399    -1158.688    6394.4885    11711.579    1878.7466 
  243800    299.97258    -1151.434    6440.7601     11697.78    1872.9914 
  243900    300.60306   -1155.6644    6384.5777    11650.836    1803.9739 
  244000    301.28285   -1160.2631    6446.4022    11722.585    1872.6924 
  244100    299.17811   -1160.6447    6472.5193    11703.356    1890.8178 
  244200     304.8079   -1156.1415    6466.3064    11821.918    1886.4136 
  244300    296.22306   -1156.9733    6413.6352    11585.013    1860.6315 
  244400    302.10369    -1157.504    6277.3157    11573.794    1862.1974 
  244500    299.56335   -1161.6012    6430.8678    11668.978    1943.3058 
  244600     301.2093   -1162.0382    6486.7603    11759.597    1953.1927 
  244700    296.31843   -1163.0674    6464.1108    11631.432    1906.3366 
  244800      299.473   -1158.4643    6483.6349    11722.952    1850.7512 
  244900    299.27036   -1165.6079    6424.3008    11652.145    1875.8231 
  245000    296.80823   -1164.2625    6405.9383    11582.528    1843.7233 
  245100    296.25391   -1161.4216    6340.8596    11508.448    1784.9455 
  245200    300.29507   -1164.6112    6460.5981     11711.33    1910.6098 
  245300    296.49396   -1168.9552    6359.4604    11524.644    1833.7988 
  245400    301.63286    -1168.027    6544.7082    11820.604    1923.1697 
  245500    301.39455   -1164.5627    6411.7709     11686.04     1920.458 
  245600    301.17232   -1170.6254    6336.1854    11599.645    1874.3489 
  245700    300.30968   -1162.7871     6448.698    11701.566    1905.9983 
  245800    298.37417   -1160.8517    6506.7578    11720.212    1938.4363 
  245900    301.89085   -1159.5811    6464.1044    11753.958    1924.7831 
  246000    299.36156   -1161.0386    6257.9407    11492.302    1894.5064 
  246100    301.49728   -1167.2596    6345.4662    11619.233    1963.4093 
  246200     295.5435    -1168.314    6432.9162    11578.436    1902.7932 
  246300     297.1844   -1167.3353    6442.2993    11623.853    1869.7757 
  246400    299.67799   -1159.8495    6411.7999    11654.111    1912.9773 
  246500    301.42953   -1160.7711    6472.1349    11750.943    1929.8094 
  246600    298.77021   -1162.3859    6346.5917    11566.973    1878.3735 
  246700    301.28171   -1157.8604    6413.5764    11692.137    1914.7498 
  246800    299.05041   -1161.0394     6475.132    11702.846    1945.0182 
  246900    300.25022   -1154.8043    6366.5335    11626.115    1837.7634 
  247000    299.40458   -1160.2806    6461.8319    11697.871     1867.914 
  247100    299.42283    -1160.216    6388.5333    11625.026    1863.6367 
  247200    299.36049   -1159.9304    6443.4187    11678.866    1879.8172 
  247300    301.26351   -1158.1352    6386.3438    11664.241    1791.2637 
  247400    298.96332   -1162.6235    6288.6457    11512.915    1855.2519 
  247500     303.2841   -1161.7054    6411.9549    11729.449    1884.5931 
  247600    299.39456    -1156.788    6568.4152    11807.733    1908.0064 
  247700    300.20791   -1155.5493    6413.8012    11671.733    1857.6264 
  247800     300.8335   -1147.6096    6515.0279    11794.264    1962.8627 
  247900    298.38449   -1157.6846    6385.7432    11602.585    1860.6896 
  248000    302.83956   -1154.3365    6403.6322    11718.998     1917.836 
  248100    299.42552   -1159.7254    6446.6069    11683.648     1907.663 
  248200    303.25525   -1156.5974    6503.8063    11825.792    1879.6837 
  248300    300.33326   -1156.7571    6419.9332    11679.335    1863.0858 
  248400    296.43757   -1168.4444    6336.6575    11501.147    1868.6877 
  248500    303.50722   -1159.6506    6422.2486    11746.564    1887.9896 
  248600    302.94611   -1157.1166    6481.2852    11796.147    1900.7253 
  248700    300.46658   -1160.3559    6559.5582     11818.21    1934.8288 
  248800    294.74273   -1158.7449    6344.1949    11482.176    1806.9009 
  248900    301.76849   -1163.3102    6373.0047    11656.515    1855.4102 
  249000    298.57345   -1168.1568    6482.7776    11693.184    1928.5958 
  249100    303.19757   -1168.8165    6330.7111    11639.246    1866.1146 
  249200    293.26505   -1169.7627    6413.1298    11508.525    1829.0611 
  249300     301.0682   -1164.8312    6470.7642    11737.793    1867.6063 
  249400    296.74659   -1167.9116    6389.8413    11561.465    1885.3588 
  249500    293.89628   -1169.3686    6301.5088    11410.783    1800.5733 
  249600    304.71368   -1165.8762     6442.884    11786.748    1971.9162 
  249700     294.6435   -1168.1017    6353.0335    11479.538    1921.7093 
  249800    300.78026   -1167.7548    6423.5868    11681.541    1858.7597 
  249900    299.02856   -1158.6192    6430.0432     11659.71     1804.203 
  250000    303.48915   -1166.3437    6422.5456    11739.782    1896.3384 
  250100    298.02644   -1164.5172    6361.6843    11564.045    1876.5395 
  250200    295.29516   -1160.7649    6500.5748    11648.338    1887.9282 
  250300    301.10867   -1163.7717    6418.1127    11687.066    1947.7419 
  250400    298.88335   -1162.8198    6331.3328    11553.697    1915.3411 
  250500    299.54609   -1161.2316    6485.6798    11723.791    1978.9688 
  250600     298.8947   -1161.4881    6466.1395    11690.078    1927.2367 
  250700    294.14405   -1167.3978    6437.5098    11554.048    1881.0814 
  250800    300.76695   -1160.0713    6427.5026    11692.856    1873.8772 
  250900     297.3141   -1159.3429    6381.0849    11573.402    1845.8667 
  251000    304.24541   -1158.3877    6359.6924    11701.041    1845.8797 
  251100    299.39409   -1159.3092    6416.3039     11653.09     1805.063 
  251200    303.89182   -1156.4405    6378.3084     11714.05    1847.8318 
  251300    296.45963   -1148.9308     6411.684    11596.158    1880.4061 
  251400    302.18418   -1155.5281     6428.594    11728.767    1825.9432 
  251500    297.41025   -1161.4235     6426.275    11618.565    1812.1549 
  251600    300.09611    -1159.561     6405.384    11656.916    1836.2411 
  251700    295.92823    -1158.312    6379.5024    11543.243    1805.0099 
  251800    302.46975   -1158.5273    6396.4797    11699.755    1823.5026 
  251900    297.49617   -1158.3001    6508.1847    11705.434    1908.9568 
  252000    308.47846   -1155.6105    6460.9928    11895.551     1955.203 
  252100     296.7154   -1160.7891    6445.7018    11623.782    1882.3573 
  252200    308.20856   -1163.3665    6409.6856    11830.722    1878.0757 
  252300    298.98413   -1163.4167    6433.0078    11656.928    1873.0963 
  252400    301.22404      -1160.6    6484.7985    11759.388    1862.7555 
  252500    299.43301   -1160.2399    6291.4904    11528.177    1784.2796 
  252600    301.45824   -1160.1341    6423.3754    11703.434    1872.2172 
  252700    299.77737   -1157.1338    6324.0965    11571.246    1876.3292 
  252800    300.80303   -1165.3195    6317.1748     11578.05    1841.3186 
  252900     297.7677   -1164.5929    6526.2702    11723.027    1874.0992 
  253000    301.18091   -1172.4489    6453.7668    11715.586    1861.0364 
  253100    299.61338   -1173.8517    6403.3389    11630.267    1887.9742 
  253200    302.35778   -1173.0273    6436.0699    11722.453    1951.1608 
  253300    302.22294   -1167.8598    6419.5461    11708.216    1910.0337 
  253400    299.45619   -1161.4105    6459.7318    11695.743    1862.1049 
  253500    300.03945   -1163.3584    6429.3482    11675.872    1894.0482 
  253600    301.37244   -1162.5711    6419.3453    11695.134    1852.4032 
  253700    294.73326    -1164.603    6395.7112    11527.632    1857.0605 
  253800    302.48798   -1165.9896    6394.6852    11690.887    1869.7487 
  253900    304.27887   -1165.9807    6407.5605    11742.031    1825.4587 
  254000    296.36373   -1166.5197    6341.0277    11505.864    1750.7798 
  254100    303.08282   -1169.1154    6455.9137    11761.698    1846.4951 
  254200     294.4175   -1165.9556    6360.4594    11484.282    1802.1972 
  254300    303.33721   -1164.3891    6477.9379    11793.883    1881.3582 
  254400    298.04256   -1154.3235    6508.0796    11720.978    1898.1418 
  254500     304.4949    -1159.171    6290.4995    11636.395    1852.6005 
  254600     296.9536   -1165.1639    6363.4114    11542.206    1894.0105 
  254700    299.12225   -1155.8506    6430.4387    11664.876    1860.3331 
  254800    300.16456   -1158.0552    6507.0881    11761.588    1802.6556 
  254900    302.72482   -1154.9237    6469.7954    11782.123    1826.4849 
  255000    299.09527   -1156.8341    6375.8742    11608.752    1848.7575 
  255100     297.6465   -1159.0361    6314.1201    11513.845    1865.3286 
  255200    299.70088   -1155.7121    6374.0903    11621.028    1852.4507 
  255300    304.50538   -1152.8756    6645.3208    11997.735    1937.6355 
  255400     298.7216    -1156.701    6400.1673    11625.195    1840.0425 
  255500    300.74106   -1147.7706    6319.1193     11596.22     1857.106 
  255600    297.98787   -1151.1359    6398.2114    11613.129    1916.8587 
  255700    297.52014   -1158.8933    6461.0069    11658.175    1875.4626 
  255800    303.42479   -1159.7039    6478.4636    11800.965     1868.686 
  255900    300.51716   -1163.7249    6480.4789    11736.842    1942.2912 
  256000     303.9875   -1164.3693    6430.0741    11759.931    1968.5293 
  256100    299.68746   -1166.9501    6429.3772     11664.79     1944.776 
  256200    297.41256   -1163.6373    6324.2622    11514.388    1882.2447 
  256300    301.74171    -1156.861    6492.7643    11782.152    1990.3203 
  256400     299.8421   -1162.6348    6344.6863    11587.718    1857.2544 
  256500    299.89316   -1161.9275    6450.7455    11695.575    1941.6418 
  256600    302.95053   -1158.3683    6416.9439    11730.649    1938.3641 
  256700    296.26155   -1163.4126    6412.8152    11578.576    1866.7134 
  256800    304.03522   -1171.1169    6380.9643    11705.093    1871.9472 
  256900    299.32227   -1166.6546    6467.8736     11695.78    1870.1871 
  257000     302.7517   -1163.6072    6498.8646    11803.083    1905.4253 
  257100    298.76048   -1168.6087    6457.2634    11671.214     1868.988 
  257200    302.25768   -1173.1694    6260.7459    11544.848    1837.9362 
  257300    295.84776   -1164.2718    6399.9787     11556.04    1931.1919 
  257400    298.21274   -1165.0091    6426.7714     11632.62    1907.3933 
  257500    299.98247    -1166.395    6463.3566    11705.627    1954.7291 
  257600    297.95141   -1166.3141    6323.4256    11522.386    1846.3651 
  257700    300.80173   -1163.1347     6447.454    11710.487    1896.4039 
  257800    296.08063   -1168.7077    6349.7174    11506.318     1779.132 
  257900    303.75087   -1160.5893    6384.1613    11712.743    1798.6874 
  258000    300.28314   -1162.3627    6514.9308    11767.657    1940.5732 
  258100    301.36756   -1161.2516    6387.5389    11664.543    1880.4031 
  258200    298.42904    -1155.221    6538.6237    11758.881    1920.5629 
  258300    295.48685   -1155.4962    6408.2434     11565.37     1908.195 
  258400    296.04866   -1159.2172    6351.6695    11517.078    1904.8907 
  258500    300.71173   -1156.3302    6432.1532    11700.068    1881.0206 
  258600    301.11183   -1156.8247    6442.7747    11718.742    1827.4965 
  258700    295.82295   -1156.1579    6466.5273    11630.173    1896.6507 
  258800    303.17571   -1155.5666    6323.3853    11644.703    1839.3236 
  258900    299.73427   -1154.6306    6438.7229    11687.455      1891.96 
  259000    307.03038   -1157.8951    6405.4615    11806.799    1996.8622 
  259100    298.77087   -1153.0618       6385.4    11615.119    1933.3169 
  259200     305.1805    -1162.587    6413.9146    11771.041     1897.481 
  259300    300.60626    -1155.943    6525.1866    11791.235     1953.724 
  259400    302.13967   -1166.6766    6406.3969    11694.471    1831.7295 
  259500    297.53121   -1168.3516    6523.5262    11711.472     1852.864 
  259600    299.46282   -1159.3803    6393.0049    11631.188    1814.1906 
  259700    303.92675   -1167.6404    6321.0023    11646.291    1739.5566 
  259800    294.23832   -1167.5473    6405.8694    11524.272    1747.6648 
  259900    300.91507    -1166.372    6515.2447    11777.461    1773.0365 
  260000     304.9835   -1161.1135    6505.6211    11860.012    1870.6847 
  260100    298.97899   -1167.7091    6360.5324    11580.051    1909.9676 
  260200    296.07118   -1169.5542    6324.0438    11479.596    1948.7669 
  260300    302.56141   -1164.6161    6534.6559      11833.8    1946.5647 
  260400     298.0635   -1168.8784    6429.7484    11628.539    1820.7869 
  260500    303.15349   -1174.0436    6406.2478    11708.613    1868.7273 
  260600    300.73509   -1171.6536    6428.4363    11681.526    1897.2401 
  260700    304.58854   -1170.6539    6348.6748    11685.088    1876.8445 
  260800    293.65579   -1170.3589    6371.2115    11474.358    1831.8286 
  260900    301.64394     -1164.92    6498.5146    11777.754    1934.1213 
  261000    300.68009   -1166.7865     6455.185    11711.967    1884.3254 
  261100      300.707   -1164.1608    6452.6786    11712.661    1914.6755 
  261200    295.50084   -1164.3767    6367.8868    11516.432    1863.1838 
  261300    301.86975   -1162.2424    6428.0721    11714.814    1915.1308 
  261400    296.05426    -1166.838    6390.1157    11548.023    1874.0723 
  261500    304.41087     -1163.68    6376.1479    11715.739    1950.0266 
  261600    297.88896   -1163.9312    6513.6686    11713.678    1968.4513 
  261700    298.58384   -1165.5878     6402.003    11615.201    1949.9238 
  261800    302.20115   -1158.3476    6384.0744    11681.791    1877.1385 
  261900    298.62359     -1163.06    6542.2043    11758.779    1950.7317 
  262000    299.78939   -1161.0236    6379.4136     11622.93    1916.3258 
  262100    299.75712    -1166.042    6363.1189    11600.928    1884.6947 
  262200    294.43086   -1162.2055    6439.6896    11567.548    1925.1709 
  262300    299.12418   -1160.8019    6490.0369    11719.564    1941.6603 
  262400    301.20366   -1160.5659    6453.7569    11727.945    1930.2126 
  262500    297.05758   -1164.9554    6353.8782    11535.102    1919.3312 
  262600    295.94931   -1165.6162      6341.04    11497.927    1910.6539 
  262700    300.70301   -1162.6445    6492.6176    11754.031     1936.188 
  262800    299.16512   -1161.7428    6546.4682    11775.929    1899.5596 
  262900    299.60209   -1166.1569    6380.6777     11615.06    1913.4767 
  263000    299.59955   -1169.1589    6411.4427    11642.768    1918.8515 
  263100    303.58689    -1165.143    6417.7049     11738.23    1886.0895 
  263200    297.80079   -1165.9451    6378.0131    11574.125    1870.9152 
  263300    302.36446   -1172.2412    6431.3073    11718.619    1931.1303 
  263400    302.31182   -1171.5618    6391.9502    11678.817    1884.8343 
  263500    294.33624   -1165.2075    6497.1535    11619.988     1931.316 
  263600    303.50123   -1170.8242    6438.4321    11751.446    1921.3428 
  263700     300.7074   -1168.3264    6364.6581    11620.484     1877.517 
  263800    301.42496   -1170.1137    6384.2433    11653.611    1896.4378 
  263900    300.05128    -1168.108    6510.7429     11752.77     1941.605 
  264000    301.45949   -1169.9698    6407.5615    11677.811    1964.1643 
  264100    294.41434    -1170.341    6382.0687    11501.438    1915.0839 
  264200    304.51273   -1165.8406    6472.2903    11811.897    1985.6372 
  264300    297.76892   -1168.2815    6441.2894    11634.384    1945.4538 
  264400     299.2317   -1163.5638    6344.5325    11573.595    1905.9625 
  264500    301.57622   -1162.5283    6352.6962    11632.881    1912.4397 
  264600    299.02001   -1162.2616    6461.4646    11687.307    1931.1345 
  264700    297.59775   -1160.0907    6480.0503    11677.679    1864.5662 
  264800    306.03355   -1166.6085    6372.8734    11744.202    1885.5466 
  264900    298.73435   -1161.0369    6461.2836    11682.248    1906.2768 
  265000    301.76484   -1162.4035    6469.2722    11753.611    1842.9414 
  265100    303.23613    -1161.748    6383.0389    11699.465    1837.3901 
  265200     297.7306   -1157.5061    6547.6135    11750.665    1961.7515 
  265300    302.87831   -1160.8085    6392.4643    11702.186    1905.8191 
  265400    293.27773   -1160.4345    6373.4182    11478.412     1892.111 
  265500    298.91429   -1159.0045    6487.4928    11714.333    1944.5006 
  265600    301.62379    -1164.543     6453.519    11732.705    1855.3306 
  265700    296.01189   -1164.5648    6392.1163    11551.391    1850.4627 
  265800    305.98766   -1155.9771    6443.4524    11824.432    1939.4901 
  265900    299.24801   -1159.8258     6439.328    11672.477    1952.3334 
  266000    301.22389   -1159.0848     6449.518    11725.619    1870.0714 
  266100    300.22123   -1160.2136    6472.1897    11725.742    1945.3042 
  266200    296.51776   -1167.7182    6362.6283    11529.557    1895.5101 
  266300    305.16928   -1167.3286    6357.6078    11709.753    1910.2209 
  266400    299.57656   -1161.2007     6406.064    11644.857    1911.9083 
  266500    302.94134   -1162.0311    6421.3834    11731.229    1943.7987 
  266600    303.59293   -1167.3788    6492.2196    11810.638    1951.9003 
  266700    295.52852   -1165.2509    6391.3652    11539.628    1936.8711 
  266800    300.85567   -1163.7644     6378.027    11641.582    1883.0029 
  266900    297.35405   -1166.5926    6439.5956    11625.516    1902.4061 
  267000    299.69183   -1164.9952    6522.0626    11759.523    1916.8856 
  267100    306.47288   -1166.9128    6372.9763    11753.386     1874.378 
  267200    300.38564   -1161.1226    6420.4415    11676.597     1918.513 
  267300    295.88644   -1168.7189    6419.7347    11572.175    1950.7148 
  267400    300.76149   -1165.8143    6348.5608    11608.054    1865.8197 
  267500    296.59727   -1162.3264    6490.7195    11664.739    1880.7211 
  267600    306.28695   -1161.4283    6348.5475     11730.47    1848.8111 
  267700    297.44021   -1162.5442    6446.0182    11637.828    1914.9786 
  267800    297.58475   -1160.7752     6358.616    11555.282    1811.8111 
  267900    300.61103   -1163.1388    6497.7298    11756.684    1861.6855 
  268000    300.65921   -1157.3616    6466.6079    11732.369    1878.6649 
  268100    301.27869    -1160.524    6401.2263    11677.059    1848.7676 
  268200    301.03673   -1160.7336    6399.1154     11669.57    1884.7234 
  268300    299.91548   -1160.5267    6402.0959    11648.803     1954.357 
  268400    298.00744   -1161.1487    6468.4426    11673.766    1883.7974 
  268500       304.55    -1159.333    6515.6207    11862.531    1886.6877 
  268600     298.5042   -1159.4782    6332.3514    11549.957    1875.4327 
  268700    301.55886   -1158.7105    6314.4084     11598.04    1883.7702 
  268800    298.67391   -1153.7184    6427.6535    11654.645    1880.1216 
  268900      298.736   -1156.4023    6482.9434    11708.577     1863.384 
  269000    299.77526   -1158.8343     6451.098    11696.502    1853.6824 
  269100    297.67892   -1160.5843    6385.3212     11584.19    1767.9059 
  269200    296.21213   -1161.9191    6525.1449    11691.344     1850.013 
  269300    301.20334   -1166.4307    6298.8655    11567.182    1794.8883 
  269400    297.27122   -1170.7168    6398.3957    11578.422    1934.1412 
  269500    301.94982   -1166.0396    6429.6476    11714.303    1890.7772 
  269600    302.23967   -1160.4747    6450.0323    11746.444     1937.522 
  269700    306.01499   -1167.1999    6432.1649    11802.506    1997.3606 
  269800    301.56853   -1159.2433     6382.286    11665.592    1936.9845 
  269900    296.77358   -1157.9739    6398.1886    11580.327    1907.6789 
  270000    302.59257   -1167.5834    6414.4592    11711.302      1945.09 
  270100    296.09053   -1169.8841    6500.3471    11655.983    1946.7645 
  270200    301.51456   -1170.9811    6446.9379    11717.353    1873.1321 
  270300    301.12594   -1168.8116    6409.0555    11673.338    1945.0836 
  270400    295.86919   -1169.1002    6389.9991     11541.69    1982.6129 
  270500    300.71531   -1170.4924    6481.9449    11735.774    1940.4573 
  270600    299.78558   -1166.9037     6400.345      11637.9    1899.5903 
  270700    299.47657   -1160.0235    6420.9404    11658.774    1943.1555 
  270800    301.53908   -1161.8979    6343.7283     11623.75    1870.2708 
  270900    295.39979   -1156.9945     6489.926    11643.695    1849.1237 
  271000    297.66717   -1164.6349    6391.0309    11585.598    1855.4694 
  271100    300.42925   -1163.9918    6372.4062    11626.624    1815.0765 
  271200    297.84297      -1165.4    6378.3701    11575.928    1812.4481 
  271300    300.32439   -1169.1386    6545.0112    11791.843    1938.4764 
  271400    298.92729   -1165.5751    6318.6617     11539.21    1805.6257 
  271500    295.87772   -1161.3062    6324.8449    11484.512    1828.7513 
  271600    306.51118    -1152.135    6384.3167    11780.323    1876.9104 
  271700    296.52914   -1151.4409    6411.0559    11594.505    1878.6343 
  271800    301.14103   -1153.2763    6406.2601      11686.4    1849.7685 
  271900    299.38354   -1157.3779     6510.249    11748.741    1930.1134 
  272000    300.31706   -1163.2664    6422.3009    11674.848     1919.796 
  272100    300.40657   -1167.0684    6417.4067    11668.064    1837.4718 
  272200    305.67604   -1162.1562    6409.6583    11777.802    1842.1786 
  272300    296.85253   -1160.3801    6511.9171    11693.336    1892.7035 
  272400    302.21953   -1159.4486    6484.7747    11781.783    1915.3145 
  272500    296.42222   -1154.8868    6460.8141    11638.533    1935.2228 
  272600    304.42564   -1153.6151    6496.9068    11846.878    1983.7807 
  272700      298.053   -1159.8858     6308.096    11515.655    1863.3245 
  272800    297.91013   -1153.9941    6389.9962    11600.395    1894.2089 
  272900    301.79959   -1156.6385    6534.6317    11825.478    1985.9841 
  273000    302.33872   -1166.3057    6331.0682    11623.765    1861.2653 
  273100    298.33789   -1168.3261    6403.3832    11608.588    1847.0586 
  273200    301.82554    -1164.836    6471.2853    11754.489    1806.3745 
  273300    296.91656   -1167.8112    6507.0644     11682.42    1770.8077 
  273400    303.83258   -1171.1695    6431.3771    11751.125    1841.1846 
  273500     296.2851   -1166.9846    6359.3219    11522.014    1934.8458 
  273600    302.02172    -1161.285    6341.5316    11632.477    1957.7195 
  273700    303.47364   -1157.6277    6375.8658    11701.487    1929.5918 
  273800    300.25964   -1156.2883    6422.0079    11680.306    1924.9058 
  273900    298.81949   -1154.8579    6458.8345    11687.797    1907.3773 
  274000    302.61864   -1164.5522    6460.7128    11761.143    1915.3749 
  274100    299.22222   -1173.4958    6325.1369    11544.065    1844.7707 
  274200    301.41857   -1168.1613     6514.098    11785.282    1936.6779 
  274300    300.32662   -1164.6004    6493.0372    11744.454    1898.3239 
  274400    302.42476   -1162.5304    6455.2271    11753.538    1918.4043 
  274500     295.0035   -1161.2829    6401.1286    11542.143    1930.5645 
  274600    301.91428   -1160.7526    6341.1394    11630.322    1933.9898 
  274700     299.3626    -1156.055    6347.0048    11586.372    1895.5047 
  274800     302.4847   -1159.5354    6444.6186    11747.205    1892.4221 
  274900    302.16957   -1162.1949    6570.3757     11863.57    1897.7811 
  275000     292.2554   -1159.7598    6402.4797    11486.308    1829.1463 
  275100    303.34508   -1168.8412    6325.2295     11636.89    1889.9196 
  275200    299.06817   -1164.8356    6485.9903    11710.287     1902.368 
  275300    303.77146    -1167.072    6448.0264    11770.566     1796.433 
  275400    301.43971   -1171.1502    6404.6839    11673.331    1827.1746 
  275500    302.69367   -1161.9441    6506.0502    11810.692    1899.0648 
  275600    295.45806   -1159.6136    6430.3134    11582.708    1791.0085 
  275700    307.34932   -1158.7277    6471.5776    11878.896    1871.5652 
  275800    297.72629   -1152.1913    6347.1512    11555.425    1841.6312 
  275900    301.55479   -1161.1371    6447.9013     11729.02    1899.5585 
  276000    301.88339   -1165.8012    6381.3411    11664.815    1922.6022 
  276100    294.55512   -1166.4371    6483.0672    11609.348     1946.672 
  276200    299.17934   -1173.7863    6427.5932    11645.314    1829.2417 
  276300    306.64396   -1167.4501    6517.9089    11901.437    1873.4951 
  276400    303.86067   -1164.4683    6446.6487    11773.697     1893.923 
  276500    298.88301   -1162.8992    6389.1958    11611.474     1910.201 
  276600    297.68201   -1158.7632    6358.2164    11558.973    1866.1282 
  276700    302.80048   -1155.3296    6451.9445    11765.482    1947.1973 
  276800    299.40416   -1157.2564    6394.9758     11634.03    1860.4291 
  276900    295.53688   -1165.6928    6424.7016    11572.701    1926.3677 
  277000    301.45303   -1166.4639    6403.2975    11676.915    1926.2318 
  277100    297.43036    -1166.248    6497.4959    11685.391    1838.5243 
  277200    298.66089    -1166.221    6516.4118    11730.622     1857.343 
  277300    301.01718   -1166.7525    6378.1193    11642.137    1873.4434 
  277400    300.05065   -1162.4581    6317.8097    11565.473    1779.5047 
  277500     295.1174   -1164.2009    6461.1975    11601.727    1840.9808 
  277600     301.4808   -1159.1574    6580.0388    11861.556    1922.1944 
  277700    302.09237   -1159.6958    6328.1798    11622.224    1821.7844 
  277800    299.28261   -1163.9075    6325.4253    11555.232    1871.8976 
  277900     297.9005   -1163.5569    6397.9898     11598.62    1857.3034 
  278000    304.53334   -1162.4727    6571.1708    11914.586    1911.5866 
  278100    297.75664   -1163.5403    6510.3946    11707.968    1925.8394 
  278200    305.09638   -1162.7214    6340.1788    11695.373    1906.4812 
  278300    295.06861   -1159.3766     6383.779    11528.091    1917.1189 
  278400    302.96725   -1163.7316    6422.2462    11730.945    1872.1953 
  278500    295.17947   -1157.4337    6524.0927    11672.716    1891.4843 
  278600    305.52911   -1162.9002    6358.9793     11723.24    1924.0837 
  278700    298.00525    -1154.844     6306.452    11518.033    1934.4619 
  278800    298.23571   -1158.6904    6478.7649    11691.423    1942.1411 
  278900    298.27386   -1165.0026    6562.2208    11769.381    1932.3151 
  279000    295.89543   -1163.1626    6307.9455    11466.135    1858.1253 
  279100    300.06336   -1167.3328    6323.3887    11566.449    1874.8589 
  279200    299.24044   -1165.8125    6475.6463    11702.647    1926.5648 
  279300    301.18163   -1164.2316    6372.1005    11642.152    1881.8631 
  279400    300.02176   -1161.2416    6484.9582    11733.221    1875.7246 
  279500    295.59781   -1155.9742    6520.1227    11679.142    1872.7689 
  279600    301.90295   -1153.5104    6350.0376    11646.221    1861.5976 
  279700    297.71654    -1165.944    6395.5136    11589.827    1918.5688 
  279800    298.50955   -1163.2586     6434.919    11648.859    1893.7368 
  279900    297.95079   -1164.7818    6373.8097    11574.289    1851.2435 
  280000    300.37972   -1165.7773    6401.9246    11653.299     1896.348 
  280100    301.62477   -1157.2139    6470.2064    11756.743    1942.3531 
  280200    295.60384    -1162.655    6443.0491    11595.517    1926.8567 
  280300     303.0258   -1163.6895    6424.3659    11734.358    1914.2904 
  280400    295.36506   -1163.7089    6470.8002    11617.113     1884.681 
  280500    300.70244   -1168.2115    6379.0328    11634.867    1824.9615 
  280600    300.82563   -1159.5077    6457.7757    11724.946    1873.7587 
  280700     296.6281   -1165.5471    6377.5916    11549.049     1868.264 
  280800    302.71278   -1167.4026    6367.9843    11667.576    1915.9791 
  280900    299.42809   -1165.7031    6424.1598    11655.278    1899.7493 
  281000    301.69738   -1160.9632    6536.1465    11820.485    1962.8039 
  281100    294.56224   -1164.3836    6399.5726    11528.059    1847.7055 
  281200    299.10511   -1163.9587     6419.917     11645.88    1816.5787 
  281300    302.33276   -1161.1777    6318.9957    11616.693    1830.4886 
  281400    299.93284   -1163.0127    6472.0795    11716.672    1910.2681 
  281500    300.55528   -1165.5269    6503.0109    11758.386    1909.8893 
  281600     300.4933   -1163.7525     6359.535    11615.361    1815.0573 
  281700    303.29252   -1163.9925    6380.0078    11695.395    1821.3608 
  281800    294.10889    -1163.608    6509.8738    11629.451    1897.7842 
  281900    301.83881   -1172.0336    6347.4861    11623.776    1834.0297 
  282000    298.56062   -1167.6318    6427.4521     11638.11    1869.0048 
  282100    299.58921   -1165.1068    6469.7326     11704.89    1882.9599 
  282200    300.81117   -1160.6387     6451.387    11717.117    1892.6553 
  282300    300.91501   -1160.4273    6428.1359    11696.296    1915.1038 
  282400    298.48689   -1159.4505    6332.5304    11549.794    1887.1705 
  282500    301.46427   -1159.1652    6399.5011    11680.657    1882.8673 
  282600    294.86366   -1169.5001    6369.0803     11498.89    1827.3526 
  282700    301.79219      -1169.4    6499.5654    11777.492    1857.7649 
  282800    305.39106   -1166.6911    6489.4112    11846.932    1912.2055 
  282900    298.39543   -1164.5251    6345.3173    11555.553    1872.7011 
  283000    303.36167   -1160.3277    6397.4184    11717.947    1897.2356 
  283100    295.76535   -1162.8701    6453.0321    11608.735    1854.8836 
  283200    300.26975   -1155.0723     6459.806    11719.536    1892.0395 
  283300    297.99637   -1159.4856    6379.0939    11585.843    1858.0113 
  283400    297.31744   -1165.2927    6445.6365    11632.075    1854.9888 
  283500    304.70158   -1159.3957    6435.7044     11785.79    1966.8547 
  283600    298.15339   -1165.5412    6352.9299    11556.978    1873.7084 
  283700    296.85886   -1160.3905    6449.7507    11631.294    1877.2868 
  283800    298.87547   -1161.3991    6392.8638     11616.48    1842.2565 
  283900    300.02281   -1160.5992    6517.9472    11766.875     1869.606 
  284000    304.44751   -1162.8707    6388.4695    11729.653    1848.0708 
  284100    297.55627   -1159.6062    6396.7815    11594.009    1920.8414 
  284200    299.29857     -1164.51    6401.4749     11631.02    1876.3882 
  284300    296.34728    -1157.449    6444.5793    11618.135    1859.8736 
  284400    303.32607   -1155.8345     6403.968     11728.23    1898.1522 
  284500    306.18872   -1165.5141    6378.4123     11754.15    1912.3462 
  284600    297.71194   -1161.9554    6461.9794    11660.183    1841.4017 
  284700    299.50558   -1161.5163    6419.3839    11656.345    1869.8539 
  284800    293.60785   -1164.8766      6506.61    11614.215    1842.6532 
  284900    300.94727   -1162.9188    6484.6884    11751.046    1860.1227 
  285000    299.51097   -1166.7617    6356.5605    11588.391    1877.3423 
  285100    294.58649   -1160.4877     6415.803    11548.704    1920.5398 
  285200    302.00628   -1158.6423    6417.3779    11710.636    1915.2768 
  285300    293.36641   -1162.4575    6324.9343      11429.8    1836.4372 
  285400    300.69991   -1164.6429    6475.1106     11734.46    1893.7083 
  285500    299.06174   -1166.8718    6432.1288    11654.252    1873.5662 
  285600     298.3968   -1163.4868    6363.5215    11574.825    1845.2018 
  285700    292.51736   -1163.5954     6504.311      11589.9     1907.198 
  285800     301.3591   -1169.3948    6376.6562    11645.336    1882.2002 
  285900    303.36829   -1164.0232    6405.0183    11721.993    1971.2642 
  286000    295.90508   -1158.9737    6404.5765    11567.161    1845.8491 
  286100    302.13759   -1154.9425    6559.6111    11859.375    1957.5115 
  286200    296.05648    -1160.157    6433.6736    11598.309     1912.589 
  286300    304.76164   -1170.0855    6375.9752    11716.654    1901.9405 
  286400    302.40896   -1161.6329    6434.0706    11732.941    1895.7681 
  286500    299.80605   -1159.9672    6513.3689    11758.298    1918.5115 
  286600    302.79276    -1166.714    6438.7962    11740.785    1924.6469 
  286700    298.60767   -1162.9951    6477.4895    11693.789    1915.3222 
  286800    301.62451    -1162.406    6443.8623    11725.201    1894.3636 
  286900    300.18815   -1163.4082      6383.02    11632.671    1911.3285 
  287000    294.79671   -1159.0063    6412.5069     11551.38    1940.6594 
  287100    302.46998   -1156.4408    6429.7041     11735.07    1946.4776 
  287200    301.55868   -1159.6251    6385.8824    11668.596    1946.6607 
  287300    300.06621   -1156.6466    6523.7268    11777.534    1972.4789 
  287400    300.23278   -1164.7156    6295.8803    11545.177    1813.9324 
  287500    298.60697   -1164.1672    6446.7696    11661.882    1862.6227 
  287600    298.21068   -1163.6767    6518.9924    11726.129    1912.5214 
  287700     298.4804   -1164.8368    6376.8666    11588.606     1829.968 
  287800    301.40267   -1163.3949     6459.231    11734.842    1901.2111 
  287900    297.04771   -1163.8031    6417.8266    11599.992    1946.7236 
  288000     304.4209   -1164.9754    6482.3765    11820.887    1974.3114 
  288100    299.02174   -1161.3941     6450.559    11677.305    1914.5953 
  288200    297.89095    -1159.224    6415.9958    11620.755    1948.8281 
  288300    304.76825   -1170.8432    6346.0169     11686.08    1868.2525 
  288400    299.31018   -1160.3341    6428.8519     11662.82    1838.8762 
  288500    299.50628    -1162.574    6552.2197    11788.138    1979.7908 
  288600    303.64049   -1168.8448     6357.349    11675.317    1868.2218 
  288700    296.70657   -1163.6853    6435.6328    11610.628    1852.5547 
  288800     301.9848   -1162.3102    6499.1743    11788.306    1925.9464 
  288900    303.52587   -1155.3376    6364.2925     11693.32    1914.4752 
  289000    297.50758   -1160.7955    6454.8251    11649.823    1886.5422 
  289100    301.76064   -1157.4619    6481.4364    11770.628    1881.0034 
  289200    303.66165   -1159.1867    6421.0388    11749.117     1932.664 
  289300    296.68565   -1159.0746    6392.1855    11571.344    1908.1269 
  289400    299.88048   -1159.7785     6459.054    11705.762    1939.5031 
  289500    298.41492   -1160.5829    6373.3239    11587.918    1901.6187 
  289600    303.82414   -1163.7674    6413.2562    11740.225    1869.4073 
  289700    299.01907    -1161.891    6564.1856    11790.378     1874.484 
  289800    300.96733   -1163.3053    6362.3223    11628.722    1787.0734 
  289900    296.84504   -1161.6858    6383.4477    11563.401    1871.1523 
  290000    303.72521   -1160.7264    6359.8176    11687.714    1830.5365 
  290100    300.70726   -1153.1853    6466.0346    11736.998     1844.482 
  290200    299.11389   -1156.9732     6435.347    11668.483    1910.5591 
  290300    301.84636   -1155.9444    6365.2495     11657.79    1904.1061 
  290400    299.52915   -1161.8257     6465.999    11703.154    1866.3151 
  290500    302.35082   -1161.2858    6354.7227    11652.698    1836.8233 
  290600    302.77685   -1164.4149    6467.7083    11771.656    1959.7764 
  290700    299.75294   -1163.5237    6511.2988    11751.537    1860.2068 
  290800    297.76172   -1165.9873    6355.9775    11551.212    1757.3917 
  290900    302.74854   -1157.5921    6417.3502    11727.516    1926.8745 
  291000    299.14146   -1157.5558     6473.714    11706.857    1941.0246 
  291100    299.72316   -1161.9864    6337.0941    11578.233    1823.5255 
  291200    300.29606    -1161.007    6394.5969    11648.954    1880.0226 
  291300    298.76983   -1165.4671    6608.6637    11825.956    1900.8804 
  291400    299.57356   -1163.6527    6437.7892    11674.066    1804.6785 
  291500    300.88444   -1165.5114    6323.8169     11586.24    1865.4073 
  291600    297.62578   -1172.0199     6375.075    11561.373    1946.0688 
  291700    300.30968   -1162.4376    6421.2537    11674.472    1879.8366 
  291800    302.50748   -1165.3139    6440.9372    11738.232    1830.8219 
  291900    295.38801   -1158.8393    6428.2828    11579.955    1856.1822 
  292000     298.9462   -1159.8083     6520.191     11746.91    1901.6956 
  292100    300.04525   -1166.7511    6287.8819    11531.137    1843.2151 
  292200    294.21143   -1168.8738    6293.1198    11409.622     1879.049 
  292300    300.13211    -1166.511    6475.1972    11720.548    1893.1858 
  292400    299.56832   -1164.6006    6488.2139    11723.431    1878.2521 
  292500    301.82743   -1164.0227    6395.2739    11679.331    1868.9227 
  292600    298.94898   -1168.0472     6368.938    11587.477    1828.7318 
  292700    293.94893   -1161.4269    6410.8766    11529.218    1870.5246 
  292800    304.14171    -1155.648    6423.1208    11764.994    1939.0671 
  292900     293.0318   -1149.2786    6391.3378    11502.234    1839.1806 
  293000    301.28697   -1148.8903    6549.8493    11837.493    1860.3745 
  293100    299.75494   -1151.2846    6430.9434    11683.463     1845.993 
  293200    302.30802   -1157.5657    6321.5295    11622.311    1829.5916 
  293300    300.04841   -1154.7228    6483.1701    11738.521    1864.4292 
  293400    297.75154   -1160.3578    6449.5222    11650.169    1770.6605 
  293500    294.07051   -1158.6634    6530.8199    11654.522    1805.1349 
  293600    302.35931    -1158.674     6450.855    11751.624    1825.1899 
  293700    298.12835   -1160.7486    6310.2149    11518.521    1859.1184 
  293800    302.28442   -1156.4541     6267.554    11568.943    1845.6064 
  293900    298.45469   -1157.2067    6517.4886    11736.308    1919.8661 
  294000    301.09835   -1158.2206    6513.2012    11787.485    1842.6473 
  294100    294.54618   -1153.3861    6446.3519    11585.493    1917.5357 
  294200    300.59634   -1153.1747    6305.8382    11574.443    1897.2577 
  294300    296.99598   -1156.7414    6286.9273    11475.049    1844.6649 
  294400    295.37873   -1167.0796    6518.1638    11661.398    1932.2134 
  294500    302.13337   -1159.6646     6425.019     11719.97    1878.7418 
  294600    298.47553    -1157.071    6378.2019    11597.603    1834.5098 
  294700    299.44239   -1164.3905    6551.0763    11783.813    1937.0972 
  294800    299.65601   -1164.7553    6407.9646      11644.9    1910.9744 
  294900    299.74762    -1163.108    6323.8493    11564.389    1814.6823 
  295000    302.18959   -1159.3381    6400.1646    11696.644    1914.3358 
  295100    300.68261   -1163.2539    6388.5013     11648.87    1955.3489 
  295200    295.53868    -1168.283    6396.0041    11541.452    1892.8545 
  295300    294.76627   -1168.0854    6494.6505    11623.794    1892.0412 
  295400    296.03122   -1169.0557    6391.2691    11546.466    1909.4625 
  295500    304.72373   -1169.5378    6386.2573    11726.674    1910.4292 
  295600    301.32913   -1169.4831     6472.264    11740.215    1943.7227 
  295700    302.65655   -1162.6126    6463.6982    11766.878    1889.2041 
  295800    297.14803   -1164.9321    6437.2646    11620.444     1970.104 
  295900    304.89477   -1162.4663    6403.3677     11754.51    2024.3537 
  296000    298.56168   -1160.8303    6436.5548    11654.037    1941.6421 
  296100    297.90057   -1160.0095    6441.3593    11645.538     1925.161 
  296200    298.60252   -1163.1655    6352.9261    11568.945    1824.0307 
  296300     294.5795   -1162.2831    6453.3022    11584.258     1880.951 
  296400    302.58638   -1164.1342    6370.6354    11670.795    1844.0032 
  296500    298.89564   -1164.5013    6467.3325    11688.278    1875.8425 
  296600    300.56838   -1162.3513     6561.516    11820.347    1872.3689 
  296700    300.21733   -1164.7815    6365.9833    11614.884    1860.9324 
  296800    298.85402   -1163.8453    6343.2668    11563.979    1915.5843 
  296900    302.00714   -1160.6927    6353.0917    11644.318    1879.6682 
  297000     301.5706   -1155.5754    6515.2898    11802.307    1983.1499 
  297100    307.77573   -1159.1225    6470.7697    11886.803    1940.5043 
  297200    299.82241   -1153.6955    6350.5015    11602.052    1872.6055 
  297300    296.23595   -1160.8728    6403.4704    11571.224    1906.4346 
  297400    300.59805   -1160.8971    6518.9925    11779.912    1918.9016 
  297500    303.53193   -1166.2814     6439.713    11757.926    1850.0578 
  297600    299.72575   -1160.4458    6427.1619    11669.897    1909.1742 
  297700    299.85139   -1163.1197     6364.714    11607.459    1887.3342 
  297800    302.98044   -1164.8442    6512.3581    11820.226    1905.6973 
  297900    297.55068   -1164.2489    6446.1047     11638.57    1887.4945 
  298000    304.98719   -1162.5954    6427.4827    11780.471    1908.0234 
  298100    296.08322   -1161.8729    6383.2839    11546.775    1878.6624 
  298200    303.11876    -1167.981    6342.8221    11650.508    1877.7778 
  298300    296.29123    -1162.735    6466.4104    11633.483    1953.0758 
  298400    297.79581   -1162.5713    6332.9915    11532.371    1893.0064 
  298500    299.51197    -1166.906    6377.9513    11609.659     1859.129 
  298600    304.01918     -1173.98    6485.5821    11806.506    1851.5113 
  298700    304.44263   -1172.2169     6445.183    11776.916    1859.6356 
  298800    300.08235   -1167.3199    6395.6086    11639.088    1877.5804 
  298900    299.51778   -1169.1032    6404.6259    11634.261    1855.8966 
  299000    303.75273   -1160.0913    6421.3234    11750.443    1921.6273 
  299100    298.58595    -1161.864    6443.2001    11660.167    1861.2126 
  299200    300.22734   -1157.0031     6414.878    11671.771     1880.222 
  299300    299.70388   -1157.7416    6422.6614    11667.633    1933.7455 
  299400    301.20245   -1165.9429    6381.7778    11650.563    1884.9504 
  299500     302.6218   -1164.3143    6386.0212    11686.757    1844.1615 
  299600    298.52589   -1164.6344    6474.9882    11687.901    1916.5602 
  299700    300.88205   -1169.2813     6353.883    11612.485    1793.0944 
  299800    296.54742   -1162.4927    6441.1447    11613.933    1790.0098 
  299900    298.65994   -1162.6698     6518.421    11736.162    1925.8065 
  300000     301.6696   -1160.1313     6368.256    11652.833    1903.5787 
Loop time of 283.48 on 8 procs for 300000 steps with 7168 atoms

Pair  time (%) = 137.695 (48.573)
Bond  time (%) = 81.0445 (28.5891)
Neigh time (%) = 19.5819 (6.90766)
Comm  time (%) = 30.4798 (10.752)
Outpt time (%) = 0.459096 (0.16195)
Other time (%) = 14.2202 (5.01629)

Nlocal:    896 ave 903 max 890 min
Histogram: 2 0 1 1 1 0 1 0 0 2
Nghost:    2843.88 ave 2854 max 2836 min
Histogram: 1 1 0 2 0 2 1 0 0 1
Neighs:    23626 ave 24081 max 23257 min
Histogram: 1 0 2 1 1 0 2 0 0 1

Total # of neighbors = 189008
Ave neighs/atom = 26.3683
Ave special neighs/atom = 157.056
Neighbor list builds = 3051
Dangerous builds = 0
unfix           NVT
# −−−−−−−−−−−−−−− Equilibration in nve −−−−−−−−−−−−−−−−−
fix             NVE all nve
run             300000
Memory usage per processor = 11.5453 Mbytes
Step Temp E_pair E_mol TotEng Press 
  300000     301.6696   -1160.1313     6368.256    11652.833    1903.5787 
  300100    301.36117   -1152.9492    6367.6998     11652.87    1935.3012 
  300200    298.34828   -1151.8277    6430.8762    11652.802    1974.8501 
  300300    299.05487   -1159.2969    6423.1602    11652.712    1925.5504 
  300400    298.30136   -1160.1548    6440.1178    11652.714    1896.3422 
  300500    300.23403    -1165.661    6404.4054    11652.784    1933.0464 
  300600    300.28968   -1162.5819    6400.2183    11652.865    1870.2128 
  300700    299.59049   -1163.8944    6416.4441    11652.841      1843.83 
  300800    298.23164   -1156.9061    6438.4102    11652.766    1893.6249 
  300900    298.30683   -1155.2139    6435.0939    11652.748    1880.2427 
  301000    299.03924   -1155.9768    6420.2012    11652.739    1853.1163 
  301100     298.5866    -1154.298    6428.2184    11652.765    1906.6795 
  301200    303.47263   -1153.1313    6322.6981    11652.794    1823.1404 
  301300    300.63395   -1153.1818    6383.3856    11652.787    1872.8916 
  301400    293.54023   -1162.5973    6544.4523    11652.892    1925.1402 
  301500     300.2161   -1165.6378    6404.8204    11652.839    1882.1208 
  301600    300.18118   -1166.9785     6406.906    11652.838    1883.8865 
  301700    298.66994    -1171.567    6443.9251    11652.983    1881.6967 
  301800     295.6832   -1161.7591    6497.8849    11652.944    1844.1662 
  301900    300.57916   -1163.0022    6394.5754    11652.986    1880.0761 
  302000     299.6238   -1155.8849    6407.7939    11652.912    1930.4415 
  302100    300.16561   -1160.6376    6400.9802     11652.92    1869.6143 
  302200    299.52393   -1163.7216    6417.7792    11652.927    1881.8268 
  302300    302.51775   -1165.2892      6355.41    11652.948    1889.9035 
  302400    297.02893   -1168.8426    6476.2501    11652.975    1915.9686 
  302500    298.29443   -1163.6918    6444.1275    11653.038    1883.1389 
  302600    298.73224   -1162.4899    6433.5641     11653.03    1903.4338 
  302700     299.7394   -1164.0599    6413.6057    11653.018    1837.3962 
  302800     299.4219   -1163.4189    6419.7683    11653.039     1908.004 
  302900    300.48243   -1156.6262     6390.356    11653.076    1921.7751 
  303000     303.5676   -1161.2086     6328.926    11652.973    1943.5379 
  303100    301.54859   -1163.0939    6373.9938    11653.023    1943.2317 
  303200     297.3175   -1161.8741    6463.1651    11653.023    1914.7031 
  303300    301.19329   -1158.9489    6377.2607    11652.844      1909.56 
  303400    301.25546   -1158.6416    6375.6544    11652.873    1923.4899 
  303500    298.13313   -1160.5091    6444.2656    11652.913     1889.723 
  303600    303.26726   -1162.6811    6336.6697    11652.828    1838.6876 
  303700    298.64365   -1159.7127    6432.4505    11652.801    1846.9391 
  303800    300.67931   -1161.2717    6390.5648    11652.845    1817.1136 
  303900    294.14825   -1160.0549    6528.9375    11652.909    1831.4662 
  304000    301.66234   -1159.0229    6367.2591    11652.789    1875.7612 
  304100    298.39499   -1162.4499    6440.5321    11652.833    1946.1094 
  304200    299.18805   -1161.8181     6422.954     11652.83    1834.5183 
  304300    299.07893   -1159.6753    6423.1112    11652.798    1868.1673 
  304400    298.27396   -1156.0497    6436.6961    11652.812    1942.5849 
  304500    300.90617   -1158.0517    6382.4743    11652.821    1916.2771 
  304600    296.41987   -1158.6678    6478.9386    11652.826    1913.8123 
  304700     301.2279   -1164.6079     6382.193    11652.857    1896.2917 
  304800    298.87821   -1156.7755    6424.5694    11652.868    1844.8881 
  304900    301.80132   -1157.8562    6363.3136     11652.98    1879.4456 
  305000     298.3879   -1157.9374    6436.3321    11652.994    1915.4372 
  305100    299.35821   -1162.2113    6419.7846    11652.902    1886.0055 
  305200     300.4535   -1162.2984    6396.4885    11652.918     1950.044 
  305300    297.30033   -1159.4872    6461.0181    11652.896    1950.1892 
  305400    300.52095   -1167.2996     6400.057    11652.926    1914.8546 
  305500    303.32735   -1163.8172    6336.5933      11652.9    1938.7722 
  305600    299.09912   -1163.0069    6426.1792    11652.966    1890.4645 
  305700    299.78056   -1164.3465    6412.9702    11652.975    1859.6105 
  305800    295.83309    -1161.543    6494.5226        11653    1923.1545 
  305900    302.43086   -1166.0436    6358.0365    11652.964     1906.505 
  306000    302.85331    -1170.522    6353.5962     11653.07    1881.7651 
  306100    294.75632   -1168.5311    6524.5015    11652.987    1942.5857 
  306200    300.06628   -1165.6467    6408.2864    11653.095    1895.9782 
  306300    302.90757   -1165.5416    6347.3294    11652.943     1871.607 
  306400    300.59955    -1160.082    6391.3128    11653.079    1884.6579 
  306500    301.31107    -1157.424    6373.4064    11653.031    1887.0983 
  306600    301.09419   -1163.6151    6384.2077    11653.008    1861.7853 
  306700    295.77396   -1164.5334    6498.8277    11653.051    1906.3586 
  306800    301.31926   -1167.5867    6383.3937    11653.031    1879.4137 
  306900    298.69856   -1166.6102    6438.3444    11652.971    1907.0587 
  307000    300.96807   -1164.8108    6388.0389    11652.949    1954.3608 
  307100    299.09431   -1163.8062    6427.0791    11652.964    1979.0079 
  307200    296.12007   -1167.1919    6493.9198    11652.879    1923.1208 
  307300    300.37367    -1164.685     6400.486    11652.824    1863.5626 
  307400    300.15393   -1156.1149    6396.6863      11652.9    1915.1903 
  307500    303.02074   -1164.6578    6343.9582    11652.874    1911.6821 
  307600    298.07369   -1164.1872    6449.1569    11652.857     1906.447 
  307700    298.65793   -1160.5371    6432.9919    11652.823    1894.4999 
  307800     301.2117   -1161.0411    6378.8676    11652.752    1856.6209 
  307900    299.39746   -1165.3348    6421.8731    11652.706    1927.6933 
  308000    301.31245   -1163.6827    6379.3546     11652.75    1925.0546 
  308100    298.26865   -1156.4354    6437.0475    11652.664     1921.601 
  308200    298.18267   -1153.5472     6435.968    11652.636    1863.5881 
  308300    301.98404     -1158.84     6360.073    11652.659    1907.2858 
  308400    299.66321   -1158.2734    6409.1554    11652.727    1917.6052 
  308500    299.82691   -1160.0364    6407.3822    11652.688    1851.1069 
  308600    299.38742    -1159.194    6415.9217    11652.681    1909.9923 
  308700    300.71064    -1161.015    6389.5014    11652.708    1952.8774 
  308800    293.62364   -1157.4175    6537.3677    11652.769    1933.4347 
  308900    299.64558   -1160.6147    6411.7598    11652.613    1845.2522 
  309000    301.20821   -1165.2346    6383.0423    11652.659    1879.6171 
  309100    297.37767   -1167.7037    6467.3766    11652.691    1896.4498 
  309200     302.7788   -1165.4358    6349.7248    11652.694    1882.0238 
  309300    298.96955    -1160.038    6425.7982    11652.786    1964.0576 
  309400    297.44975   -1161.5036     6459.656     11652.71    1903.0188 
  309500    300.18033   -1161.0806    6401.0296    11652.841    1905.8747 
  309600    301.08743   -1161.6276    6382.1951    11652.838    1893.6498 
  309700    299.18709   -1160.5803    6421.7619    11652.855    1896.2243 
  309800    298.56616    -1161.977    6436.4479    11652.879    1903.3798 
  309900    301.00406   -1162.6512    6385.0817     11652.92    1803.0429 
  310000     294.7726   -1163.0476    6518.6887    11653.005    1899.9225 
  310100    303.72982   -1165.4756    6329.6676    11652.914     1842.598 
  310200    297.78052   -1161.8679    6453.1047    11652.861    1888.5386 
  310300    302.01897   -1166.4088    6367.1615    11652.925    1895.0836 
  310400    297.94222   -1164.5336    6452.4503    11652.995    1899.7145 
  310500    303.23544   -1167.0729    6341.8842    11652.971     1872.998 
  310600     295.8368    -1158.649    6491.5678    11653.018    1898.3525 
  310700    296.76882   -1162.9613    6476.0181    11653.067    1935.3027 
  310800    303.14716   -1169.5052    6346.2789    11653.048     1885.051 
  310900    300.14206   -1160.4459    6401.3762    11653.005     1838.077 
  311000     298.6464   -1163.9759    6436.8172    11652.963    1891.5196 
  311100    301.00503   -1162.5477     6385.002    11652.965    1845.6917 
  311200    301.17179   -1163.9103    6382.8618    11653.025    1894.4596 
  311300    300.72964   -1165.4507    6393.7745    11652.951    1874.0866 
  311400    298.56893   -1158.8542    6433.3669     11652.98    1879.9067 
  311500    298.42095   -1156.3186    6433.9276    11652.915    1841.9009 
  311600    301.37854   -1165.2832    6379.7077    11652.915    1797.4848 
  311700    301.87763   -1167.9866    6371.7396    11652.905    1866.4645 
  311800    300.96419   -1173.5854    6396.8435    11652.896     1939.343 
  311900    298.25532   -1163.9907    6445.1329    11652.909    1875.8617 
  312000     297.7962   -1161.6977    6452.6486     11652.91    1904.6663 
  312100    297.88028   -1160.3571    6449.5714    11652.969    1959.6674 
  312200    303.40504   -1158.6665    6329.7281    11652.845    1895.1289 
  312300    297.55751   -1158.6794    6454.6579    11652.838    1935.8949 
  312400     297.7072   -1158.1773    6450.9633    11652.843    2007.1587 
  312500    301.27745    -1159.183    6375.6945    11652.842    1859.3155 
  312600    299.42273   -1158.0632     6414.189    11652.833    1861.5065 
  312700    301.30312    -1166.174    6382.1527    11652.857    1909.1286 
  312800    301.07743   -1162.5837    6383.3861     11652.86    1909.6256 
  312900    296.91247   -1161.4373    6471.1594    11652.801    1862.3114 
  313000    299.42636   -1160.2799    6416.3185    11652.823    1861.2568 
  313100    298.64307   -1158.5324    6431.2793    11652.798    1899.0493 
  313200    297.59461    -1152.306    6447.4756    11652.822    1946.6252 
  313300    305.50204   -1160.5089    6286.7205    11652.794    1915.0518 
  313400    300.41441   -1155.2973    6390.1945     11652.79    1889.4675 
  313500    299.19539     -1151.67    6412.6028    11652.783    1849.6561 
  313600    298.56189   -1164.8784    6439.4245    11652.863    1953.0803 
  313700    297.13227   -1165.0144     6470.075    11652.836    2009.1101 
  313800    301.85658    -1166.998    6371.1909    11652.896    1868.8279 
  313900    298.96123   -1165.9636    6432.0868    11652.971    1823.5028 
  314000      299.595      -1169.8    6422.3868    11652.974    1858.2118 
  314100     298.0504   -1161.4519    6446.9697    11652.907    1863.5151 
  314200    301.00693   -1162.0842    6384.4686    11652.936    1897.4074 
  314300     298.2139   -1164.7797    6446.8464    11652.949     1899.713 
  314400    301.38258   -1165.1958    6379.5967    11652.977    1889.5858 
  314500    298.70297   -1158.2186    6429.8933    11653.005     1867.466 
  314600    302.30857   -1168.3001    6362.9443    11653.003    1837.8882 
  314700     298.9043   -1168.6282     6436.109    11653.113     1879.665 
  314800    297.60454   -1166.6627    6461.8448    11653.046     1808.216 
  314900      299.357   -1162.0706    6419.8272     11653.06    1813.2993 
  315000    305.05946   -1164.6626    6300.5205    11652.985    1819.0576 
  315100    297.75878   -1160.8179    6452.5557    11652.897    1935.0376 
  315200    298.65146   -1157.9926    6430.5619    11652.799    1902.8181 
  315300    299.73497   -1164.9564    6414.3653    11652.787    1917.6597 
  315400    300.74688   -1156.9397    6384.6487    11652.705    1861.4535 
  315500    300.37896   -1158.6784    6394.1928     11652.65    1838.8952 
  315600    299.15444   -1167.0764     6428.807    11652.706    1919.5143 
  315700    300.58059   -1160.1163    6391.3695    11652.696    1844.7501 
  315800    298.67077   -1151.7545    6423.7739    11652.662    1790.0808 
  315900    297.99815   -1157.2201    6443.4421    11652.495    1776.1714 
  316000    301.58053   -1153.9235    6363.6571    11652.539    1826.2407 
  316100    298.65523   -1154.3625    6426.6401    11652.588    1952.1391 
  316200    296.74902   -1156.3465    6469.2596    11652.501    1903.3932 
  316300    302.16989   -1155.6417    6352.6648    11652.419    1829.6801 
  316400    297.24878   -1147.0232     6449.214    11652.455    1925.7037 
  316500    295.87173   -1152.9908    6484.5636    11652.418    1905.1708 
  316600    302.71656   -1153.9393    6339.2467    11652.382    1851.5542 
  316700    298.79798   -1153.1954    6422.2876    11652.452    1899.4657 
  316800    298.88874   -1161.1432    6428.3239     11652.48    1909.1687 
  316900    297.05774   -1156.2867    6462.5087    11652.405    1866.9107 
  317000    299.15633   -1152.7737    6414.3382     11652.58    1876.8102 
  317100    300.32307   -1159.7763    6396.3555    11652.521    1917.4335 
  317200     299.2998   -1158.0834     6416.628    11652.626    1874.7605 
  317300    296.42613   -1153.1531    6473.1258    11652.662    1915.3031 
  317400    301.26986   -1160.8436    6377.3351     11652.66     1844.667 
  317500    299.45442   -1156.3452    6411.6498    11652.689    1853.6306 
  317600    299.79874    -1166.621    6414.6651    11652.784    1875.3462 
  317700    299.81395   -1164.9501    6412.7205    11652.835    1877.7144 
  317800     300.3351   -1165.8997    6402.5193    11652.818    1798.9764 
  317900    296.27115   -1168.5359    6492.0428    11652.885    1845.4609 
  318000    299.39248   -1167.8279    6424.7242    11652.957    1895.9839 
  318100    297.79544   -1170.6523    6461.6458    11652.936    1859.5677 
  318200    297.68261   -1170.3125    6463.7189    11652.939    1909.5168 
  318300    299.77064   -1171.6835    6420.4374    11652.894    1878.6838 
  318400    297.84614   -1164.6333    6454.5445    11652.937     1895.535 
  318500    300.18144   -1160.7902    6400.7751    11652.901    1917.5014 
  318600    300.48931   -1165.4898    6398.8845    11652.888    1897.3987 
  318700    303.03473   -1165.6255    6344.6168    11652.863    1831.8122 
  318800    296.71663   -1165.4943    6479.4971    11652.898    1847.4651 
  318900    299.83216   -1166.3048    6413.7631    11652.912    1856.9917 
  319000    297.59982   -1164.3655    6459.5472    11652.945     1881.642 
  319100     303.5412   -1162.5878    6330.7604    11652.865    1852.1371 
  319200    297.15248   -1161.1247    6465.8241    11652.906    1871.0557 
  319300    296.81724   -1158.3182    6470.1657    11652.892    1857.0438 
  319400     299.9696   -1161.0807    6405.5427    11652.852    1852.6059 
  319500    300.58359   -1158.3157    6389.6984     11652.89    1850.1434 
  319600    299.54994   -1156.6357    6410.1393    11652.929    1822.0061 
  319700    297.13555   -1162.0862    6467.1585    11652.917    1846.3801 
  319800    299.82035   -1154.5997    6402.3491    11652.951    1870.9016 
  319900    299.11498    -1164.525    6427.2728     11652.88    1922.0749 
  320000    299.02638   -1156.5092    6421.1186    11652.849    1839.9749 
  320100    297.24542   -1158.4891    6461.2099    11652.913    1865.9245 
  320200    300.71183   -1158.6114    6387.1976    11652.833    1804.7596 
  320300    299.61336   -1162.7803    6414.9264    11652.926    1868.7195 
  320400    297.52024   -1162.9897    6459.8855    11652.959    1854.0081 
  320500    298.81616   -1164.3856    6433.5007    11652.864    1832.7569 
  320600    298.79888    -1160.052    6429.5726      11652.9    1840.7522 
  320700    301.16828   -1160.1582    6379.0467    11652.887    1852.5597 
  320800    302.18485   -1161.0705    6358.2248     11652.87    1872.0771 
  320900    297.07264   -1158.7176    6465.1438    11652.927    1901.8323 
  321000    300.62567   -1160.2271    6390.7746    11652.954    1850.3359 
  321100    298.83396   -1164.6192    6433.4868    11652.997    1926.7375 
  321200    303.04882    -1167.189    6345.9527    11652.937    1955.1972 
  321300    297.28078   -1163.3738    6465.4386    11653.013    1916.2123 
  321400    300.60141   -1166.8238     6397.896     11652.96    1808.0238 
  321500    297.54205   -1166.0918    6462.5318    11652.969    1853.8996 
  321600    302.70643   -1164.2269    6350.2481     11652.88     1784.266 
  321700    297.25876    -1159.109    6461.5462    11652.914    1917.6946 
  321800    299.01944   -1164.9225    6429.7881    11652.957    2028.2687 
  321900    298.80195   -1163.8151    6433.2827    11652.913    1921.5731 
  322000    297.94119   -1164.4437    6452.3338    11652.946    1934.1129 
  322100    301.09402   -1168.3193    6388.7502    11652.843    1924.3602 
  322200    299.69283   -1162.7177     6413.137    11652.897    1878.8833 
  322300    300.21811   -1164.0794    6403.2762    11652.896    1893.3208 
  322400    299.74165    -1158.075    6407.3872    11652.833    1941.8374 
  322500    299.11015   -1160.4796    6423.3779    11652.928    1958.1296 
  322600    297.11907    -1161.317    6466.7165    11652.893    1882.6472 
  322700     299.9487   -1161.2723    6406.2614    11652.933    1855.9814 
  322800    294.53519   -1162.8823    6523.4547    11652.865    1920.8658 
  322900     304.3976   -1162.8594    6312.6157    11652.744    1856.0446 
  323000    301.22589   -1163.5084    6381.0974    11652.818    1888.1546 
  323100    296.57227   -1163.9516    6480.9282    11652.788    1931.0887 
  323200    298.85367    -1163.732     6431.949    11652.767    1843.8458 
  323300    299.55691   -1161.1665    6414.4404    11652.848    1838.9751 
  323400    301.88257   -1163.9735    6367.5785    11652.863    1872.5935 
  323500    301.27838   -1164.3002    6380.7982    11652.848    1815.0164 
  323600    299.65485   -1167.6595    6418.7511    11652.758    1869.7347 
  323700    299.35361   -1161.2544     6418.857    11652.833    1951.9148 
  323800    298.25456   -1163.2619    6444.3764    11652.866    1928.3717 
  323900    300.57038   -1162.2762    6393.7932    11652.742    1871.0417 
  324000    299.58848   -1163.3692    6415.8741    11652.753    1873.4458 
  324100    300.12261    -1157.814    6398.9593    11652.804    1916.4046 
  324200    300.41299   -1167.6354    6402.5827     11652.81    1931.0547 
  324300    298.53128   -1164.5062    6439.6075    11652.764    1911.7686 
  324400    300.87386   -1164.9453    6389.9958    11652.759    1872.3105 
  324500     297.5673   -1160.9937    6456.6472    11652.722     1925.123 
  324600    298.04415   -1166.5587    6452.0336    11652.731    1912.1108 
  324700    300.81885   -1159.5016    6385.7605    11652.792    1951.2448 
  324800    295.18638   -1159.6833      6506.19    11652.711    1955.8742 
  324900    299.38509   -1158.7336    6415.5651    11652.735    1870.8928 
  325000    301.52438    -1163.551    6374.5734    11652.628    1853.0455 
  325100    299.29393   -1164.9065    6423.6964    11652.745    1886.0703 
  325200    300.04535     -1166.68    6409.3415     11652.67    1933.1365 
  325300    298.46845   -1166.0923    6442.4672    11652.695    1945.3471 
  325400    297.97937    -1164.117    6450.9301    11652.685    1916.9544 
  325500    299.59463   -1159.6876    6412.0208    11652.713    1931.9719 
  325600    296.94387   -1160.5148    6469.5059    11652.741    1959.9405 
  325700    302.03088   -1157.7418     6357.938    11652.622    1808.2606 
  325800    299.34836    -1159.127    6416.7523    11652.744    1826.7872 
  325900    299.02268   -1158.0698    6422.6492     11652.74    1831.4517 
  326000    296.56349   -1161.0823    6478.1997    11652.741    1864.1261 
  326100    298.69045   -1158.2348    6429.9099    11652.738    1843.5757 
  326200    299.72885    -1159.023    6408.5751    11652.799     1871.945 
  326300    301.73763   -1165.4525    6372.1142    11652.823    1878.8509 
  326400    298.63154   -1167.1527    6440.1257    11652.778    1911.2388 
  326500    299.80237   -1161.8878    6409.9707      11652.9    1969.7048 
  326600    297.57961   -1163.2351    6458.8233     11652.92     1904.181 
  326700    300.86493    -1166.398    6391.7821    11652.902    1880.3902 
  326800    298.56207   -1158.7301    6433.3423    11652.933    1908.4239 
  326900    302.13859   -1160.4941    6358.7211    11652.954    1854.7355 
  327000    299.76225   -1161.9957    6411.0278    11652.992    1914.1301 
  327100    303.52483   -1165.8745    6334.4726     11652.94     1923.052 
  327200    297.50747   -1166.4513    6463.6906     11653.03    1881.3156 
  327300    295.67123   -1165.9311    6502.4612    11653.092    1824.0851 
  327400    300.91007    -1172.699    6397.3603    11653.143    1888.5793 
  327500    299.92267   -1168.3414    6414.0852    11653.131    1912.4884 
  327600    299.70541   -1164.4599    6414.7938     11653.08    1888.4972 
  327700    298.86288   -1163.7465    6432.0634    11653.064    1867.7998 
  327800    299.64909   -1167.0192    6418.4668    11652.991     1861.926 
  327900    302.84178   -1165.6703    6348.9751    11653.055    1871.5693 
  328000    299.90269   -1166.7373    6412.8779    11653.101    1867.0211 
  328100    298.19389   -1169.7347     6452.325    11653.045    1898.5558 
  328200    300.69225   -1171.5396    6400.7955    11653.085    1914.2408 
  328300    297.07072   -1168.4788    6475.1867    11653.168    1864.1817 
  328400    303.01959   -1167.3405    6346.8051    11653.013    1826.1205 
  328500    298.27886   -1169.7063     6450.507    11653.071    1898.6538 
  328600    297.77812   -1163.3983    6454.8217    11652.996    1895.4499 
  328700    302.74691   -1163.0747    6348.2801    11652.929    1887.6149 
  328800    300.80759   -1165.8626    6392.5189    11652.949    1950.3375 
  328900    298.73316   -1163.1709    6434.0874    11652.892    1930.8405 
  329000    301.76897   -1163.3211    6369.3609    11652.871    1889.8316 
  329100    300.72973   -1160.7328    6389.0771    11652.973    1908.9992 
  329200    298.50429   -1165.0774    6440.8828    11652.891    1872.4434 
  329300    297.65076   -1164.0344    6458.1045    11652.922    1849.0073 
  329400    297.59023   -1163.6941    6459.0652     11652.93    1979.0539 
  329500    305.15822   -1166.0534    6299.7554    11652.939    1921.4078 
  329600    292.38746   -1161.8211    6568.3549    11652.943    1900.6206 
  329700    300.16931   -1157.3808    6397.6006    11652.877     1875.405 
  329800    300.36958    -1159.569    6395.4581    11652.824    1908.6956 
  329900    299.40425   -1157.5042     6414.085    11652.893    1907.9526 
  330000    298.89311   -1160.3655    6427.9212    11652.948    1919.3391 
  330100    299.79022   -1157.1656    6405.4986    11652.891    1910.3531 
  330200    303.47824   -1165.8486    6335.4645    11652.963    1881.7068 
  330300    297.18202   -1162.8368    6466.9615    11652.963    1969.3459 
  330400    299.06728   -1167.6112    6431.4826    11652.985    1903.6016 
  330500    301.97575    -1165.291    6367.0093    11652.967    1829.0903 
  330600    293.95632   -1164.0701    6537.1345     11652.99    1858.4434 
  330700    304.67981   -1163.8688    6307.8854    11653.033    1860.1517 
  330800    298.09121   -1162.2781    6447.0542    11653.037    1973.4542 
  330900     300.8726   -1162.7509      6387.95    11652.881    1888.4495 
  331000    298.22706   -1159.0759    6440.8903    11652.978    1859.2329 
  331100    298.17274   -1170.6513    6453.6892    11653.041    1860.7742 
  331200    301.77257   -1168.6902    6374.8514    11653.069    1889.8036 
  331300    299.24836   -1170.1578    6430.1405    11652.965    1874.4912 
  331400    296.14014   -1163.7601    6490.2094    11653.029    1858.7755 
  331500     298.6869   -1171.4597    6443.5526     11653.08    1900.9002 
  331600    301.46712   -1165.0487    6377.6812    11653.015    1858.0888 
  331700     295.3183   -1165.2967    6509.1523    11652.878    1863.4159 
  331800    302.32653   -1165.8957    6360.0868    11652.934    1864.9153 
  331900    301.22942   -1159.5209    6377.0888    11652.872    1841.4352 
  332000    301.04428    -1158.594    6380.1557    11652.911     1876.077 
  332100     300.8308   -1157.8924    6383.9363    11652.832    1918.4609 
  332200    301.26999   -1161.9164    6378.6277    11652.882    1891.9984 
  332300    299.78993   -1164.2144    6412.5414    11652.879    1870.5923 
  332400    297.53243     -1165.54    6462.0542    11652.838    1855.4684 
  332500    301.57287     -1159.09    6369.3167    11652.868    1929.7954 
  332600    299.49602   -1158.1817      6412.67    11652.761    1947.5316 
  332700    300.37486   -1158.3438    6393.9964    11652.701    1889.9554 
  332800    297.16299    -1158.141    6462.3793     11652.67    1861.0809 
  332900    302.52702   -1164.1018    6353.8381    11652.762    1913.1054 
  333000    302.40675   -1162.9957    6355.1692     11652.63    1895.2869 
  333100    295.29183    -1156.722     6500.997    11652.732    1875.9942 
  333200    300.10152    -1155.374    6396.9173    11652.752    1907.6953 
  333300    299.34657   -1157.4607    6415.1915    11652.811    1904.6503 
  333400    302.05791   -1156.9953    6356.8165    11652.825    1887.1839 
  333500     298.8661   -1157.8255    6425.9236    11652.914    1918.5016 
  333600    298.71326   -1159.6223    6430.9614     11652.89    1876.3219 
  333700    301.97309   -1160.6914    6362.3333    11652.834    1921.9189 
  333800    300.20965   -1163.8525     6403.208    11652.874    1886.9422 
  333900    297.34241   -1159.3497    6459.9419    11652.857    1856.6805 
  334000     299.8283    -1161.246    6408.7603    11652.886    1822.6026 
  334100    300.39928   -1160.7259    6396.1127    11652.957    1829.6301 
  334200    302.00192   -1162.0668    6363.2124    11652.953    1859.4779 
  334300    301.50375   -1168.8829    6380.6628    11652.945    1895.5345 
  334400    296.20855   -1161.6417    6486.6569    11653.056    1941.4244 
  334500    300.83514   -1170.2619    6396.5139    11653.133    1898.7053 
  334600    301.61803   -1170.2246    6379.6854    11653.067    1894.9398 
  334700    297.10971   -1163.1603    6469.0597    11653.192    1929.0388 
  334800    300.89656   -1167.5064    6392.3857    11653.073    1889.9106 
  334900    300.32258   -1166.9863    6404.1178    11653.063    1933.3391 
  335000     301.4855   -1164.5133    6376.8023    11653.064    1924.9235 
  335100    298.87477   -1161.8696    6429.8444    11652.976    1935.5444 
  335200    299.36464   -1164.9274    6422.4725    11653.011    1947.1366 
  335300    300.44648   -1167.3073     6401.686    11652.957    1938.8124 
  335400    297.66044   -1160.1701    6454.0599    11652.948    1931.6163 
  335500    299.37166   -1171.2943    6428.6948    11653.017    1852.5019 
  335600    300.12329   -1165.4005    6406.7101    11652.983    1871.3065 
  335700    300.71957    -1167.445    6395.9193    11652.886    1973.5004 
  335800     299.9207   -1164.1183    6409.5538    11652.781    1891.3398 
  335900     296.3853   -1159.5386    6480.6412     11652.92    1899.5965 
  336000    302.76807   -1158.9388    6343.4971    11652.734    1864.3531 
  336100    296.91174     -1157.49    6467.1697    11652.744    1853.9202 
  336200    301.67326   -1158.5876    6366.4618    11652.661    1820.6057 
  336300    298.53913   -1160.1521    6435.0106    11652.689    1941.3975 
  336400     298.4826   -1159.1511    6435.2661    11652.738    1928.8304 
  336500    301.16011   -1159.6601    6378.5929    11652.756    1853.5683 
  336600    297.89782    -1160.845    6449.4566    11652.742    1810.9137 
  336700    298.59276   -1164.1448    6437.9912    11652.823    1821.5777 
  336800    299.57295   -1158.8936    6411.7275     11652.75    1785.2212 
  336900    299.76738    -1156.611    6405.2018    11652.661    1836.3513 
  337000    302.67307   -1155.9139    6342.5395    11652.771    1813.4198 
  337100    292.45131   -1146.2724    6551.3448    11652.846    1858.1633 
  337200    303.31955    -1156.241    6329.0324    11652.748    1869.2591 
  337300    297.71637   -1159.2903    6451.7566     11652.72    1910.2054 
  337400    297.57797   -1159.6517    6455.1317    11652.777    1886.8729 
  337500    301.34258   -1161.6824    6376.8289    11652.868    1873.3027 
  337600    301.57678   -1170.0185    6380.1995    11652.906    1880.1583 
  337700    301.21647   -1160.9372    6378.7867    11652.877    1888.0287 
  337800    299.96346   -1161.9167    6406.5906    11652.933    1852.6828 
  337900    297.47519   -1167.3858      6465.31    11653.025    1899.9524 
  338000    299.70609   -1164.2227      6414.47    11653.008    1931.6896 
  338100    302.66782   -1158.4008    6345.2739    11652.907    1866.1173 
  338200    296.53732   -1158.4176    6476.2528      11652.9    1838.3056 
  338300    297.71315   -1157.7608    6450.5755    11652.999    1916.8591 
  338400    298.29121   -1166.7421     6447.185    11652.977    1925.1469 
  338500    302.15713   -1165.1179    6362.9691    11652.975    1909.8761 
  338600    297.71764   -1168.9028    6461.6149    11652.993     1933.204 
  338700    297.04844   -1163.7458      6470.84    11653.078    1917.8063 
  338800    303.36017   -1164.5982    6336.8095    11653.036    1873.9132 
  338900    302.82582   -1171.3737    6354.9216    11652.957    1867.3606 
  339000    297.50569   -1172.4473    6469.6913    11652.997    1858.1083 
  339100    302.73582   -1160.8217    6346.3146    11652.979    1745.3552 
  339200    301.31856   -1161.7169    6377.3861    11652.878    1784.2616 
  339300     300.2779   -1165.9732     6403.931    11652.934    1834.7657 
  339400    299.98051   -1167.2152     6411.413    11652.821    1866.8091 
  339500    302.12118   -1164.0717    6362.6024    11652.886    1877.9158 
  339600     294.8857   -1166.0904    6519.2411    11652.931    1898.6777 
  339700    297.94185   -1164.6195    6452.3698    11652.821    1892.7767 
  339800    302.41944   -1160.7547    6352.8695    11652.842     1839.891 
  339900    299.46338    -1163.191    6418.4742    11652.859    1881.6241 
  340000    298.85538   -1162.1306    6430.3113    11652.767    1818.5817 
  340100    300.34774   -1156.6632     6392.969    11652.774    1808.6372 
  340200    299.24354   -1156.5328    6416.4473    11652.794    1865.1466 
  340300    297.19029   -1161.1235    6464.8722    11652.763     1818.744 
  340400    299.18272   -1157.7905    6419.0458    11652.835    1822.6943 
  340500    300.74867   -1156.9634     6384.721    11652.791     1878.331 
  340600    300.69461    -1156.331    6385.2524      11652.8    1874.7635 
  340700    295.47204   -1155.3004    6495.8927    11652.899    1893.6938 
  340800    299.58791   -1160.9257    6413.4985    11652.809    1837.2953 
  340900    300.24414   -1162.9303    6401.5419    11652.867    1883.0529 
  341000    298.98251   -1166.2255    6431.8505    11652.928    1910.6619 
  341100    301.71323   -1165.4709    6372.6767    11652.846    1875.4748 
  341200    300.00934   -1161.0456    6404.6612    11652.855    1859.3921 
  341300    297.44681   -1162.8524    6461.2329    11652.875    1918.4414 
  341400    301.96252   -1157.5709    6359.5205    11652.916    1894.8161 
  341500    297.45149   -1155.9592    6454.2476    11652.883    1929.9985 
  341600    299.21061   -1156.5171    6417.2648    11652.923    1965.3679 
  341700    298.36584   -1160.8122    6439.6173    11652.933    1907.5614 
  341800    300.77699   -1165.8211     6393.123    11652.941    1902.8097 
  341900    299.12452   -1168.4868     6431.076    11652.926    1944.6104 
  342000    297.08464   -1168.0909    6474.3483    11653.015    1854.2326 
  342100    302.09566   -1165.7312     6364.857    11652.936    1819.2149 
  342200    297.70214   -1164.8126     6457.759    11652.896    1899.3526 
  342300    299.44923   -1164.8779    6420.5389    11652.934    1868.7091 
  342400    300.46703   -1162.3235    6396.2085    11652.902    1846.3081 
  342500    303.22231   -1156.3387    6331.4331    11652.974    1791.1979 
  342600    296.04803   -1163.2502    6491.5849    11652.947    1809.0299 
  342700    298.32619   -1157.6911    6437.3828    11652.973    1858.2343 
  342800    301.18451   -1165.9243    6384.4667    11652.887    1843.9795 
  342900    298.02863    -1164.375    6450.3293    11652.879     1857.088 
  343000    300.26129   -1166.8317    6405.0983    11652.888    1867.7446 
  343100     299.5111   -1166.4332    6420.7348    11652.897    1864.2463 
  343200    297.05789   -1166.1674    6472.7834    11652.802    1878.6693 
  343300    299.12215   -1163.6537    6426.2065    11652.839    1944.5811 
  343400    299.87023   -1162.1723    6408.7605    11652.855    1925.5869 
  343500    301.18892   -1158.8928    6377.3473    11652.894    1840.6393 
  343600    297.52616   -1160.5096     6457.186    11652.866    1904.4808 
  343700    298.10011   -1159.8853    6444.2862    11652.852    1944.9799 
  343800    298.37892   -1157.6724    6436.0989    11652.834    1913.7941 
  343900    299.50165   -1159.1297    6413.5591    11652.823    1951.5876 
  344000    297.92228    -1161.911    6450.1169    11652.858    1970.8346 
  344100    302.44777   -1158.0379    6349.5203    11652.815    1958.9213 
  344200    296.46303   -1160.8274    6480.0979    11652.748    1980.3991 
  344300    302.06488   -1164.5812    6364.2472    11652.819     1917.748 
  344400    297.77821   -1153.4673    6444.6551    11652.762    1865.1534 
  344500    300.14482   -1156.1626    6396.8568    11652.828    1903.4511 
  344600    303.11064   -1165.2689    6342.5498    11652.775    1871.5452 
  344700    298.12522   -1158.4417    6442.2359    11652.782    1864.5356 
  344800    301.57077   -1165.7022    6375.9318    11652.827     1832.797 
  344900    295.13129   -1161.9673    6509.8097     11652.87    1865.1348 
  345000     299.9465   -1164.0573    6409.0406     11652.88    1826.7003 
  345100    301.39749   -1169.8384    6383.8091    11652.866    1886.7116 
  345200    295.97784   -1159.1953    6489.0791    11652.996    1880.1808 
  345300    300.19129   -1163.1954    6403.0069    11652.938    1833.8355 
  345400     301.7754   -1161.7553    6367.7996    11653.013    1853.7636 
  345500    298.66208   -1168.4777    6441.0602     11653.04    1890.5495 
  345600    301.63058   -1166.2488     6375.396    11653.022    1847.8262 
  345700    296.06809    -1168.167    6496.1928    11653.066     1889.997 
  345800     300.6699   -1173.0385    6402.8163    11653.129    1844.8672 
  345900    301.41771   -1166.5727    6380.2588    11653.013    1879.5758 
  346000    301.63472   -1158.9327    6367.9995     11653.03    1855.3932 
  346100    295.94047   -1163.4423    6494.1205    11652.992    1874.5918 
  346200    299.84123   -1163.2366    6410.6378    11653.049    1898.9393 
  346300     300.4251   -1163.6662    6398.4593    11652.914      1817.77 
  346400    298.82799   -1160.6934    6429.6813    11652.989    1867.8438 
  346500    299.67586   -1166.9577    6417.8561    11653.013    1922.8544 
  346600    297.92111    -1160.848    6449.2648    11653.044    1896.8831 
  346700    302.10403   -1164.3078    6363.2311    11652.912    1896.3716 
  346800    298.48646   -1163.8639    6440.1518    11652.993    1920.8916 
  346900    297.68383   -1165.5064    6458.9121    11652.964    1873.3431 
  347000    301.52024   -1162.0149    6373.3988    11652.901    1827.3054 
  347100    297.50977    -1162.132    6459.2033    11652.911    1947.6959 
  347200    298.94975   -1161.9264    6428.2251    11652.902    1856.6303 
  347300    299.73478   -1160.2158    6409.7283    11652.886    1809.5429 
  347400    296.99362   -1160.3978    6468.4853      11652.9    1924.5646 
  347500    297.78307   -1156.7142    6447.8548    11652.819    1882.8888 
  347600    297.67303   -1157.0897    6450.5387    11652.776    1840.5774 
  347700    299.57378   -1162.9621    6415.8509    11652.823     1947.926 
  347800    299.66776   -1163.6567    6414.5833    11652.868    1923.2464 
  347900    298.55181    -1161.453    6436.1827    11652.831    1758.4221 
  348000    299.65946   -1166.3042    6417.3506    11652.811    1793.0595 
  348100    296.31696    -1160.742    6483.3367    11652.952    1813.1147 
  348200    302.60599   -1162.0027    6350.1075    11652.818    1807.2962 
  348300     301.3472   -1168.3238    6383.3772    11652.874    1884.8626 
  348400    298.90565   -1166.7103    6433.9131    11652.863    1912.7262 
  348500    299.14428      -1161.9    6423.9958    11652.854    1809.1763 
  348600    297.67674   -1158.5707     6452.105    11652.941    1829.0172 
  348700    304.08146   -1166.6143    6323.3453    11652.965    1871.8235 
  348800    295.58886   -1167.8462    6505.9843     11652.94    1895.9811 
  348900    304.24273   -1167.4756    6320.7937    11652.997    1863.7739 
  349000    298.63435   -1173.8094    6446.9335    11652.989    1921.4099 
  349100    299.35774   -1164.1497    6421.8075    11652.977    1830.5298 
  349200    298.74248   -1167.5481    6438.4023    11653.029    1869.4727 
  349300    302.93314    -1166.832    6348.2153    11653.085    1895.4666 
  349400    298.85608   -1161.0921    6429.5083    11653.018    1933.5595 
  349500    301.54866   -1163.0267    6373.9697    11653.067    1931.5302 
  349600    296.45468   -1165.2128    6485.0009    11653.087    1904.2078 
  349700    300.87633   -1167.5414    6392.8429    11653.063    1884.4116 
  349800    299.57509   -1171.2583    6424.3114    11653.015    1914.9611 
  349900    302.55781   -1167.1839    6356.5282    11653.028    1942.2981 
  350000    297.15831   -1166.6084    6471.3592    11653.082    1985.3154 
  350100     300.0585   -1167.1691    6409.8714    11652.992    1928.7421 
  350200    299.32924   -1162.3445    6420.5721    11652.937    1950.4727 
  350300     301.6846   -1158.9379    6366.7372    11652.828    1965.1538 
  350400    298.52695   -1159.6555    6434.9204    11652.835    1928.2959 
  350500    299.05091   -1164.4667    6428.5488    11652.846    1871.8898 
  350600    296.09377   -1160.8752    6488.0486    11652.762    1845.8622 
  350700      301.536   -1163.3111    6374.2485    11652.791    1789.0021 
  350800    300.58414   -1162.7393    6394.1348    11652.914    1882.0837 
  350900    299.03643   -1163.7148    6428.0397    11652.779    1868.3102 
  351000    300.60042   -1160.5127    6391.3513    11652.705    1868.2607 
  351100    297.49426   -1158.1751    6455.4459    11652.779    1845.2538 
  351200    296.09194   -1160.6891    6487.9391      11652.8    1906.4935 
  351300    301.30483   -1159.4355    6375.2349    11652.715    1897.9462 
  351400     297.4375    -1156.322     6454.734    11652.708    1892.4507 
  351500    302.04445   -1163.0595    6362.9979    11652.655    1893.5068 
  351600    297.96363   -1159.9302    6447.1946      11652.8    1893.8898 
  351700     301.8503   -1159.7242    6363.9609    11652.805    1845.9375 
  351800    303.25084   -1160.5138    6334.7861    11652.761    1916.0224 
  351900    300.56174   -1160.7656    6392.5769    11652.852    1904.3261 
  352000    298.66993   -1163.4759    6435.7665    11652.915    1888.1449 
  352100    298.54256   -1163.1407    6438.1501    11652.913    1910.1859 
  352200    297.02491    -1159.213    6466.5996    11652.868    1952.3922 
  352300    303.71232   -1159.6184    6324.2607     11652.99    1909.6574 
  352400    298.24442   -1159.1774    6440.6841    11653.041    2014.2933 
  352500    301.68542   -1166.8354    6374.7277    11652.938    1982.0311 
  352600    300.82794   -1161.5057    6387.7965    11653.018    1902.2652 
  352700    298.71978   -1164.5433    6435.9609    11653.107    1963.3799 
  352800    299.54668   -1171.3267    6425.0627    11653.091    1988.2808 
  352900     301.2465   -1156.9721    6374.2537    11652.951    1852.4279 
  353000    298.44412   -1163.9351    6441.2195    11653.085     1874.438 
  353100    301.44252   -1171.6916    6384.9238    11653.089    1921.9093 
  353200    300.02638   -1167.6973    6411.1596    11653.065    1902.0835 
  353300    298.12965   -1168.0506    6451.8835    11652.915    1858.0098 
  353400    299.92524   -1168.5178    6414.0705    11652.995    1911.5735 
  353500     298.9788   -1166.6357    6432.3534    11652.941    1873.0309 
  353600     299.8779   -1165.8674    6412.3227    11652.887    1797.2317 
  353700    302.53954   -1158.1145     6347.699    11652.878    1859.1652 
  353800    297.68134   -1166.7124    6460.1191    11652.912    1893.5177 
  353900    301.30716   -1172.3842    6388.3587     11652.94    1858.6153 
  354000    300.70119    -1164.472    6393.2965    11652.844    1853.1883 
  354100    300.17455    -1162.958    6402.9805    11652.791     1916.083 
  354200    299.19473   -1160.4033    6421.3686    11652.802    1908.4229 
  354300    299.42831   -1162.5665    6418.6179    11652.878    1886.6492 
  354400    299.71398   -1162.3804     6412.155    11652.704    1868.1801 
  354500    297.91407   -1158.0051    6446.2262    11652.698    1913.2151 
  354600    300.33499   -1164.1996     6400.807    11652.804    1910.1286 
  354700    298.24137   -1163.5654    6444.9464     11652.85    1883.4732 
  354800    297.08847   -1157.1667    6463.1546    11652.827    1878.9715 
  354900    302.82738    -1163.853    6347.3354    11652.925     1848.041 
  355000    296.15073     -1165.63    6491.8081    11652.984    1947.0234 
  355100    299.76012    -1168.849    6417.8307    11652.897    1856.0241 
  355200     300.9663   -1164.4694     6387.661    11652.875    1833.1085 
  355300     299.5849   -1160.3454    6413.1162    11652.943    1899.7632 
  355400    300.33365   -1160.9421    6397.7506    11652.976    1975.0023 
  355500    299.48355   -1159.4266    6414.2129    11652.793    1859.8593 
  355600    299.35633   -1159.7426    6417.3784    11652.924    1904.0332 
  355700    298.73333   -1158.2313    6429.2757    11653.023     1957.514 
  355800    301.89963   -1162.2398    6365.5764    11652.959     1878.383 
  355900    297.12718   -1170.5015    6475.7827    11652.948    1887.0271 
  356000    301.32622    -1173.729    6389.3778    11653.021    1922.8188 
  356100     299.6555   -1166.8705    6418.2453    11653.055    1828.9733 
  356200    293.27476   -1173.5589    6561.2686    11653.075    1884.9351 
  356300    302.69992   -1166.6946    6352.9619    11652.987    1862.4977 
  356400    300.44311   -1163.1788    6397.6905    11653.018     1943.843 
  356500    298.11686   -1163.2116     6447.428    11653.026    1872.6831 
  356600    302.84493   -1166.3117    6349.5324    11653.038    1904.9665 
  356700    297.26377   -1161.3726    6463.8237    11653.035    1940.5287 
  356800    299.86914   -1164.2275    6410.9178    11652.934    1880.7609 
  356900    301.20373   -1168.7643    6387.0047    11652.996    1865.8714 
  357000    296.84411   -1166.4525    6477.7896    11652.956    1908.4673 
  357100    301.24084   -1168.5606    6385.9252    11652.913    1858.1935 
  357200    300.28684   -1165.2069    6403.0293     11652.99    1828.4761 
  357300    298.51949   -1166.0469    6441.6151    11652.979    1913.3295 
  357400    300.15259   -1164.7333    6405.3363    11652.903    1957.9085 
  357500    299.86933   -1159.8267    6406.4278    11652.849    1973.2325 
  357600    299.05334   -1160.0669     6424.122    11652.871    2003.1725 
  357700    297.13985   -1157.0737    6462.0148    11652.878    1952.0521 
  357800    301.97512   -1156.5033    6358.1469    11652.879    1924.9952 
  357900    298.96158   -1164.5263    6430.4987    11652.828    1983.7713 
  358000    297.78511   -1164.4355    6455.4852    11652.772    1974.7183 
  358100    302.75514   -1161.3493    6346.2064    11652.756    1906.9915 
  358200    297.88525   -1168.5984    6457.5161    11652.779    1987.1128 
  358300    296.58917   -1163.2373    6479.8393    11652.775    1957.0273 
  358400    302.42444   -1161.3339    6353.2794    11652.779    1901.9757 
  358500    299.20787   -1161.2237     6421.892    11652.785    1930.0368 
  358600    302.23299   -1157.2094    6353.2708    11652.805    1924.9352 
  358700    299.73919   -1159.7827    6409.0592    11652.744     1990.007 
  358800    302.09908   -1159.8123    6358.7043    11652.775    1896.4349 
  358900     297.1382   -1160.8729    6465.7705    11652.799    1938.0432 
  359000    298.74978   -1171.4624    6441.9871    11652.855    1932.9074 
  359100    297.14604   -1165.5215    6470.2758    11652.823    1870.7085 
  359200    300.15462   -1163.9161    6404.3965    11652.823      1838.26 
  359300    299.40667    -1167.741    6424.2488    11652.872    1848.2822 
  359400    299.70996   -1163.5746    6413.5805    11652.849    1854.2493 
  359500    299.52757   -1162.0014    6415.8218    11652.767    1949.9616 
  359600    300.00794   -1157.8886    6401.4312    11652.752    1860.1004 
  359700    298.08965   -1158.0044     6442.579    11652.803    1829.9406 
  359800    300.90315   -1165.7198    6390.1968    11652.811    1819.1981 
  359900    296.55442   -1163.7193    6481.0664    11652.777    1827.6512 
  360000     299.0431   -1161.3952    6425.5891    11652.791    1758.6176 
  360100    298.09592    -1165.756    6450.2851    11652.891    1827.8476 
  360200    300.97531   -1169.5176    6392.5245    11652.883     1837.178 
  360300    302.11845   -1167.1661     6365.724    11652.855    1848.1131 
  360400     298.8398   -1163.4281    6431.9988    11652.824    1895.8113 
  360500    299.79775   -1157.9518    6406.0615    11652.829    1924.3213 
  360600    299.60643   -1162.3577    6414.6063     11652.88    1955.4736 
  360700    297.43089   -1162.2652    6460.9499    11652.839    1952.5464 
  360800    299.45255   -1163.7979    6419.3634     11652.91    1843.6275 
  360900    300.32982   -1169.7997    6406.6796    11652.966    1888.0242 
  361000      298.654   -1165.1313    6437.7493    11652.902    1903.2997 
  361100    297.30096   -1169.0677    6470.6406    11652.952    1859.1742 
  361200    299.52277   -1160.1037      6414.23    11652.971    1872.4502 
  361300    299.50633   -1168.2029    6422.6098      11652.9    1885.0593 
  361400    302.93312   -1169.0544    6350.2381    11652.885    1846.5173 
  361500    299.55546     -1170.11    6423.5269     11652.96    1878.4422 
  361600    297.17814   -1166.7475    6470.9252    11652.933    1870.8717 
  361700    302.84242   -1166.8048     6349.957    11652.916    1869.0197 
  361800    298.92254    -1164.585    6431.4443    11652.881    1920.0731 
  361900    300.41474   -1159.9563    6395.0775    11653.021    1883.9697 
  362000    304.16355   -1165.1987    6320.1044    11652.893     1815.815 
  362100    297.66228   -1170.9729    6464.8045     11652.93    1844.4177 
  362200    299.14855   -1167.7052    6429.7767    11652.921     1747.118 
  362300    300.96651   -1167.1277    6390.4002     11652.96    1830.6572 
  362400    300.07636   -1166.4381    6408.7901    11653.023    1787.9768 
  362500    298.77181   -1162.8292    6432.9787    11652.951     1820.196 
  362600    300.53568   -1166.5575    6399.0051    11652.931    1878.6464 
  362700    297.71712    -1170.859     6463.538    11652.948    1913.6701 
  362800    299.36971   -1160.2714    6417.5172     11652.82    1919.3944 
  362900    300.29089   -1171.0151    6408.7196    11652.959    1926.3424 
  363000     297.7584   -1165.3775    6457.1717    11652.946    1876.8108 
  363100    300.24443   -1162.1863    6400.7865    11652.862    1862.8835 
  363200    300.66433   -1160.0991    6389.8271     11652.96     1870.054 
  363300    296.88302   -1161.6913    6472.1777    11652.937    1881.1501 
  363400    298.57157   -1157.5201    6431.8429    11652.846     1866.936 
  363500    303.06315   -1154.3708    6332.7433    11652.852    1851.3665 
  363600    299.73446   -1160.2814     6409.789    11652.874    1887.5408 
  363700    295.35971    -1162.622    6505.5822    11652.867    1947.0204 
  363800    300.16212   -1161.9408    6402.2722    11652.835    1980.5923 
  363900    298.97096   -1165.6644     6431.473    11652.864     1978.825 
  364000    301.45356   -1164.3304    6377.0381      11652.8    1948.5145 
  364100    299.27639   -1159.1849    6418.4291    11652.825    1984.1158 
  364200    298.51784   -1164.6869    6440.1484    11652.837    1922.9324 
  364300    301.83043   -1159.0646    6363.7625    11652.842     1922.845 
  364400    301.59704   -1160.4212    6370.0693    11652.806    1872.2627 
  364500    297.17122   -1160.2776    6464.5477    11652.877    1861.0138 
  364600    302.61482   -1156.8072    6344.8028    11652.897    1878.1645 
  364700    300.62446   -1165.5495    6396.0291     11652.86    1910.5275 
  364800    294.79317   -1160.0803    6515.1954    11652.919    1893.2986 
  364900    303.33868   -1163.4761     6336.035    11652.924    1880.5964 
  365000     296.1729   -1165.0176    6490.6334    11652.895    1940.6789 
  365100    301.17099   -1165.0445    6383.8796    11652.891     1873.208 
  365200    300.03427   -1167.8612    6411.0493     11652.96    1914.9873 
  365300    296.93656   -1159.2082    6468.6263    11653.012    1882.5142 
  365400    301.29956   -1164.7724    6380.9256    11652.956    1843.1493 
  365500    298.99822   -1166.7414    6432.0572    11652.954      1870.04 
  365600    301.06439   -1164.2809     6385.514    11653.012    1868.9637 
  365700    298.85669   -1167.8561    6436.1842    11652.943    1940.1374 
  365800    300.08173    -1162.756    6404.9261    11652.956    1941.4822 
  365900    301.18898   -1159.4735    6377.9767    11652.944    1859.5669 
  366000    299.63437   -1162.0517    6413.7337     11652.91    1923.8555 
  366100    300.31859    -1157.093    6394.1358    11652.889    1860.2241 
  366200     301.7912   -1165.7234    6371.2903    11652.873    1832.4398 
  366300    297.11475   -1163.5113    6469.0638    11652.953    1877.6184 
  366400    300.33487   -1165.9296    6402.6712    11652.935     1891.513 
  366500    301.91114   -1161.3801    6364.4432    11652.931    1931.0079 
  366600    299.73294   -1167.5466    6417.1688    11652.957    1891.1939 
  366700    299.77569   -1167.9597    6416.6274    11652.915     1833.024 
  366800    300.26602   -1158.3454    6396.5407    11652.918    1876.4492 
  366900    297.37264   -1159.4751    6459.4197    11652.855    1892.4934 
  367000     299.5377   -1165.3146    6418.9428    11652.792    1844.0312 
  367100    300.93622   -1160.1326    6383.8621     11652.77      1909.32 
  367200    302.70504   -1156.5225    6342.5129    11652.819    1891.2718 
  367300    295.70265   -1155.1334    6490.7317    11652.832    1896.6941 
  367400      299.898   -1162.1255    6408.1416    11652.877    1828.8812 
  367500    296.70398   -1167.6509    6481.8909    11652.865    1884.5546 
  367600     299.4973   -1164.3341    6418.8382    11652.804    1877.5938 
  367700    300.41614   -1160.4569    6395.4168     11652.89    1824.2185 
  367800    298.19245   -1159.6966    6442.0989    11652.826    1854.5497 
  367900    300.46065   -1158.0427    6391.9946    11652.833    1869.9177 
  368000    300.65953   -1154.6102    6384.2778    11652.797    1840.7597 
  368100    297.61155   -1159.3613    6454.1666    11652.819    1941.1894 
  368200    299.45005   -1157.6682    6413.1007    11652.723    1893.4302 
  368300    299.08729    -1159.267    6422.4796    11652.754    1852.5099 
  368400    301.99675   -1164.2567    6365.3109    11652.751    1849.0842 
  368500    295.98814   -1162.8663      6492.26    11652.726    1863.3037 
  368600    303.11769   -1163.0049       6340.1    11652.739    1859.2764 
  368700    300.58545   -1166.0183    6397.2571    11652.786    1897.7464 
  368800    299.77294   -1162.8808    6411.4399    11652.748    1861.1848 
  368900     298.7183    -1165.587    6436.6871    11652.758    1895.7472 
  369000    300.67274   -1159.9599    6389.3131    11652.765    1948.6265 
  369100    300.33875   -1157.9557    6394.4217    11652.743    1930.4065 
  369200    299.63697   -1152.0763    6403.5871    11652.795    1922.0894 
  369300    299.39286     -1156.37     6413.097    11652.796    1905.4537 
  369400    299.24213   -1167.0321    6426.9876    11652.804     1905.962 
  369500     302.7571   -1162.6673    6347.5592    11652.833    1871.7848 
  369600    298.96656   -1164.8943    6430.7977    11652.865    1886.2817 
  369700    299.44124   -1164.4273    6420.2117    11652.887    1853.7216 
  369800    299.14099   -1160.3286    6422.5806     11652.94    1867.0067 
  369900    300.65154    -1158.251    6388.2006    11652.908    1917.0407 
  370000    299.70613    -1155.251    6405.4075    11652.918    1941.9918 
  370100    301.35052   -1162.3903    6377.4053    11652.907    1925.3268 
  370200    294.50343   -1162.7684    6524.0832    11652.929     1913.502 
  370300     300.0064   -1165.0088    6408.7746    11652.942    1835.5602 
  370400    301.70669   -1166.3136    6373.6922    11652.879    1890.5683 
  370500    302.07093   -1163.8479    6363.4984    11652.933    1900.3107 
  370600    299.67586   -1162.8328    6413.7475     11653.03    1925.6252 
  370700    297.00355   -1168.1987    6476.1281    11652.955    1880.9708 
  370800    298.10999   -1163.4714    6447.6726    11652.864      1824.13 
  370900    300.17739    -1163.462    6403.5621    11652.929    1834.7064 
  371000    300.34846   -1161.8555    6398.3093    11652.938    1842.3132 
  371100    298.04362    -1161.226    6446.8617     11652.88    1904.6973 
  371200    300.47337   -1159.4386    6393.0694    11652.783    1966.2116 
  371300    301.36973   -1161.3066    6375.8339    11652.829     1966.275 
  371400    298.34846   -1160.8584    6440.0039    11652.903    1901.3185 
  371500    297.38712   -1165.8058    6465.4922    11652.906    1900.2867 
  371600    300.38917   -1160.6221     6396.098     11652.83    1842.4567 
  371700    300.25354   -1158.3625    6396.7622    11652.856    1814.9321 
  371800    297.62653   -1162.5725    6457.0996    11652.861    1886.6652 
  371900    300.67818   -1166.2323    6395.5196    11652.815    1844.8619 
  372000    294.45861   -1150.3801    6512.5452    11652.821    1896.9173 
  372100    300.90605    -1154.166    6378.4558    11652.686    1896.7504 
  372200    299.08539   -1151.5367    6414.6992    11652.663    1926.3269 
  372300    299.77038   -1150.9256    6399.4036    11652.612    1874.2871 
  372400    300.01007   -1151.3854    6394.7442    11652.614    1929.0322 
  372500     300.2956   -1159.1635    6396.4899    11652.681    1893.3673 
  372600    299.51872   -1156.1239    6410.1225    11652.757    1900.2302 
  372700    297.65378   -1160.0739    6453.8177     11652.66    1894.2156 
  372800    299.08916   -1159.0306    6422.0506    11652.601     1913.707 
  372900    300.50357   -1161.1176    6393.9817    11652.662    1901.5405 
  373000    297.50165   -1157.9063    6454.7671    11652.527    1893.9942 
  373100    300.07416   -1152.6718    6394.6179     11652.57    1892.9158 
  373200     300.5149   -1156.0095     6388.618    11652.648     1924.166 
  373300    298.72027   -1146.0603    6417.0253    11652.665    1897.9587 
  373400     300.9268   -1155.9945    6379.8025    11652.647     1890.971 
  373500    299.05397   -1161.3121    6425.1892    11652.706    1882.3957 
  373600    297.95501   -1160.9929    6448.4752    11652.834    1918.0644 
  373700    294.58772    -1165.099    6524.5764    11652.892    1883.5516 
  373800    303.24735   -1167.7732    6342.1254    11652.766    1832.7422 
  373900     295.7142   -1160.8294    6496.1951    11652.846    1831.8598 
  374000    297.92534   -1162.1032    6450.2639    11652.878    1911.1624 
  374100    302.94355   -1158.1903     6339.096     11652.83    1941.7269 
  374200    300.89403    -1160.167    6384.8504    11652.823    1888.0276 
  374300    300.34013   -1160.2691     6396.908    11652.945    1869.0159 
  374400    301.14103    -1164.105    6383.6178    11652.929    1864.7654 
  374500    296.93497   -1167.2546    6476.6604    11652.966    1855.7729 
  374600    299.51074   -1160.4322    6414.8293    11652.984    1914.8748 
  374700    301.43608   -1165.3929    6378.6138     11652.94    1924.1883 
  374800    299.19377   -1167.5345     6428.702    11652.983    1874.0485 
  374900    295.05478   -1163.5321    6513.2205    11653.081    1867.7229 
  375000    300.41039    -1167.052    6402.2675    11653.023    1829.6727 
  375100    300.41459   -1162.6696    6397.7599    11652.987    1895.9933 
  375200    298.41199   -1160.4331    6438.2316    11652.913    1931.2436 
  375300    299.37131   -1158.8706    6416.1785    11652.917    1902.0774 
  375400     298.6343   -1159.9237    6432.9899     11652.93    1905.2466 
  375500    295.94034   -1165.9392    6496.5654    11652.937     1904.197 
  375600    300.56108   -1158.2104    6390.0971    11652.913     1812.207 
  375700    295.76875   -1161.5361    6495.8172    11652.927    1877.4093 
  375800    299.02849   -1159.8562    6424.4432    11652.872    1926.4619 
  375900     302.8788   -1161.3583    6343.5984    11652.781    1898.5052 
  376000    300.88419   -1163.4863    6388.3633    11652.806    1935.6267 
  376100    300.59724   -1164.9299    6395.9796    11652.849     1937.883 
  376200    298.65406    -1164.202    6436.7607    11652.844    1909.9067 
  376300    295.75372   -1162.0258    6496.5136    11652.812    1922.5223 
  376400    299.65969   -1156.0642    6407.0881    11652.793    1896.2142 
  376500    301.34222    -1152.749    6367.8102    11652.775    1902.0307 
  376600    298.02359    -1156.492    6442.4412    11652.766    1932.6591 
  376700    300.97334   -1161.3386    6384.2497    11652.745    1882.6531 
  376800     294.3496   -1159.0962    6523.5164    11652.748    1890.2887 
  376900    300.58084   -1162.5298    6393.8407    11652.759    1939.7666 
  377000    302.84072   -1159.4403      6342.47    11652.757    1903.7828 
  377100    299.54168   -1159.9335     6413.489    11652.804    1848.9325 
  377200    298.40785   -1163.0613      6440.85    11652.815    1834.1356 
  377300    301.15736   -1164.7415     6383.819    11652.842    1870.7569 
  377400    300.21621   -1161.1604    6400.3549    11652.853    1875.1747 
  377500    302.82929   -1159.7386    6343.0935    11652.838    1858.8953 
  377600    299.78415   -1161.7552    6410.2214    11652.895    1969.5109 
  377700    299.24557   -1165.3884    6425.3896    11652.924    1874.8429 
  377800    300.93282   -1161.5772    6385.5897    11652.981    1856.7314 
  377900    300.91933   -1165.0846    6389.3062    11652.901    1882.1399 
  378000     298.5048   -1163.8169    6439.7274    11653.008    1904.8496 
  378100     300.6007   -1164.8046    6395.9488    11653.017     1894.279 
  378200    301.20724   -1164.0104    6382.2525    11653.073     1921.822 
  378300    296.36647   -1160.3079    6481.8981    11653.005    1928.6726 
  378400    303.14755   -1165.5545    6342.2854    11653.013    1886.5726 
  378500    298.00581   -1165.2627    6451.8963    11653.071     1913.703 
  378600    299.66212   -1170.5536     6421.706    11652.974    1815.3349 
  378700    301.57718   -1162.5343    6372.8245    11653.024    1849.9293 
  378800    302.74803   -1163.6907    6348.9648    11653.021    1924.5255 
  378900    299.57608    -1170.119    6423.1003    11652.965    1876.3169 
  379000    298.51805   -1170.4561    6446.0597    11652.984    1869.3626 
  379100    297.36294   -1164.3101    6464.5451    11652.938    1919.3457 
  379200    302.64852   -1171.7395    6359.0375    11652.919     1836.443 
  379300    299.85283   -1169.6147    6416.8568    11653.138     1917.108 
  379400    298.23463   -1165.0118    6446.7352    11653.049    1927.8136 
  379500    301.33965   -1161.4389    6376.6982    11652.919    1845.5977 
  379600    297.33081   -1162.2175    6463.1177    11652.917     1833.597 
  379700    301.09589   -1164.6101    6385.0333    11652.875    1907.8962 
  379800    299.04961   -1162.7797    6426.9322    11652.889    1883.0582 
  379900    297.87062   -1163.2041    6452.5362    11652.881    1846.3558 
  380000    299.82777   -1163.7308    6411.2168    11652.846    1833.8777 
  380100    298.61753   -1159.4523    6432.7522    11652.805    1858.4558 
  380200    302.83953   -1164.9164    6347.9702    11652.756    1818.4654 
  380300    295.16355   -1163.8525     6510.995    11652.859    1923.1408 
  380400    301.18136   -1164.8078    6383.4376    11652.907    1952.4995 
  380500    301.05728   -1156.9961    6378.2067    11652.837    1886.2548 
  380600    295.23249   -1158.8677    6504.4004    11652.722    1966.7584 
  380700    303.77667   -1156.6198    6319.6205    11652.723    1919.3456 
  380800    301.02142   -1160.1858    6382.0627    11652.738     1893.191 
  380900    297.41953   -1158.4327    6457.2646    11652.744    1911.0541 
  381000    297.21434   -1156.0806    6459.3705    11652.818    1921.1011 
  381100    303.09967   -1160.4087    6337.8761    11652.727    1802.5219 
  381200    296.22702   -1164.9266    6489.3307     11652.84    1889.7811 
  381300    300.70741   -1167.1002    6395.7887    11652.841    1899.4647 
  381400    297.86085   -1163.4736    6452.9662    11652.833    1900.2663 
  381500    302.21926   -1160.8469    6357.2697    11652.874    1850.3404 
  381600     298.6636   -1162.2978    6434.6888    11652.881    1905.7898 
  381700    298.98952   -1160.7481     6426.209    11652.913    1829.7397 
  381800    299.43133     -1162.94    6418.9348    11652.886    1874.8905 
  381900    300.36676   -1165.5465    6401.6814     11653.01    1918.7069 
  382000    301.30794   -1167.9026    6383.9505     11653.03      1933.63 
  382100    300.64941    -1164.049    6394.1587    11653.023    1907.4306 
  382200    296.54824   -1172.4833    6490.2262    11653.041    1921.2846 
  382300    302.99254   -1169.0057    6349.1428    11653.108    1896.5485 
  382400    296.96066   -1162.6447    6471.6407    11653.105    1899.5213 
  382500    301.49911   -1161.3057     6373.277    11653.037    1884.3502 
  382600    298.05094   -1162.3604    6448.0011    11653.042    1948.8307 
  382700    300.81039   -1163.4578    6390.2007    11653.095    1902.5042 
  382800    300.23668   -1165.8862    6404.7958    11653.006    1853.6098 
  382900    297.28304   -1163.6424    6465.6515    11653.005     1881.806 
  383000    300.06994   -1170.4069    6412.9902    11653.117    1921.6212 
  383100    301.79209   -1163.6991    6369.4433    11653.069    1863.1981 
  383200    297.09203   -1169.0293    6475.0839     11652.97    1853.1905 
  383300    298.82948   -1170.4153    6439.3521     11652.97    1905.4178 
  383400    299.90733   -1165.4265    6411.2399    11652.873    1866.9615 
  383500    299.39858   -1159.2466     6415.982    11652.927    1866.9969 
  383600    302.34011   -1156.5461    6350.3134      11652.8     1902.878 
  383700    297.10791   -1156.5452    6462.0147    11652.724    1967.7209 
  383800    298.85468    -1158.983      6427.16    11652.749     1882.385 
  383900    300.06034   -1157.4892    6400.0322    11652.872    1882.0818 
  384000    301.09227   -1160.0313    6380.4888    11652.832    1908.2528 
  384100    299.65542   -1153.4386    6404.4798     11652.72    1917.9425 
  384200     300.5697    -1157.808    6389.3602    11652.763    1893.8455 
  384300    301.20033   -1163.0043    6381.1945    11652.873    1852.5327 
  384400    301.37002   -1159.0577    6373.5014    11652.752    1829.7061 
  384500    299.35633   -1154.1703    6411.6238    11652.742    1938.0423 
  384600    302.16646   -1159.5275    6357.0215    11652.817    1935.6758 
  384700    300.05588   -1158.6397    6401.1887    11652.782    1942.4356 
  384800    296.93838   -1155.6991    6464.9216    11652.855    1934.1777 
  384900    299.75666   -1157.4021    6406.4171    11652.856    1905.4428 
  385000    299.88082   -1161.3417    6407.7687     11652.92     1914.762 
  385100    297.29193   -1165.2691     6467.038    11652.955    1890.4978 
  385200    296.70162   -1167.4865    6481.8784    11652.967    1888.0595 
  385300    299.30883   -1169.2921    6428.0591    11653.041    1882.8633 
  385400    298.95806   -1164.5536      6430.84    11653.067    1900.8251 
  385500    300.82328   -1164.8732    6391.2299    11652.985    1921.8737 
  385600    300.01491   -1160.4617    6404.1596    11653.056    1941.7161 
  385700     302.2104   -1161.4565    6358.2612    11653.066    1903.4906 
  385800    296.08125   -1164.7751    6492.4558    11653.002    1928.5165 
  385900    299.76725   -1158.8834    6407.8225    11653.007    1845.9988 
  386000    299.29455   -1169.6004    6428.7325    11653.101    1926.5683 
  386100    299.71785   -1174.1755    6424.2622    11653.099    1942.1937 
  386200    300.03934   -1165.7398    6408.9152    11653.056    1870.7979 
  386300     297.2925   -1171.1561    6472.9996    11653.042    1868.6535 
  386400    299.32867   -1166.0462    6424.3522    11653.004    1913.1812 
  386500    303.83034   -1171.5672     6333.673    11652.975    1885.4145 
  386600     299.2388   -1163.3471    6423.4975    11652.928    1931.5103 
  386700    303.50558   -1161.9736    6330.8947    11652.852    1940.1699 
  386800    295.76138   -1165.0728    6499.4634    11652.879    2010.7313 
  386900    298.71641   -1154.7942    6426.0349    11652.858    1955.9908 
  387000    304.69578    -1159.568    6303.0177    11652.808     1930.387 
  387100    296.91518   -1159.7711     6469.465    11652.831    1972.4081 
  387200    300.41887   -1162.5658    6397.3176     11652.74    1904.2408 
  387300    298.51018   -1164.5418    6440.1306    11652.801     1913.474 
  387400    296.40932   -1161.8257    6482.2882    11652.793    1973.0015 
  387500    301.20942    -1161.502    6379.4169    11652.792     1853.628 
  387600    298.50541   -1160.3078     6435.996    11652.798    1859.4572 
  387700    298.85898    -1154.577    6422.6103    11652.697    1929.1005 
  387800    301.49619   -1153.5496    6365.2817    11652.736    1869.4252 
  387900    296.45228   -1152.6545    6472.1366     11652.73    1890.9514 
  388000    300.69229   -1154.0719    6382.9728     11652.73    1851.3064 
  388100     296.6074   -1153.3783    6469.5814    11652.765    1898.5858 
  388200    298.00278   -1157.5203    6443.8624    11652.714    1813.5005 
  388300    303.72454   -1162.0023    6326.2053    11652.812    1820.1033 
  388400    298.52896   -1161.7051    6436.9746    11652.883    1904.3289 
  388500    297.48339   -1160.1684    6457.7707    11652.878    1872.0638 
  388600    301.27842   -1160.8363    6377.3133    11652.828    1863.1776 
  388700    299.83839   -1160.7192    6408.0305    11652.898    1932.3477 
  388800    296.52442   -1162.4211    6480.5272    11652.895    1939.2156 
  388900    300.53144   -1154.9282    6387.4392    11652.904    1896.6781 
  389000    298.89028   -1163.6539    6431.2639    11652.942     1963.819 
  389100    301.68426   -1165.0128    6373.0201    11653.029    1912.1337 
  389200    298.28642   -1159.6247     6440.205    11653.012    1942.2004 
  389300    299.27591   -1165.3959    6424.8769    11653.051    1873.1848 
  389400    301.01047   -1166.8876    6389.3477    11653.087    1845.6647 
  389500    297.18154   -1168.3804     6472.684    11653.131    1876.5431 
  389600    301.51012   -1165.4789    6377.2361    11653.058    1867.4521 
  389700    301.16479   -1163.0736    6382.1929    11653.043    1916.9153 
  389800    296.87569   -1158.5964    6469.3571    11653.054    1895.8984 
  389900    303.95349   -1157.0769    6316.5379    11652.961    1887.9076 
  390000    297.61882   -1160.2881    6454.9756    11652.857    1917.5865 
  390100    302.05822   -1157.1159    6357.0211    11652.916    1852.8385 
  390200    301.02171   -1156.1574    6378.1851    11652.895    1850.2359 
  390300    302.10485   -1163.0115    6361.8722    11652.867    1822.4089 
  390400    298.81474   -1164.4843    6433.6507    11652.885     1856.058 
  390500    295.94295   -1166.3475    6496.8148    11652.834    1833.7668 
  390600    298.74038   -1165.8478    6436.5446    11652.827    1843.9837 
  390700    299.87103   -1165.3319    6411.7821    11652.735     1793.875 
  390800    292.84265   -1154.9251    6551.4994    11652.708    1858.2646 
  390900    303.44679   -1152.9864     6323.016    11652.705    1829.0026 
  391000    299.07514   -1149.8744     6413.281    11652.688    1860.2903 
  391100    299.69374   -1151.8846    6402.0403    11652.653    1896.4639 
  391200     302.1966   -1152.9019     6349.531    11652.596    1879.6338 
  391300    297.61404   -1152.4338    6447.0296    11652.663     1822.653 
  391400    298.44612   -1156.7065    6433.5863    11652.723    1849.7308 
  391500    303.27259   -1158.9571    6332.7488    11652.745     1836.079 
  391600    296.21089   -1155.8521    6480.4784    11652.717    1848.1468 
  391700    299.11723    -1159.792    6422.4254    11652.814    1862.7588 
  391800    300.58985   -1159.7042    6390.8408    11652.777    1921.9044 
  391900    297.90212   -1157.2001    6445.8223    11652.844    1873.1468 
  392000    295.76624   -1154.7882    6489.0459     11652.85    1885.3277 
  392100    304.51247   -1157.6858    6305.0412    11652.797    1908.3021 
  392200    300.16681   -1153.3057    6393.5551    11652.853    1942.9006 
  392300    299.92311   -1165.0749    6410.5649    11652.887    1905.6425 
  392400    299.48263   -1166.2405    6421.2544    11653.001     1926.252 
  392500    297.84485   -1165.6919    6455.7767    11653.083    1883.1723 
  392600    296.82822   -1170.5921    6482.3659    11653.053    1845.7657 
  392700    299.54228   -1170.1545    6423.9672    11653.074      1898.26 
  392800    302.19283   -1169.8924    6367.0942    11653.088    1893.5736 
  392900    297.92632   -1169.6718    6458.0122    11653.079    1965.3578 
  393000    303.86408   -1165.0109     6326.491     11653.07    1903.6462 
  393100    300.52686   -1158.2029    6390.8838    11652.976    1881.3789 
  393200     299.1235   -1161.4435    6424.1939    11653.065    1927.0168 
  393300     300.9418    -1171.687    6395.5856    11653.058     1889.421 
  393400    298.20653   -1173.9818     6456.458    11653.201    1864.1774 
  393500    300.68278   -1176.7128    6406.2238    11653.137    1885.7224 
  393600    301.32253   -1172.2966    6388.1162    11653.113    1888.3448 
  393700    296.75085   -1168.3005    6481.7316    11653.058    1897.9206 
  393800    301.25916   -1162.8712    6379.8752    11652.944    1844.8444 
  393900    296.98157   -1160.4893    6468.9078    11652.974    1905.2029 
  394000     302.0431   -1154.1963    6354.3804    11652.871     1904.642 
  394100    300.04527   -1157.6061    6400.4291     11652.83    1864.2229 
  394200    303.66989   -1158.8678    6324.2297    11652.803    1836.1299 
  394300    296.50731   -1155.1791    6473.5216    11652.766    1865.6378 
  394400    302.90711   -1165.9736     6347.645    11652.817    1817.3312 
  394500    300.29574   -1159.8773    6397.2426    11652.723    1792.8266 
  394600    296.80194    -1158.344    6470.4664     11652.84    1809.5966 
  394700    302.94884   -1161.6332     6342.412    11652.816    1799.4629 
  394800    295.97574   -1157.8193    6487.5054    11652.754    1805.8808 
  394900    301.08317   -1156.5801    6377.0859    11652.686     1867.963 
  395000     297.3642   -1151.7447    6451.8182    11652.803    1946.7239 
  395100    296.62939   -1148.1138    6463.7459    11652.664    1914.8068 
  395200    301.04732   -1152.9128    6374.1992      11652.7    1872.2751 
  395300    302.64543   -1154.3637    6341.5691    11652.761    1858.7072 
  395400    296.91529   -1158.2904    6467.9936    11652.843    1908.4947 
  395500    302.08666     -1166.56    6365.8472    11652.905    1798.4512 
  395600    297.36284   -1165.7331    6466.0484    11653.016    1874.5715 
  395700    300.30683    -1166.704    6404.0556    11652.946    1909.8737 
  395800     298.1851   -1160.8666    6443.5623    11652.963    1923.1325 
  395900    299.14387   -1155.5234    6417.7397    11652.966    1985.5798 
  396000    305.52312   -1159.1943    6285.1811    11653.019     1887.903 
  396100    299.14295   -1159.8225    6422.1825     11653.09    1913.5794 
  396200    298.69432    -1159.544    6431.4536    11653.056    1922.1044 
  396300    300.56291   -1166.7101    6398.7808    11653.136     1937.922 
  396400    302.98957   -1172.4273    6352.6925    11653.172    1805.4728 
  396500    297.60383   -1172.9883    6468.3282    11653.189    1813.9564 
  396600    302.56956   -1180.1233     6369.377    11653.188    1801.9805 
  396700    299.33552   -1178.1362     6436.538    11653.246    1815.4875 
  396800    299.17679   -1165.4562    6427.1316    11653.128     1852.854 
  396900    300.02192    -1160.452    6404.0285    11653.085    1970.9945 
  397000    300.09486   -1153.5635    6395.5829    11653.086      1903.83 
  397100     297.8656   -1156.4385    6445.9981    11653.001    1906.7636 
  397200    297.92224    -1155.682    6444.0464    11653.016    1905.8869 
  397300    296.68966    -1163.894    6478.5766    11653.002    1896.9515 
  397400    303.58171   -1169.2168     6336.637    11652.978    1866.6764 
  397500    297.65989   -1168.9004     6462.815    11652.961    1887.6049 
  397600    299.26864   -1164.8932    6424.4188    11652.941    1858.4679 
  397700    300.22794   -1162.4107    6401.4104    11652.909    1895.1088 
  397800    301.14343   -1155.7881     6375.124    11652.803    1932.9854 
  397900    296.92176   -1152.7244    6462.2618    11652.815    1937.3941 
  398000    301.14826   -1150.7214    6369.8687    11652.718    1921.1576 
  398100    298.02564    -1155.346     6441.237    11652.752    1893.7219 
  398200    299.58954    -1156.995    6409.4935    11652.769      1905.24 
  398300    300.33056   -1156.6664    6393.3064    11652.742     1871.505 
  398400    298.13534   -1151.7921    6435.3334    11652.745    1889.4135 
  398500    297.67725    -1162.197    6455.6257    11652.846    1830.0811 
  398600    300.88563   -1160.9242    6385.8579    11652.894     1895.547 
  398700    298.19297   -1158.5845    6440.9292     11652.78    1889.3499 
  398800    296.00771   -1154.5372    6483.5675    11652.781    1874.9155 
  398900     302.7198   -1163.7339    6349.4755    11652.886    1911.4486 
  399000    301.36202   -1162.0006    6376.6783    11652.815    1906.8497 
  399100    295.56971   -1157.7029    6496.1581    11652.848    1886.0865 
  399200    301.33067   -1160.2048    6375.6693    11652.932    1916.1108 
  399300     303.6944   -1158.7916    6323.8759    11653.049    1936.1011 
  399400    293.90334    -1164.987    6539.2171    11653.024    1934.1983 
  399500    300.40725   -1165.9675    6401.3129    11653.085    1892.3013 
  399600    301.64364   -1170.1337    6379.1749    11653.195    1870.4027 
  399700    297.40507   -1164.4755    6464.1306    11653.258    1855.8383 
  399800    299.57077   -1164.7205    6417.9647    11653.114    1867.8122 
  399900    297.32212   -1156.5074    6457.7508    11653.074    1868.4882 
  400000    304.11114   -1164.4211    6320.6682    11653.115    1803.1418 
  400100    298.08569   -1164.1903    6449.0004    11652.954    1838.3694 
  400200    303.05076    -1169.027    6347.7326     11652.92    1854.9344 
  400300    299.27751   -1164.6158    6424.0385    11653.028     1887.182 
  400400    299.05097   -1168.7653    6433.0192    11653.019    1837.2264 
  400500     303.2969    -1165.972    6339.4994        11653    1867.5206 
  400600    299.96766   -1169.3088    6413.9511    11652.991    1858.7557 
  400700    296.93872   -1168.6957    6478.0132    11652.958    1918.7643 
  400800    298.88368   -1159.7251    6427.4257    11652.892    1959.2187 
  400900    301.02072   -1161.5875    6383.6029    11652.861    1916.3977 
  401000    298.49221   -1158.1811    6434.1807    11652.828    1858.5172 
  401100    296.99351   -1159.1964    6467.2257     11652.84    1840.4519 
  401200    303.42593   -1159.8212    6330.4306    11652.839    1859.9389 
  401300    297.55365   -1160.0207    6455.9863    11652.743     1892.014 
  401400    298.18934   -1157.1826      6439.58    11652.755    1899.2352 
  401500    296.53356   -1159.3281    6477.1033     11652.76    1884.6071 
  401600    301.43765   -1161.8621    6374.8781    11652.769    1821.5722 
  401700    298.01616   -1157.2486    6443.4009     11652.81    1882.8636 
  401800    300.60076   -1158.8093    6389.7024    11652.767       1851.7 
  401900    299.58879   -1160.9325     6413.406    11652.728    1766.0451 
  402000    297.60493   -1164.6305    6459.6508    11652.893    1850.8201 
  402100    301.34511   -1170.9917    6386.0485    11652.833    1913.0925 
  402200    301.58144   -1163.9241    6373.9403    11652.841    1847.4092 
  402300    300.72814   -1158.8862    6387.2232    11652.932    1831.0242 
  402400     296.6602   -1162.0676    6477.4733    11653.096    1895.3589 
  402500    302.69837   -1160.3627    6346.6795    11653.003     1831.453 
  402600    299.60055   -1163.6998     6416.202    11653.008    1868.6633 
  402700    299.71745   -1170.7037     6420.779    11653.079    1804.7497 
  402800    301.87156   -1166.7583    6370.8563    11653.121    1817.4931 
  402900    299.24476    -1164.674    6424.7612    11652.992    1855.3491 
  403000    303.30805   -1166.3613    6339.5969    11652.947    1861.8531 
  403100    298.37701   -1164.2116    6442.8529    11653.008    1913.5636 
  403200    302.66458   -1167.8726    6354.9546    11653.046    1845.1149 
  403300    298.28222   -1169.3119    6449.9875    11653.018    1843.3803 
  403400    302.58023   -1163.8985    6352.8369    11653.101    1867.7126 
  403500    299.43694   -1166.0645    6422.1541      11653.1    1941.0407 
  403600    302.99679   -1166.0502    6346.0179    11653.029    1949.8376 
  403700    299.55798   -1165.6609    6418.9945     11652.93     1933.753 
  403800    302.79133   -1169.6831    6354.0756    11653.065    1941.2833 
  403900    298.32976   -1170.3954    6450.0182     11652.98    1888.0678 
  404000    299.66419    -1170.911     6421.966    11652.921    1879.0064 
  404100    298.73758   -1158.5193     6429.407    11652.958    1932.0562 
  404200    301.16138   -1153.9176    6372.9383    11652.871    1914.8213 
  404300    303.37929   -1156.7279    6328.3476    11652.853    1850.2561 
  404400    297.24125   -1154.1502    6456.9304    11652.883    1907.4444 
  404500    298.21497   -1159.4924    6441.4766    11652.889    1901.3037 
  404600     297.6713   -1160.8025    6454.3994    11652.888    1865.8921 
  404700    301.10463   -1167.5061    6387.7068    11652.839    1890.4399 
  404800    297.00811   -1160.4884    6468.2289    11652.863     1920.117 
  404900    298.87509   -1163.5755    6431.3842    11652.816    1850.4905 
  405000    298.14372    -1160.178    6443.6009    11652.806    1925.2229 
  405100    298.47834   -1161.4984    6437.7666      11652.8    1950.3648 
  405200    299.73973   -1159.8381    6409.1787     11652.82    1861.5842 
  405300    297.35408   -1165.8709    6466.1659    11652.809    1930.9715 
  405400    298.97195   -1161.9865    6427.6645    11652.755    1920.1178 
  405500    297.59479   -1162.8075    6458.0802    11652.929    1866.8683 
  405600    297.53016   -1162.8773    6459.6039    11653.002    1961.0718 
  405700    303.78066   -1163.0293    6326.1778    11652.956    1848.0348 
  405800    300.42575   -1168.1418    6403.0239    11653.017    1835.8789 
  405900    300.10987   -1166.7706    6408.4115    11653.028    1851.9393 
  406000    298.53381   -1163.2003    6438.4778    11652.994    1874.9065 
  406100    299.72217   -1160.8343    6410.6716    11652.941    1845.3364 
  406200    302.03344    -1165.477      6366.08    11653.084     1841.863 
  406300    297.31826   -1170.3478     6471.732    11653.133    1884.7726 
  406400    296.63101   -1164.4408    6480.3684    11652.994    1828.6246 
  406500    298.85112   -1163.9252    6432.4687    11653.039    1898.8716 
  406600    298.39191   -1159.1774    6437.5355    11653.043    1974.2282 
  406700     301.8435   -1172.0407    6376.7031    11653.086    1884.7039 
  406800    299.48761   -1167.8007    6422.6818    11652.974    1822.1549 
  406900    296.90882   -1165.2618    6475.2566    11652.996    1863.1592 
  407000    299.88381   -1163.7913    6410.1727    11652.939    1869.3959 
  407100    303.24435    -1163.048    6337.6353    11652.937     1837.775 
  407200    296.72565   -1154.6906    6468.5852    11652.983    1961.1425 
  407300    299.77393   -1163.2327    6411.9203    11652.898    1938.3795 
  407400      299.179   -1160.5934    6421.9709    11652.878    1900.3089 
  407500    299.41441   -1162.0983     6418.566    11652.997    1899.6693 
  407600    300.59694   -1167.2498    6398.3191    11652.862    1885.6969 
  407700    299.78724    -1168.566    6416.9514     11652.88    1860.5558 
  407800    297.17547   -1166.7187    6470.9235    11652.903     1858.783 
  407900    296.99256   -1165.1914    6473.2825    11652.881    1919.1322 
  408000    301.38208   -1157.9139    6372.1438    11652.796    1884.9465 
  408100    298.06462     -1155.51    6440.6403    11652.823    1943.7423 
  408200    299.76682   -1161.5371    6410.2686     11652.79    1925.5497 
  408300    297.75541   -1159.2139     6451.008    11652.882    1981.4787 
  408400    297.95862   -1162.2152    6449.6949    11652.908     1859.174 
  408500    296.46698   -1160.3593    6479.7334    11652.936    1875.9442 
  408600    301.71803   -1162.9109    6370.1314    11652.963    1855.3962 
  408700    297.68131   -1167.3029    6460.7545    11652.956    1864.9514 
  408800    298.46338   -1165.6495    6442.3256    11652.888    1878.1255 
  408900    299.02363   -1162.3965     6427.186    11652.971    1869.0258 
  409000    301.79547   -1160.9865    6366.4637    11652.874    1820.4287 
  409100    298.34427   -1165.6013    6444.7929    11652.859    1887.6593 
  409200    300.80569   -1160.9625    6387.7008     11652.99    1949.0937 
  409300    303.27468   -1160.7776    6334.6336    11652.854    1893.3376 
  409400    296.03756   -1160.2761    6488.8381     11652.95    1948.2073 
  409500    300.26554   -1168.8031     6407.122    11653.031    1940.6166 
  409600    298.52071   -1169.4311    6445.0045     11653.01    1941.7474 
  409700    300.73271   -1169.6267    6397.9484    11653.015    1957.4498 
  409800    302.26331   -1167.2765    6362.8892    11653.005    1964.2891 
  409900    300.75668   -1170.3625    6398.1086    11652.951    1963.1528 
  410000    300.50777   -1162.7349    6395.7201    11652.873    1991.2188 
  410100    300.86313   -1157.7093    6383.2322    11653.002    1985.7115 
  410200    297.61411   -1160.7262    6455.6439    11652.986    1941.3847 
  410300    300.78453   -1163.4112    6390.5841    11652.973     1886.658 
  410400    297.84876   -1165.6182    6455.5023    11652.966    1888.4542 
  410500    301.88731   -1170.4774    6374.0806    11652.962    1882.9427 
  410600    296.47737    -1167.736    6486.9867    11653.035    1921.7682 
  410700    296.94585   -1164.8024    6473.9195     11652.91    1889.0676 
  410800    298.23915   -1167.6906    6449.2157    11652.947    1959.7163 
  410900    301.26604   -1161.7934    6378.6257    11652.919    1882.8431 
  411000    299.67799   -1162.2958     6413.016    11652.881    2002.9784 
  411100     298.2175    -1164.355    6446.2868    11652.891    1963.3081 
  411200    300.03794   -1163.3624    6406.3803    11652.868    1818.9181 
  411300     298.0859   -1165.2886    6450.0326    11652.892    1882.3152 
  411400    302.57885    -1164.711    6353.5026    11652.924    1910.9283 
  411500    299.50085   -1168.2947    6422.8899    11652.971    1873.6211 
  411600    299.02689   -1170.4245    6435.1184    11652.945    1906.1591 
  411700    300.26297    -1165.113    6403.3904    11652.935    1962.9305 
  411800    298.08807   -1165.2803     6450.031    11652.945    1902.1248 
  411900    297.82766   -1164.0892    6454.3426    11652.884    1955.6449 
  412000    303.81368    -1165.425    6327.8227    11652.911    1995.1704 
  412100    295.46418   -1150.6532    6491.4934    11652.979    2012.3946 
  412200    300.88174   -1161.3867    6386.4387    11652.929    1899.3983 
  412300    298.46563   -1164.6034     6441.339    11652.996    1978.6453 
  412400    303.18462   -1168.4621    6344.4463    11653.058    1928.1263 
  412500    297.81339   -1169.4159    6460.1644    11653.075     1928.641 
  412600    296.60783   -1169.2989    6485.8106    11653.083    1909.6021 
  412700    298.34141    -1168.032    6447.4507    11653.025       1881.3 
  412800    300.39587   -1164.9005    6400.3634     11652.96    1914.8501 
  412900    300.62981   -1161.2616    6391.7379    11652.971    1927.3999 
  413000    299.18959   -1158.0754    6419.2817    11652.933     1952.954 
  413100       298.71   -1161.9104    6433.3647    11652.935    2001.1053 
  413200    298.12441   -1164.3903    6448.2772    11652.857    1978.8346 
  413300    302.67275    -1164.999    6351.7636    11652.903    1934.3404 
  413400    298.89119   -1166.4846    6434.0663    11652.933    1929.7395 
  413500    295.06255   -1163.8132    6513.2687    11653.014    1903.2115 
  413600    301.74328   -1165.8949    6372.6465    11653.034    1919.6355 
  413700    298.81354   -1166.7807    6436.1169    11653.029    1969.5232 
  413800    299.97812   -1164.7311    6409.1135    11652.955    1915.2097 
  413900    298.90165   -1160.3815    6427.7228    11652.916    1843.7116 
  414000    299.71439   -1164.3894    6414.4225    11652.971    1961.2931 
  414100    298.96747   -1160.8065    6426.8028    11652.978    1982.7285 
  414200     302.2748   -1158.7316    6354.0391    11652.945    1952.5223 
  414300    300.21145   -1164.9877    6404.3928    11652.962    1988.1645 
  414400    301.51333   -1161.1616    6372.7532    11652.961    1956.1168 
  414500    299.09393   -1165.9898    6429.3004    11652.993    1889.6182 
  414600    302.32403    -1165.224    6359.4816    11652.947    1852.5512 
  414700    301.56823   -1167.2233    6377.7379    11653.057    1882.4987 
  414800    296.94771    -1168.136    6477.2999    11652.996    1827.6805 
  414900    300.37819   -1163.7248    6399.6643    11653.059    1841.8527 
  415000    297.86214   -1161.6093    6451.2172    11652.976    1923.0589 
  415100    297.78343   -1161.5393    6452.8007    11652.947    1909.1312 
  415200    300.64519   -1166.3673    6396.5422    11652.998    1907.3707 
  415300    299.81098    -1164.132    6412.0711    11652.941    1956.7619 
  415400    296.12836   -1164.3166    6490.8726    11652.884    1960.9389 
  415500    301.90658   -1158.1178     6361.235    11652.888    1898.6151 
  415600    298.81786   -1166.1704    6435.3336    11652.948    1965.8654 
  415700    300.60093   -1162.3623     6393.311    11652.826    1856.2073 
  415800     296.5534   -1158.4783    6475.9853    11652.915    1889.2317 
  415900    300.25784   -1166.9112    6405.3685    11653.005    1919.4024 
  416000    301.22028   -1166.6825    6384.4861    11652.913    1970.0104 
  416100    299.74373   -1162.5691    6411.9242     11652.92    1891.1357 
  416200    299.63866   -1162.7021    6414.3263    11652.944    1863.9263 
  416300     298.6284    -1162.863    6436.0893    11652.964    1978.7085 
  416400    300.11837   -1155.9327    6397.2511    11652.887      1955.25 
  416500    298.89592   -1160.1594    6427.5415    11652.835    1979.2181 
  416600    302.31676    -1161.583    6355.9597     11652.91    2041.4507 
  416700    301.76812   -1163.7822    6369.9869    11653.018    1937.6683 
  416800    296.29993   -1161.7218    6484.6332    11652.905    1958.6891 
  416900    299.22622   -1163.6538    6424.0719    11652.927    2022.4502 
  417000     298.0383   -1161.0754    6446.9022    11652.958     1938.807 
  417100    300.48439   -1164.4567    6397.9236    11652.855    1928.0527 
  417200    299.18092   -1166.8756    6428.3497    11653.015    1977.4893 
  417300    299.72292   -1164.3953    6414.2852     11653.01    1911.9903 
  417400    296.35624   -1160.3764     6482.166    11652.986    1869.9364 
  417500    302.43961   -1163.0634     6354.862    11652.957    1949.3362 
  417600    302.78893   -1157.9595    6342.2311    11652.893    1919.0048 
  417700    298.60289   -1159.9601    6433.6573     11652.89    1951.0131 
  417800    302.54748   -1162.7595    6352.2545    11652.958    1927.5478 
  417900     299.8267   -1163.9117    6411.4599    11652.886    1911.5314 
  418000    300.09786   -1165.4026    6407.3025     11653.03    1950.1326 
  418100    302.97672   -1167.2211    6347.5788     11652.99    1918.5159 
  418200    296.48968   -1162.4774    6481.4642    11653.034    1892.9865 
  418300    300.90892   -1167.2629    6391.8217    11653.016    1859.9454 
  418400     298.2279   -1164.7394    6446.4724    11652.914    1937.2627 
  418500    303.54081   -1164.4519    6332.7079     11652.94    1954.5667 
  418600    298.75892   -1161.0688    6431.4296    11652.887    1970.0447 
  418700    295.69241   -1158.6285    6494.4903    11652.876    1933.4673 
  418800    300.80576   -1160.8199    6387.4448    11652.878    1962.1226 
  418900    300.89348   -1164.6307    6389.3462    11652.843    1957.0886 
  419000    301.10751   -1156.8065    6376.9799    11652.873    1951.7788 
  419100    296.94246   -1162.5244    6471.6851    11652.881    1969.0283 
  419200     297.5383   -1164.8909    6461.4036    11652.962    1911.9992 
  419300    299.72063   -1163.0575    6412.9944    11653.008    1872.0896 
  419400    301.09269   -1163.8901    6384.4143    11652.907    1934.1016 
  419500    302.84605   -1159.4901      6342.56    11652.911    1911.5482 
  419600    296.47388    -1155.446    6474.5232    11652.787    1906.0647 
  419700    301.21629   -1160.8961    6378.7334    11652.861     1933.216 
  419800    295.25371   -1157.5391    6502.7755    11652.879    1982.7978 
  419900    301.28978   -1160.2712    6376.5854    11652.908    1878.8705 
  420000    299.94085   -1162.7972     6407.927    11652.906     1958.827 
  420100    301.20785   -1160.1786    6378.1925    11652.857    1911.1444 
  420200    300.31464   -1160.3766    6397.4808    11652.866    1855.1478 
  420300    301.68722   -1165.6161    6373.4754    11652.944    1911.2323 
  420400    297.88605   -1163.7483    6452.7783    11652.908    1882.3283 
  420500    297.06226   -1166.8966    6473.4645    11652.847    1853.0138 
  420600    299.22241   -1161.9424    6422.3836    11652.869    1934.7649 
  420700    301.99749   -1166.2116    6367.4327    11652.934    1897.5255 
  420800    298.34724   -1157.0927    6436.3038    11652.942    1913.6865 
  420900    303.61279   -1161.8668    6328.5972    11652.952    1941.2519 
  421000    300.86963   -1164.0073     6389.361    11652.972    1938.4502 
  421100    301.31631   -1168.5014    6384.2961    11652.955    1873.0607 
  421200    297.72114   -1164.1475    6456.8666    11653.074    1896.7182 
  421300    300.71103   -1167.6543    6396.4026    11652.978    1958.9645 
  421400    298.88739   -1170.1949    6437.9853    11653.061    1951.2568 
  421500    297.81202   -1163.5665    6454.3133    11653.044    1907.5681 
  421600    300.41859   -1160.1703    6395.2492    11653.061    1923.0566 
  421700      298.443   -1160.1664    6437.4031    11653.013    1910.8954 
  421800    301.39741   -1163.2147    6377.3015     11652.98    1940.2659 
  421900    296.92996    -1162.743    6472.3339    11653.044    1933.7006 
  422000    301.78974   -1164.3193    6369.9831    11652.938    1871.8885 
  422100     298.2788   -1156.6318    6437.3479    11652.985    1886.5331 
  422200    300.52374   -1162.6743    6395.4769    11653.031    1874.1996 
  422300    301.05502   -1171.1092    6392.5403     11653.01    1889.3429 
  422400    298.90888   -1164.3231    6431.5381    11652.945    1820.8631 
  422500    300.65653   -1156.8488    6386.7513    11652.968    1890.4911 
  422600    299.93699   -1157.4293    6402.6753     11652.94    1916.7017 
  422700    301.45788   -1158.2245    6370.8469    11652.807    1874.0555 
  422800    299.09102   -1157.7139    6420.9498    11652.857    1972.8442 
  422900    298.59446    -1160.081    6433.9144    11652.846     1952.552 
  423000    299.73054   -1157.6865    6407.2959    11652.892    1862.5666 
  423100    299.16678   -1162.7672    6424.4589    11652.931    1927.0631 
  423200    300.34747   -1160.6914    6397.0064    11652.778    1936.8631 
  423300    297.81617    -1161.905     6452.377    11652.857    1885.2683 
  423400      300.667   -1159.9098    6389.5099    11652.889     1833.758 
  423500    294.83746   -1157.0175    6511.1763    11652.909    1974.6455 
  423600    300.80059    -1161.583    6388.2629    11652.823    1897.7062 
  423700    302.12212   -1158.1891    6356.6658    11652.852    1893.4541 
  423800    298.43638   -1160.0703     6437.338    11652.903    1953.7812 
  423900    301.27878   -1155.0233    6371.4961    11652.832    1907.5644 
  424000    299.18024   -1161.9474    6423.3504     11652.93    1863.3762 
  424100    297.12085    -1160.656    6466.0702    11652.945    1869.9978 
  424200    302.10665   -1169.1708    6368.1563    11653.031    1952.1088 
  424300    298.24029   -1170.9957    6452.6168    11653.067    1926.2078 
  424400    299.38408   -1165.9573    6423.0918    11653.016    1887.6628 
  424500    299.81369   -1161.7569    6409.7191    11653.022    1957.6582 
  424600    299.15165   -1157.4058    6419.5429    11653.053    1993.8651 
  424700    299.61601   -1158.6445    6410.8143    11653.006    1956.7905 
  424800    299.23424   -1162.5348    6422.9291    11653.075     1998.921 
  424900    298.73272   -1166.4167    6437.5948    11653.144     1911.371 
  425000    299.45925   -1165.1874    6420.7445    11653.044    1884.4384 
  425100    302.35776   -1169.7805    6363.4757    11653.105    1915.0647 
  425200    300.58307   -1168.4041    6400.0611    11653.153    1978.9609 
  425300    298.75508   -1163.1795    6433.7633    11653.028    1955.1627 
  425400    298.58224   -1170.8346     6445.072    11652.989    1953.6454 
  425500    297.46474   -1164.6048    6462.7704    11653.043    1964.0193 
  425600    299.33081   -1162.1721    6420.4432    11653.015    1948.6101 
  425700    301.66347   -1157.0418    6365.4641    11652.999    1963.6271 
  425800    298.63511   -1160.5996    6433.7541    11653.036    1990.5398 
  425900    302.48551   -1159.1461     6349.922    11652.915    1923.1383 
  426000    298.53147   -1166.3423    6441.6363    11652.961    1889.0227 
  426100    297.84586   -1169.4116     6459.353    11652.961    1959.3953 
  426200    298.94407   -1168.4527    6434.9214     11652.95    1981.2293 
  426300    303.23788   -1165.7725    6340.4559    11652.895    1910.5192 
  426400    295.67921   -1164.5455    6500.7151    11652.902    1913.9187 
  426500    297.99601   -1159.1502    6445.8168    11652.894    1837.4792 
  426600    297.41733   -1163.3542    6462.4566    11652.967     1913.968 
  426700    304.09016   -1157.7909     6314.245    11652.874    1885.3262 
  426800    298.24666    -1164.182    6445.5812    11652.982    1926.9619 
  426900    298.45469   -1163.5082     6440.419    11652.937    1944.1246 
  427000    302.12406   -1163.8207    6362.5144    11653.111    1927.9748 
  427100    300.14194   -1166.9522    6407.9043    11653.024    1957.7445 
  427200    300.55784   -1165.9839    6397.9614    11652.935    1926.5453 
  427300     297.7499   -1164.2752     6456.317    11653.012    1923.3734 
  427400    300.69941   -1166.5538    6395.5967    11653.024      1899.96 
  427500    298.87531   -1164.5387    6432.5563     11653.03    1941.5001 
  427600    303.97383   -1165.3997    6324.4732    11653.008    1930.4225 
  427700     297.2833   -1171.4126    6473.4859    11653.075    1968.0431 
  427800    296.46719   -1164.8012    6484.3794    11653.145     1946.447 
  427900    297.68487   -1168.5444    6462.0395    11653.075    1923.3999 
  428000    300.44965   -1168.7759    6403.2087    11653.079    1923.9398 
  428100    300.57514   -1168.2125    6400.0022    11653.116      1927.63 
  428200    300.28361   -1170.7572    6408.6927    11653.034    1843.3095 
  428300    294.88847   -1166.2248    6519.5152     11653.13    1873.7121 
  428400    301.47511   -1169.6532     6382.166    11653.066    1865.7845 
  428500    300.29951   -1168.3114     6405.906    11653.033     1896.386 
  428600    299.57914    -1164.877     6417.951    11653.123    1903.8134 
  428700    298.63663   -1166.6653    6439.8451    11653.093    1931.2397 
  428800    298.05675   -1165.0186    6450.5439     11653.05    1987.9536 
  428900    299.03851   -1166.2747    6430.8251    11653.049     2000.909 
  429000    303.94552   -1165.0176    6324.6857    11652.998    1984.6381 
  429100    300.33726   -1168.0091     6404.762    11652.998    1946.8636 
  429200    300.65918   -1170.0843    6399.8876    11652.925    1897.2272 
  429300    298.13615   -1155.5237    6439.2696    11652.967    1917.1883 
  429400    300.20721   -1164.0703    6403.5267    11652.923    1888.1097 
  429500    300.02525   -1164.3704     6407.729    11652.938    1912.6657 
  429600    301.36519   -1163.5202    6378.2371    11652.922    1909.0546 
  429700    296.69395   -1158.2129    6472.7695    11652.968    1882.0579 
  429800    302.33828   -1161.9613    6355.8976     11652.93    1893.8179 
  429900    300.02801   -1164.4638    6407.7015    11652.876    1950.7543 
  430000    300.11699    -1159.901    6401.2503    11652.888    1929.2536 
  430100    299.22718   -1165.2814    6425.6676    11652.916    1912.0665 
  430200    299.48367   -1167.4822    6422.4004    11652.927    1937.0974 
  430300    298.10404   -1165.5292     6449.929    11652.935    1914.7699 
  430400    298.79193   -1162.5457    6432.1938    11652.879    1892.8464 
  430500    304.76717   -1166.3464    6308.4767    11653.013    1914.5843 
  430600    298.33852   -1163.6973    6443.1713    11653.019    1943.0905 
  430700    297.64732   -1165.9707     6460.187    11652.995    1866.5822 
  430800    296.92093   -1161.5636    6471.2479    11652.944    1878.8593 
  430900    299.62646   -1167.1034    6419.0821    11653.038    1896.0796 
  431000    298.02969   -1167.8156    6453.7991     11652.93    1898.5276 
  431100     303.6693   -1165.2036    6330.7549     11652.98    1885.2037 
  431200    299.80451   -1164.2111    6412.3261    11652.978    1883.0518 
  431300    299.16725   -1166.1633    6427.9409    11653.027    1898.7246 
  431400    298.95307   -1163.9146    6430.2911     11653.05    1909.3097 
  431500    303.50541   -1163.3921    6332.4679    11653.003     1894.394 
  431600     298.3331   -1160.7914    6440.3631    11653.001    1819.2216 
  431700    299.30409   -1166.9162     6425.763    11653.019    1884.9971 
  431800    301.47717   -1167.7048    6380.1825    11653.075    1941.7956 
  431900    300.44025   -1170.5521     6405.155    11653.048    1927.8004 
  432000    294.60656   -1162.0326    6521.1886    11652.973    1898.5773 
  432100     306.8841   -1170.7352    6267.6064    11652.979    1860.7667 
  432200    298.05289   -1170.5954    6456.0896    11652.937    1896.4942 
  432300    302.68984   -1167.4726    6353.8893    11652.921    1861.6772 
  432400    297.14406   -1155.8146    6460.8156    11653.028    1893.8731 
  432500    300.55379   -1164.4991     6396.626    11652.997    1832.4415 
  432600    299.91296   -1163.8159    6409.5973    11652.962    1874.7967 
  432700    296.47213   -1168.7477    6488.0162    11652.941      1921.56 
  432800    299.83684   -1163.9493    6411.3571    11652.962     1865.001 
  432900    300.28358   -1159.3404    6397.2174    11652.975    1858.7204 
  433000    302.73265   -1159.8736    6345.4443    11652.989    1866.5232 
  433100    298.20032   -1161.7374    6444.0705    11652.925    1861.6189 
  433200    300.64982   -1166.8397    6396.7926    11652.875    1864.9903 
  433300    299.31604   -1170.5936    6429.1162     11652.95    1938.3464 
  433400     296.3613    -1163.383     6485.014    11652.935    1915.9045 
  433500     300.7219   -1161.0055    6389.4078    11652.864    1866.9252 
  433600    297.90465   -1166.5203    6455.1746     11652.93    1985.5675 
  433700    301.49003   -1162.0118    6374.0224    11652.883    1947.6682 
  433800    296.10006   -1163.7067    6490.7784    11652.795    1916.8877 
  433900     299.0738   -1167.3645    6431.0034    11652.892    1875.7059 
  434000    300.48155   -1175.5536    6409.1516    11652.925    1876.4345 
  434100    299.62804   -1164.9327    6416.7482    11652.909    1913.8644 
  434200    300.95229   -1160.5848    6384.0802    11652.879    1918.0769 
  434300    301.36456   -1165.4381    6380.1179    11652.871    1945.9215 
  434400    298.34441   -1168.6087     6447.913    11652.975     1922.586 
  434500    301.56298   -1166.0644     6376.548    11652.914    1879.2535 
  434600    303.75225   -1165.2755     6329.034    11652.959    1900.3736 
  434700    301.17408   -1164.6264    6383.4055    11652.901    1849.6598 
  434800    299.77858   -1163.8524     6412.483     11652.94    1873.8015 
  434900    299.63252    -1168.766     6420.584    11653.007    1945.2758 
  435000    300.21059   -1166.5073     6406.005    11653.036    1967.4388 
  435100    298.07166   -1168.3449    6453.4877    11652.987    1887.8641 
  435200    299.79016   -1164.1144    6412.5654    11653.008    1881.9222 
  435300    300.85439   -1165.0601    6390.7189    11652.951    1908.9057 
  435400    298.27112   -1166.0117    6446.8801    11652.973    1906.2743 
  435500    299.82082   -1159.3541    6407.0224     11652.88    1895.1413 
  435600    299.85192   -1158.5133    6405.5256    11652.889    1988.3612 
  435700    296.72197   -1167.8304    6481.7332    11652.912    1961.1064 
  435800    299.93127   -1166.8129    6412.2011     11652.96    1899.7709 
  435900    296.28248   -1169.2231    6492.6255    11653.023    1946.0708 
  436000    302.94632   -1170.7277    6351.7088    11652.964    1947.3592 
  436100    300.00911   -1164.4012    6408.1303    11652.963    1925.4684 
  436200    297.23666    -1163.592    6466.6332    11653.046     1920.911 
  436300    300.69107   -1163.8413    6393.0005    11652.963    1948.1735 
  436400    300.13126   -1159.0007    6400.1052    11652.948    1916.2653 
  436500    297.65949   -1163.9379    6457.9961    11653.097    1919.7565 
  436600    298.65743   -1167.8963    6440.5781    11653.039    1902.8301 
  436700    295.79828   -1164.0821    6497.8432    11653.037    1915.3645 
  436800    299.57464   -1165.6202    6418.6297    11652.962    1895.3498 
  436900    302.04611   -1164.6733    6364.8181    11652.897    1900.6433 
  437000    302.97456   -1163.0744    6343.4684    11652.981    1884.9946 
  437100    299.02169   -1172.0432    6436.9824    11653.079    1894.6829 
  437200    302.15226   -1166.3265     6364.382    11653.075     1846.169 
  437300    298.64504   -1167.8596    6440.8275    11653.061    1937.3937 
  437400    303.12316   -1171.3471     6348.716     11653.13    1976.4592 
  437500    299.24146   -1170.1166    6430.3895    11653.108    1965.4548 
  437600    302.38807   -1168.6164     6361.673    11653.114    1895.2744 
  437700      291.877   -1169.1508    6586.7724    11653.126    2043.0354 
  437800    302.26076   -1168.2555    6364.0297    11653.112    1961.3846 
  437900    298.47242   -1171.3619     6448.003    11653.046    1969.4093 
  438000    300.28799   -1164.9834    6402.8043    11653.013    1922.5481 
  438100    299.16635   -1169.1544     6430.997    11653.073    1943.7359 
  438200    303.02606    -1169.702    6349.0632    11653.048    1839.8574 
  438300     299.9714    -1169.308    6413.8961    11653.017    1960.9987 
  438400    298.44005   -1165.5332    6442.8674    11653.048     1938.826 
  438500    296.76906   -1170.4407    6483.5565    11653.131    1951.3955 
  438600     302.6517   -1172.8588    6360.2542    11653.085    1918.4814 
  438700    297.09868   -1168.9661    6475.0654    11653.157    1890.9012 
  438800    299.43257   -1163.7062    6419.9344    11653.146    1900.7707 
  438900    298.50848   -1167.9644    6443.9116    11653.123    1979.8946 
  439000    301.32567   -1167.7352    6383.3832    11653.009    1952.2796 
  439100    300.22453   -1156.9345    6396.1462    11653.048    1950.1278 
  439200    300.57144   -1162.0574    6393.8345    11653.025    1913.3778 
  439300    301.68866   -1170.8844    6378.8706    11653.102    1941.8886 
  439400    299.28913   -1166.8533    6426.0198     11653.02    1925.9748 
  439500    299.97206   -1163.0645    6407.6062    11652.985    1930.9178 
  439600    301.62377   -1166.6789    6375.9686    11653.019    1949.1696 
  439700    297.37994   -1167.8139    6467.7737    11653.026    1905.7349 
  439800    299.34742   -1165.0909    6422.9236    11652.931    1854.6067 
  439900    300.56464   -1166.9497    6398.7848    11652.937    1927.4293 
  440000    302.79723   -1161.5634    6345.6874    11652.922     1878.777 
  440100    301.17982   -1158.2618     6376.911    11652.894    1872.2036 
  440200    300.54892   -1162.9481    6395.0268    11652.845    1895.4592 
  440300    297.69929   -1157.5617    6450.5542    11652.881    1850.0983 
  440400    303.40884   -1167.1104    6338.1458      11652.9    1883.6946 
  440500    300.00124   -1158.7582    6402.6717     11652.98    1965.4107 
  440600    297.83158   -1161.2813    6451.4591    11652.893    1886.3558 
  440700    297.89942   -1164.4312    6453.1625    11652.895    1870.8471 
  440800    299.41739    -1166.216    6422.4765    11652.854     1950.355 
  440900    301.80709   -1163.3141    6368.5876    11652.919    1962.9485 
  441000    300.32629   -1161.5067    6398.3684    11652.872    1917.0965 
  441100    297.48137   -1157.9261     6455.597    11652.904    1976.4831 
  441200    300.01364   -1165.7664    6409.3607    11652.925    1965.8782 
  441300    298.75676   -1162.4891    6432.7907    11652.781    1867.0116 
  441400    302.80779   -1162.6885    6346.5632    11652.898    1830.8632 
  441500      298.976   -1161.4832    6427.3054    11652.986    1893.0127 
  441600    298.41458   -1165.4229    6443.2575    11653.004    1853.3357 
  441700    298.69168   -1165.2494     6437.186    11653.026    1832.5367 
  441800    299.98124   -1165.0849    6409.4369    11652.991      1907.11 
  441900    303.01893   -1165.5144     6344.974    11652.994    1855.6146 
  442000    296.77142    -1163.482    6476.4556     11653.04    1876.1699 
  442100     298.8658   -1167.2221    6435.4103    11652.997    1907.6533 
  442200    298.94011    -1158.428    6424.9822    11652.951    1872.3828 
  442300    300.87206   -1166.9192    6392.2672    11653.018    1832.0527 
  442400    297.12837   -1167.6528    6473.0088    11653.048    1949.7073 
  442500     295.4774   -1169.2114    6509.7687    11652.979    1952.6471 
  442600    302.27483   -1168.6476     6364.005    11652.995     1853.132 
  442700    298.87817   -1169.2888    6437.2088    11652.993     1880.608 
  442800    299.45214   -1167.8133    6423.5241    11653.046    1912.6811 
  442900    300.69847   -1170.5174    6399.6344    11653.078    1899.6225 
  443000    299.58148   -1167.0296    6419.9708     11653.04    1893.8318 
  443100    300.85804   -1168.5358    6394.1989    11653.033    1917.7425 
  443200    300.44223   -1164.8087    6399.3652    11653.044    1940.0523 
  443300     301.2379   -1168.1423    6385.6836    11653.027    1909.2291 
  443400    298.14415   -1163.1301    6446.7582     11653.02    1931.0743 
  443500     299.4254   -1165.5732    6421.9045    11653.095    1940.1667 
  443600    299.06887   -1166.7685    6430.6143    11652.993    1895.3673 
  443700    298.75899   -1168.3149    6438.9074     11653.12    1921.7561 
  443800    296.87015   -1170.2556    6481.1648    11653.084    1922.4931 
  443900    299.74403   -1166.1919    6415.5842    11652.964    1819.3639 
  444000    299.06787   -1165.8613    6429.7502    11653.015    1840.2128 
  444100    297.24456   -1168.7235    6471.6628    11653.113    1945.8398 
  444200    303.15866    -1168.209    6344.6634    11652.974    1901.0066 
  444300    299.98883   -1164.8205    6408.9678    11652.948    1905.1628 
  444400    299.59218   -1165.1211    6417.8659    11653.072    1962.9189 
  444500    296.91404   -1169.3105    6479.2699    11653.072    1962.9549 
  444600    303.19913    -1166.845     6342.426    11652.965    1879.0481 
  444700    299.33192   -1162.3264    6420.5734    11653.014     1938.364 
  444800    297.91951   -1164.4168    6452.8416    11653.018    1900.7961 
  444900    297.58022   -1157.8374    6453.4152    11652.923    1849.0776 
  445000     295.5017   -1166.2605    6506.3354    11653.015    1937.0286 
  445100    301.32893   -1167.4417    6383.0272    11653.016    1968.5315 
  445200    299.96459   -1161.1822    6405.9013    11653.002    1887.6332 
  445300    298.58789   -1163.4187    6437.5399    11652.993    1865.7935 
  445400    302.13921   -1160.1742    6358.3958    11652.962    1940.9678 
  445500    297.93939   -1163.7244    6451.6702    11652.964    1955.7828 
  445600    297.13267   -1167.2857    6472.3913    11652.889    1878.2408 
  445700    301.82598   -1164.0947    6368.9712    11652.925    1851.3269 
  445800    301.60056   -1162.3337    6372.0451    11652.945    1884.2771 
  445900    298.08458   -1164.7213     6449.542     11652.94    1843.3844 
  446000    300.78391   -1161.9337    6389.1467        11653    1930.8409 
  446100    298.76885   -1165.5798     6435.854    11653.012    1957.8997 
  446200    299.78008   -1162.8667    6411.5189    11652.994    1901.0483 
  446300    300.12183    -1167.159    6408.4876    11652.971    1824.9404 
  446400    294.39271   -1166.1606     6529.925    11653.013     1900.343 
  446500    301.92523   -1169.6477    6372.4506    11652.972     1903.766 
  446600     299.6225   -1163.5644    6415.5957    11653.006    1856.2793 
  446700    298.04358   -1164.8546    6450.6287    11653.018    1900.1736 
  446800    298.17092   -1166.6522    6449.6887    11653.001    1894.6857 
  446900      301.185   -1167.5064    6386.0555    11652.905    1836.7731 
  447000    298.04603   -1158.3372     6444.013    11652.972    1892.0363 
  447100    299.52507   -1172.1074    6426.2328    11653.019    1809.6091 
  447200    297.28137   -1169.9713    6472.0352    11653.024    1790.9158 
  447300    305.31418    -1169.778    6300.2047    11652.996    1836.3818 
  447400     297.1006   -1167.6881    6473.5723    11652.983    1914.5486 
  447500    297.47251   -1166.8696    6464.8571    11653.031    1850.7439 
  447600    303.31339   -1168.6736    6341.8972    11653.049    1865.6054 
  447700    296.62225   -1165.7744    6481.8497    11652.954    1934.3798 
  447800    299.39911   -1159.9904    6416.7121    11652.924    1877.9154 
  447900    299.64781   -1161.6485    6413.0826     11652.95    1861.9345 
  448000     302.3782    -1164.515    6357.5521    11652.883    1852.7194 
  448100     299.6646   -1158.2305    6409.2353    11652.879    1892.1717 
  448200    299.95739   -1165.5562    6410.4074    11652.981    1831.4163 
  448300    295.90484   -1165.8122    6497.2738    11653.015    1869.0954 
  448400    301.34004   -1175.5212    6390.8384    11652.985     1869.566 
  448500    298.69161   -1167.3994    6439.2871    11652.976    1820.2828 
  448600    299.24531   -1164.4143    6424.5265    11653.029    1869.3891 
  448700    301.03589   -1161.2056    6383.0148    11652.979    1862.0978 
  448800    298.14562    -1157.394    6440.8708    11652.901    1873.9945 
  448900    301.52944   -1160.7773    6371.9137     11652.85    1886.5991 
  449000    295.92984   -1162.7286    6493.6018     11652.96    1893.6666 
  449100    298.67247   -1157.7522    6429.9732      11652.9    1818.6788 
  449200    302.34322   -1164.0783    6357.8096     11652.83    1835.5641 
  449300    297.39921   -1165.1989    6464.6559    11652.935     1916.542 
  449400    299.40475   -1167.3259    6423.9521    11652.949    1870.9005 
  449500    300.23547   -1168.8086    6407.7146    11652.976    1828.0012 
  449600    300.80888    -1168.622    6395.1989    11652.897    1811.7484 
  449700     302.1167   -1171.6884     6370.442    11653.013    1813.3759 
  449800    297.06557   -1161.7309    6468.3793    11652.999     1805.072 
  449900    300.51507   -1163.0593    6395.9066    11652.891    1868.8476 
  450000    297.05495   -1160.5587    6467.3923    11652.957    1851.7737 
  450100    297.35063   -1158.2529    6458.8035    11652.991    1808.6031 
  450200    305.85289   -1163.9949    6282.9457    11653.028    1835.8454 
  450300    297.49855   -1161.4141    6458.9108    11653.097    1912.6064 
  450400    299.61079   -1168.8799    6421.1557    11653.001    1838.2692 
  450500     300.1892   -1176.3863    6416.4055    11653.101    1839.4791 
  450600    298.13772   -1169.5676    6453.4955    11653.183    1854.5969 
  450700      300.574   -1172.3195    6404.0969     11653.08    1849.1507 
  450800    297.87313   -1168.6592    6458.0906    11653.034    1891.8178 
  450900    303.22423   -1161.2118    6336.3281    11653.037    1913.5515 
  451000     298.0097   -1159.2928    6445.7042    11652.931    1908.0576 
  451100    300.62163   -1159.6036    6390.2262    11652.942    1896.5357 
  451200    296.36334   -1158.0063    6479.6236    11652.965    1973.9792 
  451300    301.43863   -1167.3579     6380.622    11653.038    1919.6549 
  451400    297.97565   -1169.7021    6456.8464    11652.937    1908.0236 
  451500    302.63279   -1167.6789    6355.3998    11653.006    1900.2158 
  451600    298.24384   -1163.7637    6445.2816     11653.04    1940.1136 
  451700    297.50883   -1163.4022    6460.5261    11652.944    1898.4049 
  451800    298.81461   -1154.8392    6424.0891    11652.966     1902.336 
  451900    297.47683   -1167.7033    6465.5336    11652.966    1891.4522 
  452000    300.31777   -1159.5095    6396.4948    11652.814    1875.0668 
  452100    300.09282    -1159.541    6401.3416    11652.823    1959.8128 
  452200    302.72458   -1160.9174    6346.5167    11652.846    1911.7248 
  452300    300.99364   -1164.6587    6387.3324    11652.941    1833.3678 
  452400    295.99495   -1164.0514    6493.5025    11652.929    1854.8688 
  452500    305.01063   -1164.7877    6301.6438     11652.94    1870.0645 
  452600    301.21642   -1165.2267    6383.1174    11652.917    1864.8626 
  452700     300.5224   -1165.8825    6398.6608    11652.978    1857.8828 
  452800    298.11788   -1159.3207    6443.4505    11652.961    1808.0403 
  452900    298.55083   -1166.8493    6441.7407    11652.972     1877.616 
  453000    297.18703   -1153.6593    6457.6767    11652.962    1925.2227 
  453100    299.48125   -1164.2564    6419.2726    11652.974    1912.5716 
  453200    301.34696   -1161.0107    6376.1568    11652.962    1872.9559 
  453300    297.94843   -1165.4005    6453.2953    11653.106    1955.6902 
  453400    301.18455   -1175.3675    6394.1625    11653.141    1918.7712 
  453500    295.39308   -1170.3423     6512.894    11653.172    1899.5097 
  453600    301.44965   -1170.2942    6383.3557    11653.071    1886.9536 
  453700    297.35571   -1172.2279    6472.7851    11653.106    1950.9371 
  453800    299.63924   -1158.0854    6409.8247    11653.072    1909.9474 
  453900    301.40656   -1161.9245    6375.9349    11653.099    2002.2779 
  454000    297.46608   -1162.1763     6460.356    11653.086    1943.2947 
  454100    298.65919   -1163.3596     6436.086    11653.122    1915.9059 
  454200    300.32851   -1170.6176    6407.5858    11653.026    1897.3332 
  454300    300.67677   -1173.8051    6403.3334    11653.026    1948.9748 
  454400    297.96693   -1171.6102    6459.1459    11653.142     1922.524 
  454500    302.39793   -1170.4349      6363.22    11653.053    1853.0945 
  454600    295.33583   -1166.2465    6509.8789    11653.029    1925.1412 
  454700    301.82315   -1162.3507    6367.3655    11653.003    1977.4928 
  454800    298.24588   -1159.7424    6441.1348    11652.958    1908.1322 
  454900     300.4094   -1161.9419    6397.1453    11652.989    1866.4533 
  455000    295.77632   -1165.0114    6499.1233    11652.919    1919.3712 
  455100    299.61659    -1161.953    6413.9671    11652.863    1888.3622 
  455200      300.872   -1165.4496    6390.7259    11652.945    1871.0704 
  455300    301.43576   -1166.6808    6379.8702    11652.902      1852.69 
  455400    300.61489   -1160.9514    6391.6328    11652.857    1856.6621 
  455500    299.37577   -1160.8237    6417.9962    11652.876    1814.4214 
  455600    297.60857   -1161.7592    6456.7372    11652.928    1846.3295 
  455700    299.91743   -1166.5502    6412.1576    11652.883    1851.4058 
  455800    298.17394   -1159.4066     6442.191    11652.813    1891.6686 
  455900    300.07112   -1158.5244    6400.7588    11652.793    1882.8381 
  456000    302.00858   -1164.6739    6365.5791    11652.855    1925.9632 
  456100    300.19992   -1164.3234    6403.9099    11652.897    1844.5626 
  456200    297.74265   -1159.2945    6451.3746    11652.895    1898.2992 
  456300    302.31081    -1165.366    6359.8065    11652.847    1934.0723 
  456400    298.39547    -1164.418     6442.593    11652.936     1904.851 
  456500    298.56269   -1164.6208    6439.2362    11652.949    1904.9505 
  456600    302.03096   -1162.7691    6363.3118    11652.971     1888.836 
  456700    297.50695   -1165.7882    6463.0322    11653.024    1892.9975 
  456800    298.63526   -1167.0859    6440.2172    11653.015    1903.9643 
  456900     302.3211    -1171.349    6365.7322     11653.01    1864.5918 
  457000    295.95499   -1171.6386    6502.1154    11653.101    1905.7297 
  457100    299.62134   -1163.3481    6415.4268    11653.029    1875.0877 
  457200    299.22593   -1167.4955    6427.8887    11652.896    1907.5211 
  457300    299.92352   -1160.7032    6406.2713    11652.974    1950.7427 
  457400    299.93285    -1161.815    6407.2041    11652.994    1923.4499 
  457500    297.33662   -1166.3194    6467.1843    11653.006    1869.0018 
  457600    301.23657    -1174.569    6392.1399    11653.028    1897.4095 
  457700    303.06481   -1169.0461     6347.597    11653.066    1878.3178 
  457800    300.62288   -1174.3152    6405.0742    11653.105    1900.5959 
  457900    295.62946   -1161.9134    6499.2958    11653.052    1913.9767 
  458000    302.89776   -1165.5931    6347.7157    11653.068    1913.8162 
  458100    299.34166   -1158.7527    6416.7991    11653.022    1921.0425 
  458200    301.85018   -1163.7211    6368.0989    11652.944    1958.2397 
  458300     298.1758   -1165.0867    6447.9551    11652.937    2012.7945 
  458400    298.88892   -1160.0094    6427.6125    11652.906    1940.7047 
  458500    298.12715   -1164.2578    6448.2018    11652.973     1913.247 
  458600    298.88042   -1169.0592    6436.9169    11652.979     1953.174 
  458700    300.67947   -1165.9956    6395.4124    11652.972    1879.5132 
  458800    299.02615   -1162.5735    6427.2632    11652.925    1925.7625 
  458900    298.67718   -1163.1289    6435.2563    11652.907    1926.7036 
  459000    300.44236   -1159.2066    6393.5893    11652.873    1872.4125 
  459100    298.35547   -1162.9882    6441.9071    11652.826    1896.3974 
  459200      303.366   -1157.5499    6329.4837    11652.883    1864.6723 
  459300    302.00912   -1162.4081    6363.2998    11652.853    1841.8167 
  459400    296.08771   -1165.7899     6493.254    11652.924    1838.6845 
  459500    299.03799   -1161.2151    6425.6428    11652.916    1866.1342 
  459600    301.41431   -1161.7993    6375.4641    11652.919    1882.9518 
  459700    297.02914   -1165.1668    6472.6391    11653.044    1897.9477 
  459800    300.97269   -1168.3674    6391.4281     11652.88    1799.0278 
  459900      296.227   -1166.3487    6490.9058    11652.992    1892.3377 
  460000    299.89192   -1161.2818    6407.5632    11653.012    1941.7796 
  460100    303.88186   -1168.6247    6329.7238    11653.069    1950.4799 
  460200    296.81348   -1163.5865     6475.756    11653.134    1944.5014 
  460300    300.93669   -1169.3526    6393.3003    11652.998    1834.6424 
  460400    302.39494   -1171.3125    6364.1528    11653.044    1816.8737 
  460500    301.31978   -1174.4396    6390.3288    11653.124    1967.6637 
  460600    300.25478   -1176.5526    6415.1245    11653.055    1959.7501 
  460700    298.75482   -1169.3465    6439.9528    11653.045    1904.9996 
  460800    301.93246   -1166.9918      6369.79    11653.122    1910.6059 
  460900    298.24364   -1168.3626    6449.9561    11653.111    1885.8451 
  461000    299.22696   -1169.0095    6429.5361    11653.052    1863.5801 
  461100    295.79081   -1171.2965    6505.1486    11652.969    1934.2579 
  461200    303.05902   -1172.4856    6351.1693    11653.075    1913.3536 
  461300    296.88548   -1170.1661    6480.8042    11653.141    1901.1241 
  461400    302.59945   -1172.9416    6361.4255    11653.057    1851.2674 
  461500    297.41675    -1173.471    6472.6257    11653.007     1905.137 
  461600    302.11148   -1168.8247    6367.7215    11653.045    1877.4778 
  461700    301.87033   -1165.0581    6369.0201    11652.958     1885.499 
  461800    296.80676   -1160.4005    6472.5625    11652.983    1878.2942 
  461900    300.92109   -1164.0848    6388.3189    11652.951    1860.5869 
  462000    301.78063    -1163.287     6369.205    11652.998    1876.1077 
  462100    299.67157   -1166.6263    6417.4757    11652.873    1911.5997 
  462200    300.79082   -1159.9645    6386.9375    11652.907    1919.9686 
  462300    297.03816   -1168.5644    6475.7579    11652.958    1874.6816 
  462400    299.79179   -1162.7351    6411.0744    11652.931    1849.0542 
  462500    300.36451   -1165.8955    6401.9425    11652.874    1929.8028 
  462600    300.72101    -1162.633    6391.0175    11652.827    1872.6397 
  462700    298.89509   -1156.0738    6423.5052    11652.867     1814.161 
  462800    298.10487   -1163.4708    6447.8988    11652.981    1838.6433 
  462900    298.79157   -1158.9953     6428.666    11652.894    1892.2228 
  463000    300.77757    -1156.638    6383.8558    11652.869     1812.835 
  463100    300.76256    -1164.639    6392.2808    11652.972    1842.3713 
  463200    300.04252   -1166.8576    6409.8182    11652.909    1822.2628 
  463300    296.34028   -1169.0528    6491.1445    11652.947    1843.4096 
  463400    300.82287   -1165.8251    6392.1433    11652.937    1877.3792 
  463500    300.47904   -1166.8934    6400.6565    11653.037    1945.6019 
  463600    302.04421     -1166.23     6366.544    11653.025    1907.4079 
  463700    301.15611   -1159.7043    6378.9716    11653.005    1959.9688 
  463800    298.96766    -1165.523    6431.5951    11653.058    1936.1213 
  463900     298.9546   -1167.2187    6433.5735    11653.061    1941.2929 
  464000     303.5069   -1174.9173    6344.0474    11653.089    1904.3012 
  464100    299.53561   -1171.4602    6425.4701    11653.129    1844.8749 
  464200    295.12155   -1174.6448    6522.9985    11653.173    1894.4145 
  464300     301.8553   -1173.1766       6377.6    11653.099    1898.7141 
  464400    298.64611   -1170.2096    6443.2014    11653.108    1945.5484 
  464500    303.44995   -1162.1384    6332.5742    11653.178    1964.2109 
  464600    298.19427   -1163.5273    6446.1587    11653.094    1963.0663 
  464700    299.53321   -1170.6143     6424.606    11653.059    1844.9744 
  464800    301.15803   -1165.4194    6384.7778    11653.138    1930.2682 
  464900    301.39025   -1169.9637    6384.3298    11653.106    1920.5167 
  465000    296.52134    -1162.788    6481.1044     11653.04    1928.8481 
  465100    300.16483   -1165.4704    6405.9175    11653.008    1919.1417 
  465200    298.60837   -1164.7273     6438.481    11653.063     1888.923 
  465300    300.41415   -1164.3294    6399.3598    11652.918    1812.7269 
  465400    299.17262   -1167.2204    6428.7735    11652.917    1946.9038 
  465500    301.57524   -1160.8683    6371.0371    11652.861    1912.3305 
  465600    298.89836   -1161.5572    6428.9917    11652.939    1903.9444 
  465700    298.60099   -1154.2937    6427.9174    11652.776    1825.8079 
  465800    299.31329   -1154.7514    6413.1379    11652.756    1895.0336 
  465900    302.09766   -1158.3791    6357.3628    11652.837    1895.6239 
  466000    297.55284   -1157.1449    6453.1315    11652.747    1844.9337 
  466100    301.76836   -1160.7217    6366.5519    11652.648    1799.0715 
  466200    295.89038   -1154.6571    6486.2087    11652.796     1888.479 
  466300    300.65603   -1163.2946    6393.0417    11652.802      1874.46 
  466400    300.01926   -1156.4765    6399.8009    11652.775    1892.8503 
  466500     299.7394    -1156.818    6406.1635    11652.818    1920.5326 
  466600    301.03823   -1161.8518    6383.4177    11652.786    1914.0311 
  466700    297.83367   -1157.7512    6447.8021     11652.81    1884.3107 
  466800    299.73971   -1163.2913     6412.787    11652.975    1885.0146 
  466900    299.09846   -1163.3883    6426.5132    11652.905    1889.0175 
  467000    299.10829   -1167.2962    6430.2484    11652.942    1882.9623 
  467100    295.02909   -1163.7738    6513.9397     11653.01    1862.1888 
  467200    300.80434   -1164.0955    6390.8338    11652.961    1827.6873 
  467300    300.24976    -1170.151    6408.8787    11653.103     1858.884 
  467400    303.53997   -1162.5659    6330.9996    11653.099    1838.7882 
  467500    298.98932   -1163.3018     6428.983    11653.129    1862.9655 
  467600    299.02884   -1156.5239    6421.2986    11653.067    1854.9206 
  467700     299.3267   -1170.7195    6429.2462    11653.182    1919.6834 
  467800    303.16336   -1175.7537    6352.1908    11653.057    1857.4179 
  467900    298.11823   -1174.8741    6459.1405    11653.105    1849.2195 
  468000    297.36615     -1168.38    6468.7607    11653.152     1865.541 
  468100    299.97309   -1168.4283    6413.1063    11653.143    1932.2157 
  468200    300.43842   -1163.0823    6397.6504    11652.974     1881.651 
  468300     298.0116   -1157.9789    6444.3903    11652.972    1885.6526 
  468400    300.94698   -1164.7856    6388.5237    11653.008    1931.0523 
  468500    297.70317   -1160.9331    6453.8553    11652.894    1885.7128 
  468600    299.99329   -1160.7155    6404.7733    11652.954    1903.0788 
  468700    304.15281    -1158.888     6314.086    11652.956    1865.0539 
  468800    298.90644   -1154.8492    6422.0429    11652.871    1827.8712 
  468900    299.96546   -1156.0802    6400.5754    11652.797    1858.3909 
  469000    299.89645   -1158.0234    6403.9486    11652.753    1928.5724 
  469100     299.8438   -1159.5166    6406.5347    11652.721    1916.0745 
  469200    297.77193   -1147.6323    6438.8299    11652.638    1884.2205 
  469300    301.42174   -1151.1446    6364.2897    11652.558    1887.6626 
  469400    295.92546   -1150.5343    6481.0952    11652.554    1907.3408 
  469500    303.57395   -1149.6311    6316.7925    11652.553    1841.6628 
  469600    294.74429   -1156.0369    6511.8702    11652.593    1887.1385 
  469700    302.55767   -1151.1498    6340.0492     11652.58     1813.818 
  469800    299.77682   -1153.1897    6401.5789    11652.661    1750.3226 
  469900    301.51211   -1155.8078    6367.1048    11652.641    1828.4725 
  470000    299.88988   -1151.4801    6397.4867    11652.694    1858.9124 
  470100    297.68151   -1154.6444    6447.8745    11652.739    1866.4518 
  470200     302.3744   -1158.8424    6351.8206    11652.743    1885.5973 
  470300    299.78982   -1156.9475    6405.2219    11652.824    1882.8584 
  470400    296.25595   -1158.7607    6482.6228    11652.916    1920.2611 
  470500    302.30619   -1159.3544    6353.9085    11652.862    1858.7999 
  470600    298.09833   -1161.3157     6445.842     11652.94     1882.535 
  470700    300.49864    -1162.039    6395.3542    11653.008    1931.4119 
  470800    299.52731   -1169.6375    6423.7938    11653.098    1965.9436 
  470900    300.60757   -1172.1772    6403.1873     11653.03    1894.1919 
  471000    300.29018   -1168.2981    6406.0809    11653.022    1931.9997 
  471100    302.13945   -1168.9825    6367.2969     11653.06    1851.6568 
  471200    296.75832   -1168.3962    6481.7307    11653.121     1888.184 
  471300    302.65885   -1170.3772     6357.617    11653.082    1880.8164 
  471400    294.71176   -1156.7948    6513.8086    11653.078    1952.4454 
  471500     302.7791   -1165.7337    6350.4799    11653.157    1867.9922 
  471600    298.04922    -1165.435    6451.1808     11653.11    1923.5338 
  471700    296.94542   -1169.6734    6478.9977    11653.108    1939.0469 
  471800    304.04481   -1170.3251    6327.9501    11653.076    1849.3927 
  471900    298.06106   -1171.2039    6456.6365     11653.05      1881.55 
  472000    303.12713   -1167.0937    6344.3043    11653.057    1891.9988 
  472100    298.62816    -1163.809    6436.9929    11652.916    1872.5328 
  472200    301.82221    -1167.921    6372.8731    11652.921     1852.664 
  472300    302.30309   -1160.1351    6354.7849    11652.892    1942.3453 
  472400    301.21606   -1156.0346    6373.8062    11652.791    1901.5716 
  472500     298.7878   -1156.7852    6426.4207    11652.778    1838.4437 
  472600     297.6793   -1160.1677    6453.5526    11652.846    1894.9208 
  472700    301.47058   -1156.3309    6368.7034    11652.829    1915.4846 
  472800    299.07817    -1162.849    6426.2138    11652.711    1872.3215 
  472900    294.43955   -1160.9266    6523.4842    11652.807    1919.8394 
  473000    302.13803   -1161.1219    6359.2075    11652.801    1894.7536 
  473100    296.99449   -1160.7268    6468.6659    11652.771    1979.6963 
  473200    301.03984   -1154.7019    6376.1956    11652.748    1919.4528 
  473300    300.69822   -1155.8392    6384.5949    11652.712    1878.5663 
  473400    299.21233   -1162.8958    6423.4386    11652.755    1842.0989 
  473500    297.31154   -1163.8023    6465.0266    11652.829    1897.7325 
  473600    299.80518   -1167.8016    6415.8135    11652.889     1846.355 
  473700    298.93716   -1166.9919     6433.459    11652.801    1833.2684 
  473800    302.46021   -1166.1808    6357.4323     11652.85    1884.0814 
  473900    299.48496   -1167.5956    6422.4897    11652.931    1879.3197 
  474000    295.86299   -1164.4443      6496.74    11652.955     1841.954 
  474100    301.18481   -1157.9412    6376.4395     11652.85    1830.9434 
  474200    300.18879   -1163.4247    6403.3797    11653.028    1917.0035 
  474300    298.52462   -1164.8343    6440.3059    11652.992    1833.4584 
  474400    301.16962   -1164.1929    6383.0324    11652.866    1860.2896 
  474500    297.11193   -1161.5464    6467.1624    11652.957    1910.9743 
  474600    300.05502   -1168.0549    6410.8622    11653.023    1980.2747 
  474700    301.24293   -1164.0161    6381.4469    11653.024    1871.3327 
  474800    302.50152   -1165.1367    6355.5745    11652.919    1798.8561 
  474900    298.42385   -1165.0238    6442.6067    11652.951    1970.2315 
  475000    298.04719   -1164.6686    6450.1462    11652.799    1926.3188 
  475100    298.57898   -1163.6713    6437.8905    11652.901    1919.6207 
  475200    300.20347   -1167.7166    6407.2939    11652.964    1961.1684 
  475300     298.4288   -1161.2134    6438.6024    11652.862    1915.7112 
  475400    295.60555   -1157.6786    6495.2894     11652.77    1918.6412 
  475500    302.83823   -1151.5711    6334.6731    11652.776    1897.1098 
  475600     298.2399   -1159.5484    6440.9386    11652.828    1884.6206 
  475700     303.1676   -1161.7499     6337.774    11652.735    1786.5912 
  475800    298.83715    -1158.856     6427.422    11652.763    1894.7637 
  475900    299.78746   -1162.3686    6410.6107    11652.741    1925.4332 
  476000    297.31181   -1161.0118    6462.1196    11652.718     1902.053 
  476100    297.52574   -1153.6171    6450.1979    11652.762    1893.3008 
  476200     302.2881   -1152.6457    6347.4794    11652.755    1884.7883 
  476300     302.2711   -1164.4527    6359.6588    11652.764    1902.4481 
  476400       296.19   -1153.6597    6478.8128    11652.798    1916.0709 
  476500    298.93556   -1161.9088    6428.3468    11652.738    1939.5127 
  476600    299.62166   -1161.7344    6413.5634    11652.786    1967.0162 
  476700    301.42198   -1158.2375    6371.6094     11652.79    1873.8126 
  476800    300.03771   -1164.4177    6407.3848    11652.812    1878.1579 
  476900    301.45953   -1161.0053    6373.5219    11652.737    1866.4443 
  477000    296.53556   -1163.2317    6480.9778    11652.773    1845.0139 
  477100    300.90404   -1166.3138    6390.6815    11652.721    1833.4231 
  477200    296.41065   -1165.9716    6486.3534    11652.741    1940.8005 
  477300    302.41561   -1164.7409    6356.8201    11652.725     1879.441 
  477400     298.0204   -1161.3474    6447.3506    11652.752    1859.9093 
  477500    300.10829   -1158.8582    6400.2499    11652.745    1883.0108 
  477600    299.21556   -1164.7051    6425.1132    11652.689    1828.2518 
  477700    298.85735   -1161.0381    6429.2401    11652.831    1862.8558 
  477800    302.30203   -1163.7424    6358.3267    11652.803    1872.3811 
  477900    299.99732   -1168.3261    6412.1641     11652.82    1892.7608 
  478000    298.21472   -1162.3304    6444.1513    11652.721    1858.7045 
  478100    302.22362   -1162.8222    6359.1085     11652.83      1885.03 
  478200    301.43599   -1155.7488    6368.8052    11652.774    1924.0828 
  478300    298.05592   -1163.0236    6448.2154    11652.699    1884.9271 
  478400     300.5368   -1154.9035    6387.1078    11652.712    1874.7175 
  478500    299.39374   -1156.6533    6413.3022    11652.737    1897.5829 
  478600    300.66444   -1157.5222    6387.0216    11652.734    1854.2811 
  478700     299.0712   -1155.3484    6418.8473    11652.696    1848.6833 
  478800     296.9362   -1155.0154    6464.1646    11652.735    1940.4909 
  478900    301.42465   -1156.2685    6369.5002    11652.707    1915.1516 
  479000    295.92509   -1157.9076    6488.6884    11652.766     1946.218 
  479100    300.73897   -1157.7755    6385.7069    11652.758    1850.1565 
  479200     297.0029   -1158.2577    6466.0761     11652.83    1882.6811 
  479300    296.42536    -1160.959    6481.0318    11652.746    1884.4599 
  479400    302.70535    -1154.629    6340.4881    11652.694    1858.8713 
  479500    298.87261   -1157.1563    6424.9058    11652.704    1888.5037 
  479600       300.14   -1163.7297    6404.5703    11652.871    1941.1544 
  479700    303.18196   -1158.8651     6334.658     11652.81    1834.3033 
  479800    299.13581   -1156.8785    6419.1408     11652.84    1867.6284 
  479900    303.07279   -1160.1893    6338.3785    11652.874    1898.0398 
  480000    297.02781     -1170.77    6478.1791    11652.952    1845.0275 
  480100    301.34492   -1169.5054     6384.712    11652.978    1780.5026 
  480200    296.96594   -1169.6725    6478.4793    11653.028     1857.961 
  480300    300.56918   -1164.4163    6396.2672     11653.05    1840.8368 
  480400    294.96935   -1168.3289    6519.7834    11653.022    1915.0775 
  480500    300.80782   -1166.3168    6393.1632    11653.144    1953.4254 
  480600    300.71493   -1166.4811    6395.2615    11653.093    1882.4604 
  480700    299.16566   -1171.5209    6433.4818    11653.176    1888.8498 
  480800    302.02436    -1166.783    6367.6341    11653.138    1933.9232 
  480900    294.82462   -1165.4403    6520.1201    11653.156    1950.3135 
  481000    303.54631   -1170.7193    6338.9716    11653.054     1888.928 
  481100    299.39823   -1172.3545    6429.2253    11653.055    1918.2448 
  481200    300.72264   -1169.2357    6397.7565    11652.999    1883.7166 
  481300    301.86542   -1169.5924     6373.699    11652.998    1952.8078 
  481400    298.68553   -1162.0098    6434.0284    11652.977    1931.2637 
  481500    297.39621   -1165.8742    6465.4168    11652.956     1814.394 
  481600    300.61374   -1165.8084    6396.5804    11652.923    1801.2988 
  481700    295.44073   -1163.4381    6504.7533    11652.953    1938.4689 
  481800    302.33679   -1160.1362    6354.0641     11652.89    1894.0153 
  481900    300.43092   -1162.2188    6396.8045    11652.831    1912.6084 
  482000    297.28506   -1156.5952    6458.3318    11652.776    1928.3674 
  482100    298.81681   -1154.9952     6423.924    11652.691    1900.0878 
  482200     300.1435   -1155.2277    6395.8574    11652.735    1954.5941 
  482300    302.86978   -1156.5318    6338.9228    11652.739    1880.6455 
  482400    294.12921   -1153.7839    6522.9045     11652.74    1905.2765 
  482500    300.04296   -1160.6602    6403.4227     11652.72    1929.4186 
  482600    296.46416   -1156.4908    6475.7728    11652.784    1901.1172 
  482700    301.01285   -1160.4666    6382.5896    11652.801    1811.1068 
  482800    298.87728   -1157.9613    6425.6658    11652.759    1836.8439 
  482900     302.2141   -1160.8135    6357.2952    11652.822    1847.4156 
  483000    298.63612   -1161.8925    6434.8319    11652.842    1852.2044 
  483100    299.02276   -1161.6998    6426.3605    11652.823    1864.7169 
  483200    300.12766   -1160.8009    6401.8753    11652.841     1911.811 
  483300    302.00754   -1157.9829    6359.0183    11652.963    1903.6276 
  483400    297.69943   -1162.5204    6455.6304    11653.002    1917.9157 
  483500     300.4357   -1167.3487    6401.9802    11652.979    1917.9588 
  483600    296.30471   -1163.4011    6486.3575    11653.052     1867.081 
  483700    299.27143   -1167.0799    6426.6592    11653.054    1842.4087 
  483800    301.71418   -1164.1979    6371.6186    11653.081    1848.9518 
  483900    295.80109    -1164.154    6497.9425    11653.125    1830.1456 
  484000    305.23985   -1168.7091    6300.7451    11653.017    1816.6337 
  484100    298.60201   -1164.3197    6438.1503    11653.004    1903.0028 
  484200    301.70157   -1165.4867    6373.2036    11653.108    1859.9209 
  484300    301.42394   -1165.3634    6378.9649    11653.062    1907.3743 
  484400    300.12638   -1173.5285    6414.8346    11653.046     1946.044 
  484500    300.22812   -1164.1979    6403.2672    11652.982    1890.5991 
  484600    299.73724   -1161.3508    6410.9378    11653.013     1861.868 
  484700     301.1889   -1168.3183    6386.8091     11652.93    1861.7859 
  484800    299.54431   -1158.2738     6411.871    11652.902    1907.2123 
  484900    302.78575   -1158.1344    6342.4282    11652.847    1818.9257 
  485000    299.73456   -1158.6598    6408.1676    11652.877     1867.981 
  485100    300.26426   -1155.5132    6393.5721    11652.744    1857.8331 
  485200    299.91364   -1155.1156    6400.5987    11652.678    1834.3889 
  485300    299.70047   -1152.9977    6403.0409    11652.684    1831.8547 
  485400    294.86886   -1155.0013    6508.2746    11652.694    1879.5271 
  485500    302.30515   -1151.6857    6346.1127    11652.713    1858.0043 
  485600    300.27339     -1148.03    6385.8545    11652.705    1827.7207 
  485700     297.7289   -1150.5614    6442.7081    11652.668    1874.2315 
  485800     300.2293   -1157.7044    6396.4176    11652.651    1831.4895 
  485900     294.9646   -1150.4265    6501.5127    11652.552    1839.5269 
  486000    302.84452   -1151.5881     6334.354    11652.574    1885.3088 
  486100    297.28987   -1158.3241    6459.9149    11652.733    1927.6094 
  486200     299.9427   -1153.4887    6398.3686    11652.695    1855.2853 
  486300    299.81963   -1154.5808    6402.1413    11652.747    1831.1772 
  486400    298.86177   -1158.4442      6426.48    11652.759    1852.5154 
  486500    299.24323   -1165.7259    6425.7324    11652.879    1887.8152 
  486600     301.2197   -1165.7421    6383.7005    11653.055    1891.0194 
  486700    298.41632   -1166.2457    6444.0188     11652.98    1825.6183 
  486800    298.92856   -1162.5508     6429.457    11653.056    1861.4079 
  486900    304.07537   -1169.5445    6326.4579    11653.017    1838.5928 
  487000    302.09449   -1171.5413    6370.8315    11653.075    1870.5451 
  487100    300.98079   -1170.6379    6393.7582    11653.113    1840.3486 
  487200     303.1651   -1159.7154    6336.1779     11653.12    1766.3555 
  487300    298.67474   -1168.0649    6440.5476     11653.21    1792.2813 
  487400    301.70432   -1166.4474      6374.21    11653.213    1819.8364 
  487500    299.50109   -1172.3557    6427.1714    11653.197    1805.4182 
  487600    299.68319   -1174.7282     6425.671    11653.214    1780.6675 
  487700    299.00893   -1172.6025    6437.9481    11653.212    1853.3116 
  487800    302.55018   -1169.8507    6359.4736    11653.143     1868.929 
  487900    294.49148    -1161.581     6523.277    11653.055    1897.7387 
  488000     305.7671   -1169.7967    6290.5325    11652.981    1805.8599 
  488100    296.71293   -1157.8624     6472.017    11652.971    1855.2105 
  488200    298.62985   -1156.4754    6429.6126    11652.906    1876.0773 
  488300    305.25177   -1162.0671    6293.6706    11652.839    1811.9754 
  488400    295.73002   -1158.0092    6493.0476    11652.856    1887.1686 
  488500    301.19008    -1159.701    6378.0663    11652.829    1832.0008 
  488600    300.17653   -1156.5097    6396.4428    11652.744    1866.3271 
  488700    297.47372   -1155.6517    6453.2167    11652.635     1916.688 
  488800    299.15725   -1151.3173    6412.8383    11652.557    1821.1073 
  488900    297.90242   -1151.7425    6440.0451    11652.531    1785.9756 
  489000      299.693   -1147.4443    6397.4747    11652.511    1863.6303 
  489100    301.12754   -1143.9324     6363.369    11652.564    1863.9081 
  489200    296.07897   -1151.2593    6478.5753    11652.589    1874.7571 
  489300    299.76243   -1153.0612    6401.7072     11652.61    1853.3922 
  489400    300.53479   -1156.2857    6388.4358    11652.615    1810.9417 
  489500      294.935   -1156.6329    6508.4344    11652.635    1811.1838 
  489600    301.48085   -1161.7716    6373.8579    11652.762    1786.2205 
  489700    297.74189   -1156.2883    6448.3714    11652.882    1843.2802 
  489800    298.78906   -1164.0906    6433.7956    11652.875    1865.5092 
  489900     298.2335   -1168.3225    6449.9106    11652.889    1873.0754 
  490000    296.93513   -1167.0191    6476.3798    11652.924    1853.4439 
  490100    299.10207   -1167.5331    6430.7474    11653.071    1890.4601 
  490200    304.44883   -1166.8122     6315.831    11653.101    1889.4315 
  490300    297.77707    -1159.929    6451.5413    11653.162    1926.2783 
  490400    300.16969   -1172.0786    6412.6442    11653.231    1917.0957 
  490500     302.2652   -1175.4615    6371.3236    11653.294    1908.0943 
  490600    299.81907   -1179.1746    6427.2053    11653.205    1900.3425 
  490700    304.29769   -1177.4491    6329.8273    11653.231    1857.1729 
  490800    295.16939   -1180.6104    6528.1465    11653.377    1912.2179 
  490900    302.15536   -1180.2388    6378.4472    11653.294    1878.6412 
  491000    301.86848   -1172.5233    6376.7637    11653.197     1840.594 
  491100    296.81339   -1172.8663    6485.1552    11653.252    1899.2788 
  491200    301.39692   -1168.7187    6383.0338    11653.198      1927.52 
  491300    303.18707   -1171.9858    6347.9523    11653.093    1907.1023 
  491400    298.87058   -1169.4775    6437.6611    11653.095    1930.1528 
  491500    300.47465   -1169.9469    6403.8358    11653.069    1945.0179 
  491600    298.30657   -1158.7335    6438.8508    11652.979    1882.3947 
  491700    300.84111   -1162.3866    6388.2556    11652.878    1962.8618 
  491800    299.79145   -1159.2183    6407.5357    11652.902    1970.9099 
  491900    299.17971   -1157.9068    6419.1413     11652.75    1865.2107 
  492000    300.05708   -1161.5835    6403.9735    11652.649    1825.4381 
  492100    295.56198   -1155.4582    6493.8256    11652.596    1864.8958 
  492200    296.35863   -1153.3456    6474.7062    11652.608    1838.6115 
  492300    298.57029    -1153.606    6427.6642    11652.554    1852.5179 
  492400    297.39008   -1153.2137    6452.5092    11652.578    1870.3824 
  492500    302.94252   -1148.4668    6329.0805    11652.516    1880.0342 
  492600    300.10278   -1151.9421    6393.2699    11652.563    1877.0398 
  492700    298.51663   -1151.9245    6427.2592    11652.684    1850.7095 
  492800    295.94244   -1154.7595    6485.0746    11652.671    1874.6177 
  492900    300.16472   -1159.3384    6399.4292    11652.649     1873.524 
  493000    298.33759   -1155.1629    6434.3096    11652.672    1909.2674 
  493100     299.8657   -1163.6394    6410.3219    11652.853    1835.8281 
  493200    295.53695   -1156.9991    6496.1768    11652.871    1818.8657 
  493300    303.20822    -1157.031    6332.3795    11652.927    1815.8607 
  493400      301.394   -1168.4467     6382.646     11653.02    1872.5705 
  493500    297.49812   -1163.0332    6460.5276    11653.085    1871.8676 
  493600    302.34368   -1169.1393    6363.1533    11653.123    1861.6061 
  493700    295.36008     -1167.99    6511.2955     11653.22    1928.7636 
  493800     300.4521   -1169.5463    6403.9932    11653.145    1957.0538 
  493900    300.64495   -1171.4835    6401.8607    11653.195    1898.3266 
  494000    296.04026   -1169.6015     6498.447    11653.291    1900.6677 
  494100    298.60584     -1176.38    6450.3932    11653.269    1911.1473 
  494200     301.9642   -1176.4184    6378.6948    11653.278    1904.0232 
  494300    299.97721   -1171.2825    6415.9495     11653.22      1880.56 
  494400     299.1159   -1180.4476    6443.4333    11653.138    1875.2954 
  494500    300.18669   -1165.2096    6405.3383    11653.157    1895.4396 
  494600    294.66289   -1171.7621    6529.8928    11653.151    1936.8282 
  494700    304.17956   -1172.3614    6327.0743    11653.043    1900.2546 
  494800    299.52692   -1170.4272    6424.4665    11652.972    1916.5875 
  494900    301.48545   -1164.5771    6376.6087    11652.806    1886.2722 
  495000    299.25113   -1161.0226    6420.7533    11652.772    1923.5192 
  495100    300.73612   -1161.5681    6389.6267    11652.824    1874.8663 
  495200    295.98316   -1159.8613     6489.342    11652.707    1852.3882 
  495300    302.23242   -1157.8404    6353.8766    11652.768    1843.9052 
  495400     295.9641   -1155.7665    6485.7118    11652.764    1921.6963 
  495500    300.52542   -1156.7345    6389.2273    11652.757    1880.2813 
  495600    298.12495   -1152.6786    6436.3467     11652.65    1857.6106 
  495700    300.62705   -1151.0741    6381.2795    11652.641    1818.6398 
  495800    296.59847   -1151.8159    6468.0356    11652.591    1938.7185 
  495900    301.59286   -1151.3885    6360.8364    11652.517    1950.9481 
  496000    296.89648   -1149.0682    6458.9643    11652.634     1929.385 
  496100    297.61848   -1152.5022    6446.9651    11652.625    1891.4013 
  496200    299.67705   -1154.8117     6405.367    11652.696    1913.2361 
  496300    296.07923   -1159.7139    6487.2681    11652.833    1949.8434 
  496400    302.22117   -1157.9895    6354.3176     11652.82    1896.2251 
  496500    297.32465   -1163.8634     6464.921    11652.943    1895.7446 
  496600    299.62642   -1167.6667    6419.5084      11652.9    1823.9593 
  496700    298.32497   -1163.0211    6442.7631    11652.997    1851.9623 
  496800    301.42923   -1168.3417    6381.8407    11653.072    1930.4562 
  496900    302.52469   -1169.0731    6359.1846    11653.087    1938.5777 
  497000    297.62219   -1161.6959     6456.563    11653.109     1956.092 
  497100    300.03957   -1170.0123    6413.2523    11653.125    1890.1268 
  497200    297.05032   -1168.4591    6475.6227    11653.188    1907.0803 
  497300    299.91392   -1173.6965    6419.7364    11653.241    1936.8225 
  497400    299.43352   -1178.3693    6434.7577    11653.326    1943.1311 
  497500    301.00167   -1175.6939     6398.525     11653.27    1917.2123 
  497600    300.88361   -1170.1719    6395.5309    11653.276     1892.394 
  497700     301.9336   -1170.4026     6373.355    11653.301    1915.9522 
  497800    299.07965    -1178.005    6441.8517    11653.225    1960.7529 
  497900    297.41214   -1175.6655    6475.0549    11653.143    1909.8093 
  498000     300.9935   -1168.4744    6391.3554    11653.145    1864.7502 
  498100    300.99381   -1167.1215    6389.9587    11653.108    1901.3303 
  498200    298.52154   -1164.6336    6440.2567    11653.078    1932.0471 
  498300     300.7346   -1168.7406    6396.9176     11652.91    1830.3736 
  498400    299.75408   -1166.8752    6415.9668    11652.877    1865.0974 
  498500    299.91647    -1166.281    6411.9074    11652.882    1855.5585 
  498600    300.59187   -1159.6753    6390.7989    11652.808    1821.5241 
  498700    297.63864   -1156.0639    6450.2272    11652.756    1899.6781 
  498800    298.50991   -1157.0554     6432.635    11652.786    1996.8069 
  498900    297.40454   -1151.2405     6450.358    11652.709    1930.0236 
  499000    300.68336   -1154.1696    6383.2042    11652.673    1856.0461 
  499100    298.53352    -1153.981    6428.9735    11652.703    1843.3863 
  499200    298.28448   -1152.4137    6432.7046    11652.681    1829.0019 
  499300    295.60912   -1154.5005     6491.928    11652.663    1799.6675 
  499400    301.08074   -1155.4302    6375.9578    11652.656    1833.7277 
  499500    300.15553   -1158.0108    6398.3526    11652.704    1800.7256 
  499600    299.93482   -1161.4446     6406.474    11652.677    1793.5099 
  499700    300.23485    -1156.477    6395.2234    11652.803    1915.9617 
  499800    299.23012   -1156.5714    6416.8049    11652.826     1886.805 
  499900    301.74103   -1156.3521    6363.0291    11652.911    1846.1395 
  500000    299.98285   -1163.0619    6407.3872    11652.999    1944.2652 
  500100    301.90101   -1159.2769    6362.5799    11652.955    1914.6634 
  500200    300.86791   -1157.9535    6383.4081    11653.036    1836.7332 
  500300    297.90914   -1168.5211    6457.2412    11653.092    1813.6058 
  500400     301.9017   -1168.8739    6372.3912    11653.184     1885.466 
  500500     299.2071   -1172.2187    6433.2669    11653.149    1846.4247 
  500600    299.21143    -1173.765    6434.7144    11653.143    1892.3235 
  500700    299.00151   -1166.8995    6432.3727    11653.182    1861.4816 
  500800    300.42835   -1173.1694    6408.0788      11653.1    1825.3138 
  500900    299.54759   -1175.5774    6429.3849    11653.182    1890.9661 
  501000    301.56133   -1172.3024    6383.0752    11653.168    1979.0655 
  501100    299.69906   -1165.8352    6416.3407    11653.116     1908.267 
  501200    298.52553   -1164.3428    6439.9596    11653.157    1935.7143 
  501300    304.22738   -1164.9616    6318.7197    11653.109     1857.998 
  501400    300.10778   -1171.4419    6413.1255    11653.026    1885.5971 
  501500    299.60487   -1174.5629    6427.0069    11653.042    1915.9536 
  501600    298.42488   -1171.9551    6449.6096    11653.044    1900.7038 
  501700     296.3915   -1165.4224     6486.468    11652.995    1927.8598 
  501800    299.99883   -1163.4559    6407.3485    11652.907    1867.5751 
  501900    297.66538   -1165.3607    6459.0518    11652.855    1873.2223 
  502000    300.06909   -1162.3597    6404.6405    11652.796    1791.8298 
  502100     296.4526   -1154.5799    6474.1306    11652.806    1779.7555 
  502200    300.86536   -1156.2363    6381.4453    11652.736    1799.7901 
  502300    297.32537   -1158.8077    6459.6529    11652.746      1823.26 
  502400     301.6357   -1158.9269    6367.7507    11652.808    1849.9289 
  502500    298.14355    -1161.583    6444.9523    11652.749    1850.6367 
  502600    297.95443   -1157.4252    6444.8277    11652.742    1817.9728 
  502700    299.33418   -1155.8485    6413.8366    11652.804     1894.518 
  502800    298.12486   -1149.1233    6432.9021    11652.759    1842.6149 
  502900    300.00299   -1154.1072    6397.7773    11652.774    1803.8608 
  503000    298.01024   -1160.9063    6447.1298    11652.755    1849.9754 
  503100    301.66023   -1155.3131    6363.6005    11652.795    1804.2502 
  503200    299.07293   -1164.5852    6428.2394    11652.888     1862.442 
  503300    300.94106   -1164.1786    6387.9076    11652.873    1818.7219 
  503400    299.57301   -1168.6963      6421.73    11652.951    1868.7884 
  503500    300.20065   -1170.3334    6410.0915    11653.084    1851.2588 
  503600    299.44065   -1159.2701    6415.1825    11653.002    1830.4986 
  503700    299.49863   -1163.9553     6418.667     11653.04    1887.4349 
  503800    302.15909   -1156.8455     6354.731    11653.051    1853.9452 
  503900    297.30986   -1169.0644    6470.5486    11653.053    1933.4178 
  504000    297.00946   -1167.5182    6475.5109    11653.144    1944.0042 
  504100    303.17589    -1171.803     6348.052    11653.137    1908.6963 
  504200    296.03657   -1172.1233    6500.9147    11653.158    1930.8916 
  504300    301.14868   -1170.7925    6390.3371    11653.124    1905.7111 
  504400    294.53651   -1169.5223    6530.2648    11653.063    1914.5038 
  504500    302.32893   -1166.8634    6361.1173    11653.048    1875.9305 
  504600    296.84029   -1165.2414    6476.8734    11653.169    1956.8745 
  504700    301.39329   -1166.8873     6381.122     11653.04     1897.989 
  504800    300.05242    -1165.144    6407.9981    11653.014    1855.9139 
  504900    300.76593   -1168.8023      6396.45     11653.05    1895.8943 
  505000    299.51132   -1161.1215    6415.5922     11653.07     1929.554 
  505100    303.12164   -1166.4149    6343.6337    11652.947    1849.7189 
  505200    300.55433   -1162.5516    6394.6178    11652.948    1882.3653 
  505300    298.92872     -1163.01    6429.7947    11652.938    1944.8932 
  505400    300.54009   -1161.5185    6393.8465    11652.906     1907.254 
  505500    298.61255    -1162.008    6435.4497    11652.841    1894.2999 
  505600    297.90556    -1158.198    6446.7211    11652.818    1895.4425 
  505700    301.22308   -1153.7846    6371.3767    11652.761    1842.1321 
  505800    296.21089   -1155.2698    6479.9156    11652.737    1867.0733 
  505900    301.56375   -1149.6438    6359.9303    11652.733    1859.2096 
  506000    295.62365   -1160.4736    6497.7216    11652.794    1913.8281 
  506100    299.48262   -1161.8332    6416.6637    11652.817    1832.8416 
  506200    302.58855   -1162.3503    6350.8001     11652.79      1836.19 
  506300     299.6309   -1165.1801     6416.782    11652.756    1914.8775 
  506400    299.62417   -1163.8862    6415.6606    11652.785    1837.5383 
  506500    298.25007   -1163.7875    6444.9835    11652.851    1896.6249 
  506600    299.86328   -1161.0742    6407.8285    11652.873    1956.9359 
  506700    297.49839    -1156.919    6454.0744    11652.752    1945.0149 
  506800    300.67204   -1160.3131     6389.735    11652.819    1930.4337 
  506900    301.40908   -1159.8973    6373.6986    11652.944    1893.8507 
  507000     298.7992   -1161.7849    6431.3537    11652.955      1886.16 
  507100    299.11154   -1170.3875    6433.2703    11652.942    1899.8255 
  507200    300.74541   -1170.0937    6398.1528    11653.023    1854.6759 
  507300    299.65784   -1170.7418    6422.1253    11653.113     1855.763 
  507400    300.42772   -1176.4708    6411.3653    11653.072    1835.5198 
  507500    298.62563   -1163.5985    6437.0546    11653.135    1785.8566 
  507600    301.39689    -1166.041     6380.216    11653.057    1855.8527 
  507700    296.78556   -1165.1708    6477.9481    11653.145    1955.2744 
  507800    304.82775   -1163.4222    6304.2897    11653.045    1861.7596 
  507900    296.30117   -1168.9963    6492.0407    11653.064    1862.8049 
  508000    301.12043   -1165.6863    6385.7413    11653.031    1839.2498 
  508100    297.85912   -1171.0921    6460.8976    11653.108    1819.4383 
  508200    296.50854   -1171.8805    6490.5261    11653.096    1857.8808 
  508300    303.85278   -1169.9845    6331.7444    11653.108    1906.0226 
  508400    297.54585   -1167.5862    6464.0313    11653.056     1859.611 
  508500    297.70313   -1165.8593    6458.9445    11653.056     1833.617 
  508600    299.96463   -1159.7682     6404.417    11652.933     1944.529 
  508700     299.9736   -1158.0699    6402.4166    11652.822     1902.138 
  508800    299.79868   -1162.8942    6411.0816    11652.926    1833.6404 
  508900    300.09448   -1155.0655    6396.9387    11652.931    1813.7443 
  509000    299.28749   -1165.0719    6424.2122    11652.958    1935.0064 
  509100     298.2865   -1159.0794    6439.5652    11652.919    1827.4587 
  509200      300.692   -1162.6713    6391.7927    11652.945    1874.6239 
  509300    298.66505   -1164.6987    6437.1553    11652.977    1903.4454 
  509400     301.1965   -1161.5859    6379.8442    11652.859    1829.1201 
  509500    296.82684    -1160.451    6472.0923    11652.891    1949.6139 
  509600    301.10694   -1160.3298     6380.517    11652.875     1929.297 
  509700     299.7683   -1159.2612    6407.9208     11652.75    1875.8823 
  509800    300.49232   -1156.5493    6389.8116     11652.82    1914.5286 
  509900    301.78026   -1161.9122    6367.6367    11652.797    1903.2522 
  510000    299.31738   -1160.0986    6418.5533    11652.911    1833.2087 
  510100    298.47446   -1163.2099    6439.7279    11652.967    1885.6089 
  510200    305.00624   -1162.2535    6299.1757    11652.913     1888.655 
  510300    296.61162   -1166.4665     6482.869    11653.055    1862.7102 
  510400    300.17671   -1164.8571    6405.0572    11653.015    1856.5498 
  510500    300.09298   -1164.0175    6405.9841    11652.993    1894.5306 
  510600    299.95191   -1170.3099    6415.2756    11652.978    1860.7329 
  510700    303.25114   -1171.8775    6346.3272    11652.945    1846.4123 
  510800    297.65924   -1169.3493    6463.3441    11653.028    1905.1224 
  510900    298.65744   -1169.1231    6441.8155     11653.05    1874.0892 
  511000    300.45594   -1169.1945    6403.4727    11653.058     1876.654 
  511100    299.81223   -1165.3532    6413.4859    11653.161    1910.4372 
  511200    298.84673   -1167.6214    6436.2345    11653.015    1832.1042 
  511300    300.19465   -1170.9609    6410.8828     11653.12    1807.2999 
  511400    303.51969   -1175.0111    6343.8756    11653.097    1826.2352 
  511500    298.40824   -1165.0667    6443.1769    11653.144    1879.9954 
  511600    300.74956   -1168.6615    6396.6872    11653.079    1821.5766 
  511700    299.79888   -1169.4237    6417.6856    11653.005    1886.9075 
  511800    301.06221   -1164.4738    6385.7475    11653.006     1891.973 
  511900    300.97167   -1163.5059    6386.7393    11653.031     1918.253 
  512000    300.33595   -1163.5016    6400.3055    11653.021    1943.5351 
  512100    297.44508   -1163.7233     6462.273    11653.007      1908.77 
  512200    300.42963   -1167.3561    6402.0997    11652.962    1866.8877 
  512300    300.34858   -1169.9489    6406.4663    11653.004    1869.3217 
  512400     299.7716   -1164.6351    6413.4429    11652.968     1869.974 
  512500    299.75308   -1166.0584    6415.2025    11652.909    1848.6124 
  512600    295.80415   -1161.9146    6495.3585    11652.846    1896.0057 
  512700    301.62394   -1160.1722    6369.2757    11652.836    1873.5172 
  512800     297.1819   -1158.6837    6462.7432    11652.895    1891.4898 
  512900     299.5353   -1164.6225    6418.4142    11652.904    1921.3022 
  513000     300.5055   -1163.0883    6396.1477    11652.898    1895.7316 
  513100    299.57716   -1160.4788    6413.4333    11652.961    1903.9142 
  513200    301.42299   -1165.2144    6378.7116    11652.937    1882.0586 
  513300    300.49391   -1165.9038    6399.2044    11652.892    1880.8788 
  513400    297.83141   -1165.1221    6455.3211     11652.91    1880.6482 
  513500    300.02028   -1170.2055    6413.7292    11652.997    1924.7877 
  513600    303.29653   -1166.2647    6339.7559    11652.956    1863.6849 
  513700    296.63541   -1161.0923    6476.8842    11652.952    1922.7852 
  513800    300.00795   -1158.5301     6402.272    11652.951    1887.7676 
  513900    298.92251   -1166.7354    6433.7301    11653.016    1912.2959 
  514000    303.16471   -1165.8095    6342.1306     11652.97    1861.0826 
  514100    298.89938   -1169.2804    6436.8229    11653.069    1909.0135 
  514200    298.06533   -1171.8343    6457.2666    11653.141     1879.601 
  514300    298.58456    -1173.197    6447.5467    11653.151    1889.1696 
  514400    301.14536   -1172.9469    6392.5706    11653.132    1864.3425 
  514500    297.89911   -1164.1913    6453.1466    11653.113    1905.2986 
  514600    301.50845   -1163.9161    6375.7476    11653.097    1892.1804 
  514700    301.13605   -1164.9905    6384.7292    11653.048    1890.6654 
  514800    301.15304   -1165.7157    6385.1189    11653.076    1951.1424 
  514900    300.28602   -1170.0851    6407.9611    11653.026    1924.3671 
  515000    300.23676   -1165.7154    6404.6705    11653.053     1959.254 
  515100     299.1863   -1170.5057    6431.8768    11653.027    1950.7082 
  515200    302.87866   -1170.4681    6353.0263    11653.096    1878.7994 
  515300    300.12787   -1168.4021     6409.729    11653.098    1814.0061 
  515400    299.32708   -1168.0975    6426.4995    11653.066    1861.9597 
  515500      302.648   -1169.4076      6356.83    11653.033    1888.8237 
  515600     296.6967   -1161.1323    6475.6863    11653.024    1851.9845 
  515700    299.53078   -1162.8583    6416.8296    11652.987    1881.5976 
  515800    298.66717   -1160.3733    6432.8121    11653.005    1931.1277 
  515900    299.31065    -1160.641    6419.2998    11652.971    1910.5407 
  516000    299.05898    -1160.374    6424.3527    11652.915    1897.6075 
  516100    297.19848   -1163.8212    6467.5823    11652.951    1866.4214 
  516200    299.77358   -1162.6533    6411.3983    11652.948    1845.0802 
  516300     299.7069   -1166.5747    6416.7255    11652.929    1797.3095 
  516400    300.99894   -1161.7542     6384.284     11652.91    1817.9627 
  516500    299.68761   -1164.9817    6415.4268    11652.811    1853.1561 
  516600    298.20255   -1162.1729    6444.2634     11652.73    1871.5577 
  516700    299.35796    -1157.454    6415.0313    11652.901    1909.7464 
  516800    298.79811   -1158.8366     6428.376    11652.903    1923.2453 
  516900    299.27501   -1157.6516    6416.9382    11652.838     1894.577 
  517000    301.13858   -1159.6079    6379.0694    11652.825    1813.9768 
  517100    297.82072   -1161.8569    6452.3876    11653.013    1881.8648 
  517200    300.55831   -1162.0499    6394.0431     11652.96    1855.0212 
  517300    298.60027   -1164.3501    6438.1704    11652.957    1801.5064 
  517400    297.77323   -1164.9196    6456.3964    11652.945    1880.3096 
  517500     300.4016   -1164.6125    6399.9599    11652.967    1942.5007 
  517600    300.79429   -1163.0288    6389.9783    11652.958    1887.5213 
  517700    299.47933   -1169.4193    6424.5952    11653.092    1869.0049 
  517800    299.84113   -1165.6174     6412.988    11653.016    1855.5779 
  517900    298.45031   -1168.3517    6445.4596    11653.041    1935.7934 
  518000    302.36323   -1164.9292    6358.5223     11653.12    1883.7563 
  518100    297.50401   -1170.8995    6468.2406    11653.058    1918.4035 
  518200     299.4655   -1169.8081    6425.2734    11653.086    1876.2166 
  518300    302.08644   -1169.0375    6368.4997    11653.075     1914.445 
  518400    299.96787    -1165.025    6409.8085    11653.137    1942.2126 
  518500    301.70191   -1174.7968    6382.5505    11653.152    1904.5952 
  518600    297.73031   -1172.9929    6465.5811    11653.139    1942.8303 
  518700     303.6603   -1166.4275    6332.2202    11653.029    1902.7223 
  518800     298.8536   -1167.4305    6435.9799    11653.098     1952.122 
  518900     300.5388   -1170.9209    6403.4913    11653.121    1931.4522 
  519000    296.37834   -1166.8519    6488.2985    11653.115    1895.0888 
  519100     300.7965   -1167.3961    6394.3811    11653.041    1910.9992 
  519200     303.1425   -1169.8181    6346.7285    11653.085     1904.666 
  519300     297.0785   -1167.6079     6474.036    11653.054    1872.7375 
  519400    303.83066   -1169.7747    6331.9272    11653.028    1861.7018 
  519500    295.14184   -1163.9985     6511.853    11653.107    2022.3058 
  519600    299.44735   -1168.6305    6424.3609    11652.964    1921.5591 
  519700    299.73206   -1161.8301     6411.468    11652.954    1878.9418 
  519800    301.12408   -1165.1575    6385.1724    11653.069    1893.8203 
  519900    298.08541   -1163.4516     6448.244     11652.93    1879.8822 
  520000    301.41658   -1159.9715    6373.5111    11652.842    1838.0933 
  520100    298.53147   -1163.2157     6438.443    11652.894    1860.7993 
  520200    299.99775   -1164.2719    6408.2427    11652.962    1870.4107 
  520300    298.87262   -1159.7976    6427.6921    11652.849     1829.678 
  520400    300.38018   -1157.5845    6393.2959    11652.873    1847.7461 
  520500    296.69013   -1160.5714    6475.1997    11652.958    1935.9165 
  520600    300.53839   -1160.0507    6392.4176    11652.908    1856.5669 
  520700    300.85642   -1165.2314    6390.7568    11652.861     1882.733 
  520800    296.86034   -1163.3951    6474.3484    11652.919    1899.4213 
  520900    301.16227   -1167.9267    6386.9666     11652.91    1918.5492 
  521000    300.84456   -1161.9788    6387.7974    11652.901    1847.4218 
  521100    296.80446   -1158.9187    6470.9747    11652.828    1834.1925 
  521200    296.30311   -1163.3346    6486.2019    11652.929    1910.3244 
  521300     302.0833   -1164.2208    6363.5578    11652.883    1899.0911 
  521400    301.32617     -1165.41     6380.942    11652.903    1868.2722 
  521500    296.20143   -1165.3276    6490.3839    11652.945    1917.8221 
  521600    304.40667   -1168.0229    6317.8518     11653.01     1851.694 
  521700     298.0253   -1166.9743    6453.2207      11653.1    1917.7169 
  521800    296.27456   -1167.8905    6491.4968    11653.058     1954.928 
  521900    298.32567     -1164.77    6444.5298     11653.03    2031.5557 
  522000    300.74981   -1166.3126    6394.1939    11652.939    1869.7524 
  522100    297.58124   -1165.6408    6461.3606    11653.086    1849.1709 
  522200    295.12486   -1170.9043    6519.0876    11653.073    1914.0723 
  522300    302.32541   -1166.1794    6360.4218    11652.961    1845.7707 
  522400     299.6606   -1168.2805    6419.4984    11653.007    1856.7542 
  522500    298.09168   -1168.5166    6453.2888    11653.043    1848.6378 
  522600    299.41194   -1166.4172     6422.876    11652.935    1809.9815 
  522700    299.22853   -1165.9213    6426.3776    11653.015    1855.2546 
  522800    302.61753   -1168.7765    6356.8385    11653.021    1939.7911 
  522900    298.87317   -1167.1079    6435.1318    11652.991    1923.8504 
  523000    298.97321   -1166.4295    6432.2291    11652.904    1922.0831 
  523100    303.34644   -1158.7997    6331.1356    11652.867    1893.3776 
  523200    297.61917   -1163.1732    6457.8686    11652.872    1866.4054 
  523300    301.12775   -1167.9316    6387.7373    11652.938    1841.4537 
  523400    299.82972   -1161.2599    6408.8171    11652.959    1909.4948 
  523500    300.75276   -1164.4416    6392.2209    11652.901    1887.5873 
  523600    296.43623   -1164.7022    6484.7358    11652.939    1916.2235 
  523700    302.70605   -1162.9857     6349.084    11652.949    1973.6948 
  523800    297.50264   -1164.3768      6461.64    11652.951    2004.6951 
  523900    300.24364   -1159.1613    6397.8595    11652.943    1908.1909 
  524000    294.68946   -1165.4034    6522.7622    11652.947    1943.3794 
  524100    302.11203   -1167.8125    6366.5238    11652.871    1878.2822 
  524200    300.58401   -1167.8783    6399.3278    11652.966    1871.4294 
  524300    297.71101   -1169.1516    6462.0304    11653.018    1964.8669 
  524400    299.35627   -1172.1917    6429.9343     11653.03    1957.8649 
  524500    301.46445   -1161.5676     6374.239    11652.997    1897.0911 
  524600    300.05714   -1164.4792     6407.223    11653.004    1994.6326 
  524700    297.31302   -1168.3277    6469.5867    11652.895    1956.8967 
  524800    299.59852   -1164.1479    6416.5669    11652.882    1888.0664 
  524900    300.56761   -1168.9992    6400.8024    11652.969    1903.9445 
  525000    295.81504   -1170.6667    6504.1429    11653.111    1931.6422 
  525100    300.25256   -1169.7368    6408.3533    11653.052     1872.149 
  525200    300.03203   -1172.8277    6416.1051    11653.001    1882.4899 
  525300    299.44937   -1172.2863    6428.0537    11653.044    1856.7637 
  525400    300.53891   -1165.3372    6397.8514    11653.067    1821.1531 
  525500    299.47186   -1175.8579    6431.0965    11652.995    1855.2847 
  525600    300.16843   -1165.4734    6405.8397    11653.004    1807.0136 
  525700    298.83807   -1164.6754    6433.5089     11653.05    1861.1113 
  525800    301.02081   -1163.5757    6385.7246    11652.997    1894.4973 
  525900    298.31347    -1165.091    6445.0456    11652.964    1870.6577 
  526000    297.96913   -1158.9932    6446.3065    11652.966    1871.0398 
  526100    304.61465   -1166.0207     6311.252    11652.856    1839.0378 
  526200    296.09682    -1160.935    6488.1749    11652.894    1818.2406 
  526300    301.60841   -1167.5057    6377.0413    11652.937    1822.4248 
  526400    297.99765   -1166.8522    6453.5344    11652.945    1912.8748 
  526500    300.77468   -1160.6076    6387.9421    11652.924    1821.5977 
  526600    297.74414   -1162.2022    6454.1723    11652.817    1866.9718 
  526700    298.94409   -1160.5276    6426.8616    11652.816    1858.4262 
  526800    299.30586   -1162.8614    6421.4135    11652.763     1894.622 
  526900    299.40653   -1157.1062    6413.5502    11652.805     1896.296 
  527000    299.34975   -1158.6835    6416.3373    11652.802    1884.9815 
  527100    300.10274   -1157.6189    6399.1844      11652.8     1887.392 
  527200    299.69888   -1159.4663    6409.7241    11652.865    1865.7556 
  527300    299.11263   -1163.7592    6426.5426    11652.866    1848.0896 
  527400    300.35635   -1163.2622    6399.4706    11652.861    1828.3124 
  527500    301.08482   -1161.0998    6381.7339    11652.849    1824.7613 
  527600     296.1956   -1164.7896     6489.967    11652.942    1896.6464 
  527700    299.29961   -1167.8517    6426.7937    11653.019    1898.9316 
  527800    298.97688   -1166.8698    6432.6545    11652.967    1920.5856 
  527900    303.95457   -1161.5842    6321.0197    11652.958    1840.9783 
  528000    298.23984   -1166.1124    6447.6473    11652.971    1933.0563 
  528100    298.31085   -1168.5243    6448.6089    11653.038    1876.2945 
  528200    299.73652   -1171.5218    6421.1647    11653.054    1832.3482 
  528300    301.97486    -1166.568    6368.3585     11653.02    1862.2577 
  528400    300.64625   -1171.1726    6401.4322    11653.105     1900.161 
  528500    299.41018   -1171.8325     6428.493      11653.1    1875.6265 
  528600    300.76797   -1167.4166    6395.0386    11653.068    1897.0356 
  528700    296.56617   -1163.3149    6480.7155    11653.082    1919.1803 
  528800    300.73351   -1168.7629    6397.0824    11653.029    1881.2746 
  528900    300.69062   -1158.2861    6387.5521     11653.06    1860.0635 
  529000    300.04204   -1170.1706    6413.2595    11653.027    1877.9114 
  529100    301.18484   -1170.7831    6389.4436    11653.013    1832.5057 
  529200    295.44102   -1167.3155    6508.7662    11653.095    1868.6013 
  529300    304.70976   -1169.5039    6312.8016    11652.954    1801.8667 
  529400    297.74382   -1165.7292    6457.8241    11652.935    1903.3689 
  529500    298.60929   -1166.4005    6439.9633    11652.892    1872.6157 
  529600    302.66909   -1165.7407    6352.6307    11652.951    1919.4907 
  529700    295.23944   -1163.0703    6508.5602    11652.827    1953.1419 
  529800     301.5625   -1158.3145    6368.6899    11652.796    1901.2685 
  529900    297.01185   -1161.3145    6469.0318     11652.92    1959.9615 
  530000    301.13178   -1165.0579    6384.6954    11652.856    1860.2593 
  530100    299.04554   -1160.3235    6424.5118    11652.837    1920.1455 
  530200    299.45392   -1162.9837    6418.5232    11652.913    1949.4723 
  530300    299.35562   -1165.0992    6422.7149    11652.889    1889.1279 
  530400    295.23131   -1162.7888    6508.6232    11652.998    1908.0418 
  530500    301.80547   -1163.6352    6368.9805    11652.956    1894.3601 
  530600    298.92114   -1165.1837    6432.1834    11652.991    1878.8315 
  530700    300.60401   -1165.5592    6396.5379    11652.922    1877.2864 
  530800     298.0118   -1158.5974    6444.9701    11652.938    1949.0988 
  530900     299.1307   -1161.9902     6424.436    11652.914    1952.5482 
  531000    303.37066   -1161.9677    6333.9623    11653.043    1890.4146 
  531100     295.9926   -1160.9695    6490.5972    11653.056     1945.609 
  531200     303.8184   -1171.4743    6333.8436    11652.983    1892.6597 
  531300    296.96953    -1167.129    6475.9854    11653.155    1789.4849 
  531400    300.18996   -1179.8609    6419.8803    11653.117    1787.9352 
  531500    298.84017   -1170.8963    6439.8033    11653.169    1904.3122 
  531600    299.40422   -1172.1107    6428.8719    11653.073    1887.2514 
  531700    301.15739   -1167.3469    6386.6674    11653.086    1947.3036 
  531800    297.80533   -1164.7432      6455.66    11653.071    1977.6569 
  531900    300.29249   -1163.2732    6400.9477    11652.963    1992.4234 
  532000    297.29532   -1163.9526    6465.6431    11652.949    2006.9309 
  532100     299.1784   -1167.7901    6429.3267    11653.024    1941.4415 
  532200    301.26229   -1167.5371    6384.5644    11653.034    1901.9731 
  532300     298.5922    -1175.716    6449.7702    11653.018    1900.3254 
  532400    301.42887   -1169.1678    6382.5786    11652.976    1861.5525 
  532500    299.26246   -1168.4429    6428.0962    11652.937    1846.1376 
  532600    299.70348   -1168.6886    6419.0115    11653.028    1814.4913 
  532700    298.65699   -1162.4882    6434.9727    11652.833    1890.8324 
  532800    304.37537   -1161.6792    6311.9685    11652.802    1923.1769 
  532900    297.12573   -1155.7394    6460.9575    11652.853    1950.2853 
  533000    302.45001   -1159.4743    6350.8531    11652.759    1897.6835 
  533100    295.51565   -1160.1218    6499.6806    11652.797    1909.4122 
  533200    300.90352   -1162.5223    6386.9852    11652.805    1828.2454 
  533300    300.12953   -1162.8982    6403.9564    11652.865    1825.1054 
  533400    299.89665   -1167.5009     6413.502    11652.833    1841.2006 
  533500    298.69814   -1162.0064     6433.554    11652.775    1821.9747 
  533600    300.54804   -1163.6536    6395.6788    11652.773    1856.0439 
  533700    301.73561   -1163.7207    6370.4277    11652.825    1925.5939 
  533800    297.61635   -1153.9294    6448.5951    11652.782    1881.6404 
  533900     299.4859   -1157.2131    6411.8528    11652.696    1846.9081 
  534000    299.83215   -1158.2259    6405.6657    11652.894     1923.645 
  534100    300.00788   -1165.2845    6409.0078    11652.931    1898.6053 
  534200    295.89347   -1159.1029    6490.8171    11653.024    1852.7155 
  534300    301.63841   -1163.0725    6372.0204     11652.99    1792.7705 
  534400    299.66044     -1167.86    6419.1132    11653.039    1818.8313 
  534500    299.28684   -1166.5064    6425.6745    11652.972    1798.3381 
  534600    301.16443   -1164.9079    6383.9999    11653.008    1786.8374 
  534700    298.69711    -1161.296    6433.1143    11653.024    1862.1302 
  534800    303.12267   -1166.9956    6344.2786    11653.034    1825.9521 
  534900    297.55889   -1166.1183    6462.2904    11653.061    1821.1481 
  535000    297.19407   -1164.9942    6468.9472    11653.048     1871.545 
  535100    300.41157    -1169.509    6404.7176    11653.041    1909.3664 
  535200    300.35056   -1162.5109    6399.0491    11653.067    1864.1384 
  535300    298.67893   -1165.9471    6438.1491    11653.019    1821.4099 
  535400    299.41976   -1165.2036     6421.547    11652.987    1901.9962 
  535500    304.65055   -1163.1888    6307.7695    11652.972    1885.5369 
  535600    294.90378   -1158.4411    6511.1976    11652.923    1843.5676 
  535700    303.15175   -1162.8807    6339.4076    11652.899    1860.9154 
  535800    301.19272   -1163.9637    6382.2537     11652.81    1851.3337 
  535900    299.70918   -1158.8651    6408.9646    11652.926    1851.3454 
  536000    299.82063   -1162.7941    6410.4578    11652.871    1903.0042 
  536100    297.63709   -1161.3199    6455.6643    11652.904    1918.3582 
  536200    298.24968   -1165.4407    6446.7399    11652.946      1899.07 
  536300    298.95386   -1170.1398    6436.4223    11652.973    1922.4204 
  536400    300.02155   -1162.8817    6406.2006    11652.819    1900.1119 
  536500    299.97358   -1158.9024    6403.2513    11652.824    1917.8156 
  536600    297.28006   -1161.4631    6463.3803     11652.85    1907.0509 
  536700    297.54967   -1163.5398    6459.8463    11652.999    1891.3774 
  536800    301.70976   -1162.8478    6370.1832    11652.901     1857.283 
  536900    300.92917   -1161.3241    6385.2842     11652.85    1783.8445 
  537000    296.73575     -1166.55    6480.1929    11652.947    1840.1574 
  537100    302.52672   -1168.9289    6358.9163    11653.007    1802.0269 
  537200    300.06705   -1166.7659    6409.1944    11652.901    1806.5665 
  537300    299.65828   -1166.0633    6417.2278    11652.904    1818.0032 
  537400    299.10154   -1165.0051    6428.2178    11653.058    1853.9047 
  537500    299.21956   -1163.5856    6424.3154    11653.097    1897.6966 
  537600    301.90752   -1167.4993    6370.7184     11653.01    1913.5931 
  537700    302.31123   -1164.0396    6358.6287    11653.005    1925.9806 
  537800    297.66816   -1165.5953    6459.4163    11653.045    1903.2678 
  537900    299.73573    -1171.947    6421.6559    11653.103    1894.3415 
  538000    301.68318   -1174.2256    6382.4234    11653.196    1859.4744 
  538100    298.64179   -1164.7121     6437.736    11653.047    1819.6711 
  538200    301.61922    -1170.553    6380.0017     11653.08    1803.1748 
  538300    299.17285   -1166.9697    6428.7023    11653.102    1820.6556 
  538400    300.93671   -1163.9795    6387.9361    11653.008    1849.4415 
  538500    300.07329    -1169.535    6411.8984    11652.969    1845.1455 
  538600    301.53644   -1164.7972    6375.9147    11652.981    1919.1131 
  538700    298.07925   -1163.6777    6448.6321     11652.96    1869.9327 
  538800    297.90817   -1167.9884    6456.6059    11652.968    1866.8775 
  538900    299.56403   -1163.6017    6416.8425    11652.967    1899.8648 
  539000    296.84833   -1163.1702    6474.4287    11652.968    1884.1045 
  539100    301.58666   -1163.9489    6373.9131      11652.9    1881.6521 
  539200    299.27069   -1163.2081    6422.6594     11652.91    1926.8598 
  539300    296.22516   -1161.1121    6485.5707    11652.855    1863.9097 
  539400    298.73001   -1160.5099    6431.4058    11652.804    1830.8762 
  539500    301.54015   -1160.6073    6371.4863    11652.822    1895.6172 
  539600    298.18947   -1159.3095    6441.7264    11652.777    1893.9043 
  539700    302.57637   -1159.1676    6347.7978     11652.71    1836.1975 
  539800    298.44338   -1155.9171    6432.9181    11652.786    1895.9554 
  539900      299.169   -1154.4276    6415.9332    11652.792    1891.5175 
  540000     295.9268   -1156.7786    6487.5518    11652.795    1903.0966 
  540100    301.50406   -1159.6605    6371.2639    11652.775    1905.3906 
  540200    298.23377   -1164.7429    6446.2478    11652.812    1827.2487 
  540300    298.11806    -1162.288    6446.3281    11652.875    1782.3191 
  540400    295.27491   -1162.2862    6507.1886    11652.998    1838.7998 
  540500     300.1735   -1165.4435    6405.6138    11652.917    1865.3715 
  540600    301.97758   -1160.2278    6361.8594    11652.919    1845.9634 
  540700    299.79266   -1163.2814    6411.6014     11652.93    1879.2816 
  540800    298.13983   -1159.5484    6443.1083     11652.86    1912.9433 
  540900    303.33112   -1162.8421    6335.4813    11652.843    1857.7003 
  541000    297.06896   -1160.4834    6467.0036    11652.943    1868.9482 
  541100    298.44148   -1161.5298    6438.7304    11652.945    1826.7505 
  541200    300.36764   -1165.7435     6401.829    11652.979    1862.1232 
  541300    299.72637   -1175.0467    6424.8862    11653.034    1853.0228 
  541400    300.55058   -1168.8004    6401.0985      11653.1    1906.0635 
  541500    301.65938   -1172.0598    6380.5591    11652.989    1864.6894 
  541600    299.00698   -1168.1548    6433.3631    11653.034      1868.95 
  541700    303.43865   -1166.2355    6336.7992    11653.065    1825.4699 
  541800    296.14483   -1168.3051    6494.6396    11653.014    1860.9766 
  541900    300.47913   -1164.4042    6398.1577    11653.029    1874.8775 
  542000    301.76369   -1158.0664    6364.2853    11652.937    1891.7792 
  542100    297.53214   -1153.1163    6449.7729    11652.974    1924.0654 
  542200     300.2405   -1159.2524    6398.0544     11652.98     1889.058 
  542300    303.85544   -1162.4697    6324.0599    11652.996     1863.472 
  542400    299.90336   -1158.4915    6404.4989    11652.982    1824.0524 
  542500    296.37614   -1168.1246    6489.4607    11652.958    1850.5427 
  542600    302.28987   -1169.6059    6364.5932    11652.946    1754.2053 
  542700    300.06396   -1163.0859    6405.4959    11652.816    1770.3843 
  542800    295.95055   -1161.0241    6491.3599    11652.865    1831.9026 
  542900    301.65399   -1156.3587    6364.8127    11652.829    1841.8301 
  543000    301.17232   -1152.2842    6370.9829    11652.783    1926.3415 
  543100    300.92436   -1154.9695    6378.9503    11652.768    1881.4039 
  543200    297.96233   -1157.6992    6444.9339    11652.743    1845.7816 
  543300    301.66465     -1160.11    6368.2609    11652.753    1833.7283 
  543400    299.49649   -1168.7491    6423.3036    11652.837    1890.5705 
  543500    298.89654   -1163.0704    6430.3791    11652.775    1894.8726 
  543600    296.64739   -1159.2981    6474.7001    11652.818    1928.4042 
  543700    299.92457   -1163.8237    6409.2081    11652.813    1874.6839 
  543800    294.95708   -1158.7502    6510.3083    11652.864    1869.4306 
  543900    301.19439   -1159.3357    6377.6337    11652.854    1892.3398 
  544000    298.72027    -1161.269    6432.4271    11652.858    1910.9401 
  544100    297.58694   -1167.2887    6462.7287    11652.928    1882.9933 
  544200    298.37325   -1165.9018    6444.6686    11653.053    1928.0979 
  544300    306.56567    -1165.088    6268.7618    11652.979    1871.9009 
  544400    297.24595   -1170.8362    6473.6712    11653.039    1947.3062 
  544500    300.84902   -1168.2973    6394.2371    11653.118    1930.1535 
  544600    299.74897   -1169.6789    6419.2072    11653.205    1880.6015 
  544700    299.26037   -1172.8278    6432.7795    11653.191    1842.9134 
  544800    297.80954   -1171.8703    6462.7524    11653.126     1837.505 
  544900    301.29927   -1164.7725    6381.0862     11653.11    1850.0884 
  545000    298.51052   -1167.1759    6443.1208    11653.164    1878.7014 
  545100    301.39718   -1158.2032    6372.3985    11653.084    1829.2608 
  545200    299.77508   -1164.1554     6412.999    11653.078    1848.1141 
  545300    301.15173   -1165.4798    6384.9993    11653.164    1878.5769 
  545400    299.53837   -1166.6837    6420.6015    11653.095    1916.7921 
  545500    301.37587   -1167.7875    6382.3358    11652.981    1850.4501 
  545600    294.54751   -1166.4616    6527.0076    11653.102    1936.8745 
  545700    301.56962   -1169.2917    6379.7809    11653.062    1895.4525 
  545800    297.06247   -1167.7213    6474.3964    11652.959    1927.0289 
  545900    300.80893   -1160.6102    6387.2357    11652.947    1899.4294 
  546000    299.79577   -1158.2012    6406.4716    11652.947    1842.1138 
  546100    298.17732   -1158.4591    6441.2479     11652.89    1831.5258 
  546200    301.89514   -1158.2426    6361.5485    11652.832    1931.4004 
  546300    299.60233   -1155.5199    6407.7767    11652.801    1887.6372 
  546400      296.979   -1159.0456    6467.3875    11652.843     1811.734 
  546500    299.27994   -1162.0718    6421.2632    11652.848    1835.7622 
  546600    301.60297   -1163.2525    6372.8457    11652.878    1900.7756 
  546700    298.86007   -1163.9517    6432.1753     11652.91    1850.0627 
  546800    298.07396   -1162.1401    6447.0591    11652.812    1913.1197 
  546900    301.53715   -1161.2645    6372.2378    11652.852    1901.1203 
  547000    301.61394   -1157.7732    6367.1437     11652.89    1841.7631 
  547100     297.7033   -1159.8708    6452.7953    11652.899    1841.3557 
  547200    300.80977   -1167.9305    6394.4852    11652.894    1891.4636 
  547300    300.03953   -1158.0842    6401.1346    11652.935    1872.8794 
  547400    301.84849   -1169.1569    6373.6158    11652.989    1879.2407 
  547500    300.42972   -1167.6571    6402.4811    11653.044     1838.469 
  547600    298.07406   -1171.3201     6456.581    11653.156    1807.0531 
  547700    300.68942   -1172.2126     6401.534    11653.089    1832.2301 
  547800    299.03623   -1169.8356    6434.5104    11653.125    1971.4382 
  547900    301.14743   -1166.1676    6385.7509    11653.136    1933.7495 
  548000    297.17958   -1159.6245    6463.9287     11653.09    1865.6793 
  548100    298.96533   -1172.8161    6439.1111    11653.231    1954.8016 
  548200    301.78786   -1171.5511    6377.3516    11653.035    1871.7079 
  548300    296.76195   -1174.2118    6487.5267    11653.179    1919.3906 
  548400    300.78575   -1171.2636    6398.6048    11653.167    1890.6047 
  548500    299.90644   -1175.1522    6421.3027    11653.191    1848.4295 
  548600    300.09866   -1169.1696    6411.0843    11653.062    1818.2038 
  548700    302.69155   -1167.2216    6353.7056    11653.025    1880.8968 
  548800    296.57576   -1157.3181    6474.4653    11653.033     1910.388 
  548900    300.28882    -1166.822    6404.6647    11653.053    1821.6422 
  549000     298.5332   -1164.6113     6439.838     11652.93    1859.6225 
  549100    300.35194   -1165.9183    6402.2885    11652.929    1879.4095 
  549200    297.92611   -1166.7262    6454.8448    11652.853    1908.9722 
  549300    300.54999   -1162.1252    6394.2114    11652.876    1845.4195 
  549400    299.39142   -1160.3279    6417.1795     11652.89    1875.9478 
  549500     304.1809    -1163.364    6317.8898    11652.884    1873.5035 
  549600    297.72156   -1158.9408    6451.4316    11652.855    1874.0645 
  549700    296.32227   -1155.1189    6477.4964    11652.848    1922.7948 
  549800    302.64918   -1160.3287    6347.5538     11652.86    1910.4365 
  549900    299.15329   -1158.3824    6420.1879    11652.757    1883.8104 
  550000    305.06327   -1157.5356    6293.0449    11652.718     1820.748 
  550100    296.85592   -1161.6431    6472.5465    11652.775    1899.9326 
  550200    297.72062    -1164.478    6456.9959    11652.862    1901.5624 
  550300     301.9344   -1164.8945    6367.4379    11652.909    1871.6038 
  550400    302.25984   -1165.9412    6361.5018    11652.878    1877.8468 
  550500    299.74306   -1166.6479    6416.0707    11652.973    1903.9429 
  550600     301.0623   -1163.3589    6384.5187    11652.894    1896.5876 
  550700    301.97789    -1164.299      6366.06    11653.055    1909.6736 
  550800    296.76702   -1159.0457    6472.1645    11653.091    1992.3656 
  550900    299.19458   -1168.1376      6429.33    11653.026     1959.504 
  551000     300.1073   -1166.8117     6408.503    11653.023    1877.1245 
  551100    299.38643   -1170.4594    6427.6209    11653.093    1908.4603 
  551200    296.22609   -1166.6739    6491.4214    11653.163    1990.8818 
  551300    302.80417   -1168.5856     6352.721    11653.082    1883.0732 
  551400    301.52267   -1171.9197    6383.4647    11653.114    1880.0709 
  551500    299.10694   -1165.5228    6428.7275    11653.166      1920.24 
  551600    301.01692   -1163.2589    6385.6054    11653.111    1824.8202 
  551700     298.5399    -1165.898    6441.2402    11653.189    1846.0795 
  551800    299.15398   -1165.0987    6427.2435    11653.111    1912.4528 
  551900    299.28856   -1168.7893    6428.0054    11653.057    1886.3097 
  552000    294.72546   -1163.0161    6519.7795    11653.121    1868.3107 
  552100    299.91631   -1169.4062    6415.1123    11652.958    1893.7475 
  552200    300.09805    -1163.624    6405.4618    11652.972    1919.8774 
  552300    298.87461   -1163.1446    6431.0963    11652.949    1921.3047 
  552400    298.39325   -1166.6601    6444.8385    11652.892     1928.827 
  552500     300.3962   -1164.6723    6400.0502    11652.882    1869.9267 
  552600     299.8528   -1159.7977    6406.8167    11652.914    1896.2493 
  552700    299.63964   -1160.4169    6411.9541    11652.878    1877.8466 
  552800    297.24634   -1159.6036    6462.2409    11652.849    1846.2033 
  552900    298.96143   -1157.6323    6423.6085    11652.829    1909.6635 
  553000    301.56508   -1161.0338    6371.4497    11652.891    1903.4791 
  553100    295.56506   -1163.7393     6502.256    11652.811     1869.911 
  553200    300.09538   -1162.0512    6403.8449    11652.871    1862.9148 
  553300     300.7506   -1166.9853     6394.787    11652.877    1882.3666 
  553400    299.77602   -1159.9752    6408.6746    11652.954    1870.7995 
  553500    295.14644   -1167.7921    6515.4224    11652.981     1898.864 
  553600    298.30796    -1164.951    6444.9973    11652.938    1951.4767 
  553700    299.93776    -1166.415     6411.605      11652.9    1912.5914 
  553800    299.64147   -1160.0033    6411.6101    11652.987    1881.1881 
  553900    298.56691   -1157.6267    6432.2423     11653.04    1934.4274 
  554000    298.16484   -1170.4435     6453.696    11653.087    1918.7079 
  554100    303.48641    -1165.608    6335.1427    11653.056    1865.7197 
  554200     300.2563   -1170.9656    6409.6004     11653.15    1875.3307 
  554300    297.62295   -1167.9872    6462.8841    11653.155    1904.5223 
  554400    301.67756   -1170.2448    6378.5408    11653.174     1875.973 
  554500     298.7169   -1167.0559    6438.5491    11653.121    1905.2799 
  554600    297.30445   -1170.7641    6472.4304     11653.12    1895.1891 
  554700    300.26786   -1174.9193    6413.1789    11653.022    1875.6978 
  554800    299.59733   -1164.8485    6417.4634    11653.052    1878.6208 
  554900    303.40474    -1169.091    6340.3636    11653.049     1888.322 
  555000    299.00958   -1169.4904    6434.6832    11653.074    1864.2114 
  555100    295.20305   -1168.2161    6514.7065    11653.051    1926.9607 
  555200    298.05261   -1166.7683     6452.288    11652.956    1880.0041 
  555300    300.85875   -1163.6989     6389.259    11652.946    1836.3126 
  555400    303.31951   -1161.9255    6334.7849    11652.815    1859.2648 
  555500    299.24492   -1161.6907    6421.6539    11652.872    1851.7865 
  555600    298.40823   -1157.5844    6435.4743    11652.924    1852.1534 
  555700    298.76596   -1162.4354    6432.6151    11652.856    1844.9059 
  555800    298.96705   -1162.6793    6428.5222    11652.815    1823.8593 
  555900    297.33423   -1155.9345    6456.6973    11652.852    1810.8371 
  556000    299.35043   -1159.7798    6417.4067    11652.789    1884.5164 
  556100    301.46749    -1158.902    6371.3026    11652.791    1863.3526 
  556200    297.79321   -1157.5789    6448.3937     11652.71    1900.7529 
  556300    301.47203   -1161.7028     6374.044    11652.829    1917.1729 
  556400    300.39083   -1158.3558    6393.7184    11652.752    1945.2775 
  556500    298.03903   -1164.1999    6449.8595    11652.806    1947.5968 
  556600    301.00193   -1156.3757    6378.8153    11652.884    1903.7846 
  556700    297.34128   -1162.8875    6463.4581    11652.811     1914.173 
  556800    301.22773   -1161.5445    6379.0671    11652.791    1889.1418 
  556900    298.18919   -1159.9888     6442.516    11652.882    1893.4284 
  557000    300.88527   -1160.6451    6385.5571    11652.864    1864.8075 
  557100    302.06125   -1164.2413    6364.0888    11652.923    1984.7146 
  557200    301.25108   -1164.6661    6381.8633    11652.964     1928.231 
  557300    300.53631   -1165.6477     6398.122    11652.972    1932.0234 
  557400    300.81398   -1172.9397    6399.4911    11652.981     1927.229 
  557500    298.28794    -1170.516    6451.0295    11652.978    1839.8803 
  557600    299.85006   -1167.2084    6414.3731    11653.001    1830.8146 
  557700    299.70823   -1168.4182    6418.6998    11653.088     1947.528 
  557800    302.43274   -1165.4361    6357.4998    11653.075    1914.0878 
  557900    297.32095   -1169.8207    6471.0926    11653.078    1885.1303 
  558000      297.719   -1170.0475    6462.8529    11653.115    1877.9414 
  558100    300.46139     -1169.36    6403.5954    11653.132    1873.1934 
  558200     300.9109    -1176.703    6401.3299    11653.127    1911.4735 
  558300    300.43003   -1168.8621    6403.7664    11653.131     1868.816 
  558400    300.62624   -1170.1273    6400.8617    11653.153    1860.7092 
  558500    300.08714   -1165.4878    6407.6411    11653.055    1875.0774 
  558600    299.03956   -1161.2265    6425.7062    11653.001    1905.4753 
  558700    299.42344   -1169.3261    6425.5508    11652.947    1891.7791 
  558800    300.49086   -1161.2591    6394.7038    11652.971    1840.4773 
  558900    297.25185   -1162.4031    6464.9822    11652.909    1905.7434 
  559000    301.31987   -1166.4001     6382.031    11652.867    1852.1742 
  559100     298.7977   -1165.7477    6435.2982    11652.905    1872.6906 
  559200    302.34148   -1165.5842    6359.4547    11652.932    1896.6757 
  559300    302.12563   -1164.3575    6362.7384    11652.831    1894.6152 
  559400     297.6647   -1162.8286     6456.418    11652.739    1878.3335 
  559500    298.92438   -1157.3007    6424.0204     11652.78    1895.9026 
  559600    297.60404    -1159.054    6453.9794    11652.779    1871.0597 
  559700    298.25428    -1157.711    6438.7954    11652.829    1841.1774 
  559800    299.18623   -1159.2579    6420.4459    11652.843    1813.2601 
  559900    296.15248   -1161.5508    6487.5809    11652.873    1812.5958 
  560000    298.56276    -1166.692    6441.2434    11652.887    1840.8369 
  560100     298.8295   -1158.6787     6427.486    11652.841    1865.2907 
  560200    302.60076   -1163.3987    6351.7348    11652.937    1910.5367 
  560300    298.54127   -1163.7977    6438.7722    11652.851    1903.9101 
  560400    300.22307   -1161.4974     6400.687    11652.995    1904.9336 
  560500    301.08507   -1164.5788    6385.3143    11652.956    1846.2437 
  560600      298.987   -1167.6611    6433.2434    11652.981    1847.5958 
  560700    299.83819   -1163.1927     6410.623    11653.013    1827.9636 
  560800    299.79447   -1160.1831    6408.5516    11653.017    1875.5667 
  560900    297.47179   -1167.2337    6465.3221    11653.117    1958.5025 
  561000    298.94563    -1168.334    6434.9413    11653.122     1867.731 
  561100     303.1058   -1165.9326     6343.652     11653.11    1886.2402 
  561200    300.06531   -1163.2348    6405.8256    11653.026    1874.1544 
  561300    297.13701   -1166.4284    6471.6077    11653.056    1923.2466 
  561400    301.44857   -1164.4212     6377.476    11653.041    1835.0667 
  561500    299.76119   -1168.6114    6417.6914    11653.018     1877.946 
  561600    300.35571   -1161.9857    6398.2947    11652.948     1880.532 
  561700    297.27918   -1164.2638    6466.2843    11652.934    1895.3323 
  561800    299.68357   -1169.4575    6420.1497    11652.972    1875.0191 
  561900    297.17848   -1162.4238    6466.6747    11653.013    1928.9659 
  562000    299.84819   -1160.6053    6407.7935    11652.985    1904.0036 
  562100    300.40975   -1155.4158    6390.5671    11652.945    1817.3994 
  562200    301.19864   -1153.4618    6371.6725    11652.857    1825.9499 
  562300    300.38727   -1157.0352    6392.5395    11652.817    1793.7314 
  562400     301.0955   -1152.7064    6373.1331     11652.87    1898.4906 
  562500    300.39893   -1158.5922    6393.7801     11652.75    1893.8117 
  562600    297.13116   -1153.4249    6458.4138     11652.74    1861.1497 
  562700    300.20873   -1157.6078    6396.8558    11652.747    1866.5741 
  562800     299.8227   -1159.9192    6407.4423    11652.775    1885.2933 
  562900    296.75808   -1154.7587    6467.6172     11652.64    1873.4807 
  563000    302.37977   -1151.5004    6344.3057    11652.685    1868.6619 
  563100    298.38192   -1157.8519    6436.1031    11652.723    1936.3262 
  563200    297.88427   -1159.3027    6448.2638    11652.802    1917.4089 
  563300    299.52165    -1154.433    6408.2812    11652.669    1856.7886 
  563400    298.70737   -1155.2916    6426.6867     11652.82    1861.5296 
  563500    299.64116   -1164.1683    6415.6995    11652.905    1870.7263 
  563600    301.10053    -1165.109    6385.3816    11652.823     1810.365 
  563700     298.2128   -1160.7692     6442.772    11652.862    1851.2421 
  563800    300.44796   -1165.2652    6399.5203    11652.865    1875.1109 
  563900    299.98532   -1159.6557    6403.8384    11652.909    1892.0407 
  564000     297.6405   -1163.4533     6457.765    11652.944    1922.6371 
  564100    298.03079    -1162.956    6448.9915    11653.006    1953.0587 
  564200    301.17696   -1170.1448    6389.0542    11653.093     1938.282 
  564300    298.76877   -1165.7857     6436.108    11653.059    1944.2246 
  564400    302.92502   -1170.4538    6352.0163    11653.091    1955.8239 
  564500    299.95797   -1173.4588    6418.3811    11653.064    1923.0902 
  564600    298.78506   -1164.2308    6434.2176    11653.071    1896.6014 
  564700    300.72595   -1177.6475    6406.1873    11653.088    1874.0607 
  564800    302.27219   -1166.3742    6361.9172    11653.124    1818.3922 
  564900    296.66444   -1168.8875     6484.183    11653.076    1906.6097 
  565000    302.20778   -1165.4094    6362.1963    11652.992    1864.7589 
  565100    297.41507   -1168.6562    6467.8838    11653.044    1875.2291 
  565200    302.94164   -1159.4369    6340.4891    11652.936    1851.2542 
  565300    298.80369   -1165.9929    6435.4403     11652.93    1905.8472 
  565400    301.10499   -1160.7663    6380.9434    11652.823    1836.2489 
  565500    298.60619    -1157.914    6431.4814     11652.83    1889.9095 
  565600    298.31008   -1166.2135    6446.0979    11652.822    1918.0581 
  565700    301.50779   -1159.0739    6370.5448    11652.722    1876.4379 
  565800    301.93598   -1157.1606    6359.3874    11652.626    1855.9983 
  565900     301.5157   -1154.8152    6366.1038    11652.709    1853.0271 
  566000    301.37579   -1161.6044    6375.8529     11652.68    1897.5618 
  566100    295.33223   -1155.2684    6498.5475    11652.599     1923.185 
  566200    298.54942    -1157.163    6431.6595    11652.547    1930.6732 
  566300    298.33985   -1155.3577    6434.4586    11652.674    1924.3593 
  566400    297.60737   -1154.0256    6448.6446    11652.544    1887.4535 
  566500    296.48186   -1155.2187    6473.8728    11652.534     1884.745 
  566600    301.32121   -1153.1098    6368.3458    11652.501    1909.7937 
  566700    297.47126   -1157.0894    6454.6149    11652.542    1940.6061 
  566800    299.01411   -1152.6992    6417.2412     11652.52    1904.5961 
  566900     300.0345   -1156.8586     6399.599    11652.517    1889.2951 
  567000    299.22348   -1163.4837    6423.6561    11652.623    1934.3908 
  567100    298.59579   -1162.4644    6436.0073    11652.584     1872.798 
  567200    301.19496   -1162.1517    6380.2884    11652.705    1871.8573 
  567300    297.46599   -1162.3003    6460.1339    11652.738    1927.6143 
  567400    301.08419   -1160.3658    6380.8771    11652.713    1872.1195 
  567500    299.55328   -1163.5256    6416.8199    11652.791    1997.0061 
  567600    301.30788   -1166.3968    6382.2194    11652.803    1955.4713 
  567700    298.60417   -1156.0443    6429.7276    11652.903    1915.7658 
  567800    297.63677   -1156.7628    6451.1231    11652.913    1937.9119 
  567900    300.65457   -1163.7654    6393.7068    11652.965     1936.794 
  568000     300.6971   -1170.9383    6400.0031    11652.997    1914.8862 
  568100       299.81   -1168.2962    6416.2728    11652.957    1934.1698 
  568200    297.80626    -1168.764    6459.5415    11652.951    1982.1191 
  568300     299.7831   -1172.5571    6421.1295    11652.978      1970.72 
  568400    300.20335   -1158.8591    6398.3997    11652.925    1941.8918 
  568500    299.86218   -1160.7627    6407.6904    11653.023    1957.7681 
  568600    302.83459   -1157.0806       6340.4    11652.916    1884.9032 
  568700    295.51584   -1163.1424    6502.9288    11653.029    1931.2121 
  568800    301.38581   -1166.5119    6380.8351    11652.969    1927.8756 
  568900    299.71543   -1167.7638    6417.6348    11652.831    1877.2058 
  569000    298.44535   -1164.2692    6441.3841    11652.942     1900.558 
  569100    298.68099   -1163.0799    6435.2089     11652.99    1923.8484 
  569200    301.42322   -1163.5904    6377.0139    11652.868    1865.1072 
  569300    300.47113   -1157.7031    6391.3561    11652.758    1882.4687 
  569400    297.75482   -1157.3885    6449.0965    11652.783     1977.361 
  569500    300.93013   -1162.2011    6386.0839    11652.793    1980.9183 
  569600    299.04639   -1158.7736    6422.8776    11652.771     1972.503 
  569700    301.26646   -1152.3128    6368.8386    11652.621    1872.6561 
  569800    297.02927    -1160.274    6467.4251    11652.726    1856.1891 
  569900    299.16122   -1157.3994    6418.9647    11652.686    1887.0581 
  570000    301.34453   -1158.3742    6373.3157    11652.705    1918.2363 
  570100    299.57176   -1162.8379    6415.5777    11652.631     1893.366 
  570200    299.96965   -1162.8524    6407.1961    11652.735    1904.9413 
  570300    299.67863   -1158.8117    6409.4003    11652.763    1872.9194 
  570400    302.06125    -1152.378    6351.9605    11652.658     1905.988 
  570500    302.98215   -1158.6599    6338.4964    11652.585     1932.812 
  570600    298.51908   -1160.2855    6435.6122    11652.729     1965.136 
  570700    296.82245   -1162.3773    6473.9074    11652.686    1984.2638 
  570800    302.12141   -1155.8767    6354.1173    11652.601     1929.365 
  570900     297.8476   -1161.4451    6451.1103    11652.722    2013.1492 
  571000    299.82878   -1162.3497    6409.6703    11652.702    1941.0745 
  571100    298.89124   -1159.6684    6427.0041    11652.688    1886.3369 
  571200    300.44094   -1155.8923    6390.1372    11652.705    1854.9875 
  571300    299.52917   -1163.5525    6417.3052    11652.734    1967.7141 
  571400    296.32854   -1165.4383    6487.5521    11652.718    1938.8435 
  571500    299.09661   -1155.2423    6418.1798    11652.678    1874.1167 
  571600    302.36156   -1156.9431    6350.1413    11652.689    1870.1189 
  571700    298.87333   -1159.4103    6427.1339    11652.694    1915.1445 
  571800    296.52259   -1162.9764    6481.0058     11652.78    1904.5642 
  571900    301.13243   -1158.1039    6377.5457    11652.674    1944.7918 
  572000    296.50067   -1155.6258    6474.0604    11652.716    1898.7783 
  572100    300.06441    -1155.342    6397.7121    11652.786    1824.3247 
  572200    297.09024   -1160.3229    6466.1269    11652.681     1916.524 
  572300    299.71581   -1159.3226    6409.0947    11652.741    1886.6686 
  572400    302.62461   -1160.7833    6348.3908    11652.718    1846.7668 
  572500     297.4672   -1161.3988    6459.3073    11652.839    1869.7428 
  572600    302.87772   -1155.9081    6338.1572    11652.767    1901.7959 
  572700    298.65935    -1154.901    6427.2613    11652.759     1869.196 
  572800     296.9565   -1160.8086    6469.6595    11652.871    1924.9246 
  572900    300.89813   -1156.7732    6381.4004    11652.854    1960.2964 
  573000    300.65419   -1155.5044     6385.384    11652.895    1936.7585 
  573100    300.03932   -1156.3812    6399.3605    11652.859    1870.5928 
  573200    298.93037   -1164.4196    6431.1456    11652.915    1980.1559 
  573300    301.49428   -1164.8484    6376.8226    11652.937    1860.1188 
  573400    301.22273   -1159.8555    6377.5344     11652.84    1868.1251 
  573500    297.91939   -1165.5231    6453.8902    11652.958    1947.0834 
  573600    300.17453   -1160.7012    6400.8123    11652.879    1859.5592 
  573700    301.74941   -1166.9274    6373.5155    11653.001    1824.3023 
  573800    299.25649   -1167.6774    6427.4893    11652.968    1924.9105 
  573900    300.25909   -1167.0249    6405.4336    11652.983    1907.0578 
  574000    298.60028   -1160.2844    6434.1005    11652.953    1791.1983 
  574100    299.21171   -1167.6223    6428.4193    11652.996    1930.8068 
  574200    300.49962   -1170.5126    6403.8059    11653.007    1952.9399 
  574300    298.89688   -1165.9203     6433.419    11652.972    1825.1319 
  574400    298.97634   -1164.6521    6430.4146    11652.933    1887.1881 
  574500    298.03089   -1163.9431     6449.986    11653.016    1924.3901 
  574600    297.99219   -1160.8857     6447.638    11652.898    1856.4905 
  574700    299.20123   -1162.9518    6423.8219    11652.845    1851.6532 
  574800    301.67895   -1159.6696    6367.7131    11652.951    1992.7892 
  574900    298.88482   -1164.3893    6432.0582    11652.885    1858.7085 
  575000    298.60662   -1160.6973    6434.1845    11652.759    1807.5095 
  575100    301.94626   -1159.7369    6361.9655    11652.847    1972.0965 
  575200    300.44164   -1159.4066    6393.6648    11652.733    1906.0496 
  575300    297.30878   -1159.9108     6461.135     11652.77    1833.5787 
  575400    299.32019   -1158.1312    6416.3558    11652.741    1962.2336 
  575500    300.34284   -1155.8651    6392.2015      11652.7     1973.832 
  575600    298.59244   -1158.7823    6432.4865    11652.674    1907.8527 
  575700    300.96513   -1151.6511    6374.6675    11652.675     1848.589 
  575800    300.05539   -1153.8737    6396.2519    11652.601    1856.1664 
  575900    298.41895   -1160.8538    6438.3532    11652.762    1846.8378 
  576000    299.78689   -1162.8367    6411.1641    11652.814    1871.4565 
  576100    300.70672   -1157.8532    6386.5029    11652.787    1914.4783 
  576200    297.68886   -1160.7286    6453.8915    11652.829    1936.3883 
  576300    300.24503   -1166.4637    6405.1142    11652.925    1899.9321 
  576400    299.91773   -1164.7301    6410.3517    11652.904    1927.5365 
  576500    298.40831   -1160.8335    6438.6284    11652.831    1895.6714 
  576600    300.92826   -1160.1575    6384.1688    11652.882    1860.2187 
  576700     301.4812   -1159.5645    6371.8296    11652.948    1950.7626 
  576800    299.95275   -1167.5911    6412.6302    11653.069      1881.24 
  576900    298.23088   -1171.7984    6453.5651    11653.012    1858.0537 
  577000    299.39122   -1169.1122     6426.117    11653.039    1905.2917 
  577100      298.979   -1172.6457    6438.6038    11653.186    1844.5082 
  577200     299.4269   -1173.9704    6430.3129    11653.139    1844.3327 
  577300    300.55868   -1171.5342    6403.6184    11653.059    1879.5906 
  577400    299.42537   -1169.1903    6425.5515    11653.125    1890.5905 
  577500    299.01326   -1168.4609    6433.5673    11653.066     1851.563 
  577600     304.7164   -1165.2831    6308.4617    11652.977    1859.2169 
  577700    300.12362   -1163.5193    6404.8465    11653.008    1895.8715 
  577800    299.74242   -1166.2133    6415.6205    11652.944    1871.2019 
  577900    299.24606   -1167.2981    6427.4262    11653.061     1845.292 
  578000    301.77265   -1170.1653    6376.3012    11653.046    1877.4633 
  578100    300.75827   -1169.2686    6396.9917    11652.962    1831.2163 
  578200    297.36457    -1171.785    6472.0227    11652.975    1846.3208 
  578300    299.70414    -1167.508    6417.7515    11652.963    1888.9858 
  578400    300.25392   -1157.3467    6395.6933    11652.811    1926.7682 
  578500    296.71453   -1157.8311    6471.7755    11652.795    1965.2688 
  578600    298.99307    -1159.317    6424.6373    11652.848    1938.0207 
  578700    298.05446   -1156.9456    6442.2374    11652.768    2005.1406 
  578800    298.13102   -1162.0852    6445.6798    11652.706    2014.0384 
  578900    303.46563   -1159.6455    6329.2147    11652.647    1858.8151 
  579000    292.39973   -1161.5298    6567.6937    11652.835    1936.3408 
  579100     300.3978   -1159.2935    6394.5896    11652.834    1895.1869 
  579200    300.15193   -1158.9468    6399.4276    11652.766    1956.8347 
  579300    300.21172   -1158.1586    6397.3232    11652.727     1931.713 
  579400    300.22225   -1160.1739    6399.1972    11652.811    1931.3631 
  579500    298.54494   -1161.2177    6436.1287    11652.866    1916.3925 
  579600    296.47893   -1160.3208    6479.3568    11652.853    1908.8036 
  579700    300.97503    -1163.252    6386.3609    11652.979    1914.7671 
  579800    296.81359   -1162.4392    6474.4769    11653.005    1954.7848 
  579900    303.00493   -1166.0526    6345.8311    11653.014    1885.3756 
  580000    297.84565   -1165.1419    6455.2291    11653.102    1929.8471 
  580100    299.84696   -1173.2365    6420.5758    11653.109    1941.9855 
  580200    299.79598   -1172.9052    6421.3501    11653.126    1934.6704 
  580300    300.55277   -1164.8658    6397.1826    11653.166    1880.8851 
  580400    302.06294   -1169.2302    6369.3033    11653.184    1915.2642 
  580500    298.98715   -1168.2344    6433.9691    11653.136    1946.2327 
  580600    300.94539   -1171.5225     6395.375    11653.089    1923.4625 
  580700    301.50584   -1173.9143    6385.8108    11653.106    1910.7183 
  580800    298.83967   -1172.4347    6441.3413    11653.158    1981.9128 
  580900    302.41035   -1170.7221    6363.3563    11653.167    1918.5472 
  581000      298.649   -1163.0584    6435.9726    11653.092    1893.7531 
  581100    300.05105   -1168.6744    6411.6424    11653.098    1981.1268 
  581200    300.91443   -1176.9991    6401.4768    11653.053     1960.953 
  581300     295.4018   -1171.4413    6513.5962    11652.961     1923.699 
  581400    305.19776   -1169.6725    6302.5282    11652.938    1943.1908 
  581500    300.72161   -1164.6708    6393.2082    11652.993    1969.9786 
  581600    300.89111   -1161.7782    6386.5171    11652.816     1918.689 
  581700    296.87107   -1159.2668    6469.9448    11652.873    2006.9591 
  581800    297.03553   -1156.4718    6463.5982    11652.835    1986.2208 
  581900    301.31413   -1160.9804      6376.59    11652.724    1907.0887 
  582000    302.01823   -1162.7773    6363.3689    11652.748    1944.7763 
  582100    295.35661   -1159.5348    6502.3879    11652.694     1939.078 
  582200    298.82097   -1157.0373     6425.847    11652.661    1902.6452 
  582300     299.3251    -1160.234    6418.3521     11652.74    1952.5322 
  582400    302.29514   -1157.4227    6352.1168    11652.766    1963.6889 
  582500    297.09757   -1158.1926    6463.9941    11652.835      1909.08 
  582600    299.06122   -1154.9441    6418.7158    11652.756     1880.971 
  582700    297.97077   -1157.2539     6444.325    11652.759    1916.6416 
  582800     298.4445   -1163.7081    6440.7888     11652.89    1936.3483 
  582900    298.38415   -1161.2421    6439.5383    11652.816    1908.9135 
  583000     298.0842   -1163.4845    6448.2462    11652.873    1934.5592 
  583100    301.28819   -1159.9353    6376.2783    11652.903    1944.1245 
  583200     299.8553   -1161.6939    6408.7455        11653    1939.7383 
  583300    298.92812   -1160.4553    6427.2806    11652.966    1888.1341 
  583400    298.38759   -1167.5758    6446.0072    11653.024    1960.4475 
  583500    296.64988   -1171.4513    6487.1282    11653.146    1956.6899 
  583600    301.49467   -1172.5611    6384.6724    11653.082    1864.9922 
  583700    302.02046   -1175.2847    6376.0828    11653.002    1927.0354 
  583800    298.52525   -1167.1356    6442.6719     11653.07     1990.927 
  583900    299.89467   -1166.2712    6412.5289    11653.047    1919.9584 
  584000    300.41242   -1166.3582    6401.6559    11653.148    1911.3275 
  584100    301.42938   -1164.8455    6378.3006    11653.031    1877.0347 
  584200    297.20896   -1160.8373    6464.5796    11653.156    1879.1974 
  584300    298.17031   -1173.0151    6456.2094    11653.146    1875.4081 
  584400    300.96318     -1167.73    6391.2166    11653.103    1901.1589 
  584500    302.47504   -1171.4249    6362.5479    11653.038    1922.3573 
  584600    295.64985   -1164.2104    6501.2084    11653.103    1943.6499 
  584700    297.20102   -1160.3543    6464.0849    11652.974    1909.7826 
  584800    299.95364   -1157.6238    6402.5106    11652.936    1894.3496 
  584900    298.97603   -1155.2412    6420.9721    11652.895    1962.9009 
  585000    300.01454   -1160.1462    6403.6602    11652.864    1934.5764 
  585100    301.63708   -1155.0332    6363.8092     11652.79    1906.6714 
  585200    297.35603   -1153.0875     6453.262     11652.73    1864.1919 
  585300    300.51669   -1158.3487    6391.0718    11652.801    1876.8043 
  585400    295.34513   -1158.0656     6501.268    11652.798    1871.4404 
  585500    300.60853   -1158.1101     6388.867    11652.797    1822.4845 
  585600    298.20791   -1150.5965    6432.5852    11652.743    1861.7787 
  585700    300.07611   -1154.5608    6396.7068    11652.812    1869.4985 
  585800    301.99356   -1152.3724    6353.4562    11652.713    1873.6446 
  585900    297.51091   -1150.3625    6447.2158    11652.717    1891.3592 
  586000    302.24393   -1153.9628    6349.7631    11652.778    1904.5425 
  586100    299.54999   -1157.8063    6411.0109     11652.63     1976.701 
  586200    296.99798   -1155.1116    6462.9538    11652.748    1956.7423 
  586300    300.89119   -1157.8994    6382.6389    11652.818     1855.034 
  586400    299.85878   -1166.6469    6413.5365    11652.912    1919.3746 
  586500    300.94615   -1165.7184    6389.3637    11652.898    1853.7647 
  586600    297.57509   -1170.3832    6466.2445    11653.097    1807.4726 
  586700    295.26219   -1165.7796    6511.0677    11653.112    1880.6662 
  586800     301.7947   -1170.9012    6376.6034    11653.083    1914.1431 
  586900    303.33844   -1162.7637    6335.5262    11653.123    1922.4889 
  587000    292.95533   -1162.0376    6556.6231    11653.127    2010.3763 
  587100    303.44824   -1167.3103    6337.8033    11653.199    1954.4745 
  587200    299.99845   -1170.2803    6414.3579    11653.084    1835.8868 
  587300    299.76133   -1172.2844    6421.5185    11653.175    1915.6476 
  587400    298.80952   -1174.4132    6443.9835    11653.177     1977.612 
  587500    299.71557   -1172.9796    6423.2187    11653.202    1871.1009 
  587600    299.35742   -1166.3314    6424.1272    11653.108    1888.6968 
  587700    304.92459   -1171.2502    6310.1469    11653.143    1996.4683 
  587800    297.86247   -1166.6813    6456.4338    11653.127    1905.5118 
  587900    297.01271   -1164.3254    6472.1274    11653.023    1862.7517 
  588000     302.8042   -1170.6926    6354.8241    11653.079    1864.9628 
  588100    297.27468   -1166.9511    6469.0808    11652.947    1852.3648 
  588200    299.42496   -1166.3118    6422.4602    11652.903    1873.7236 
  588300    300.03457     -1158.49    6401.6923     11652.98    1968.9584 
  588400    302.11933   -1157.4544    6356.0897    11652.951    1932.1564 
  588500    298.74973   -1161.9501    6432.4289    11652.808    1880.1647 
  588600    296.76125   -1160.6264    6473.6451    11652.868    1899.8849 
  588700    299.88034   -1157.4788    6403.7418    11652.746    1897.4496 
  588800    303.22201   -1156.2126    6331.1156    11652.776    1858.3255 
  588900    295.61642    -1156.959    6494.3787    11652.811    1917.6784 
  589000    300.90195   -1154.7891    6379.2412    11652.761     1860.269 
  589100    301.11495   -1156.8225    6376.6955    11652.732    1822.6507 
  589200    298.28875   -1155.1062    6435.3841    11652.759     1857.924 
  589300    297.91995   -1156.9471    6445.1307    11652.786    1826.1536 
  589400    299.40564   -1158.2538    6414.6867    11652.775    1876.5343 
  589500    301.84548   -1158.4073    6362.6931    11652.751    1857.1693 
  589600    296.47331   -1159.8837    6478.9908    11652.804    1920.6924 
  589700    298.12426   -1158.2751     6442.132    11652.824     1892.522 
  589800    297.65692   -1157.7963    6451.7769    11652.964    1925.7045 
  589900    301.51908    -1161.808    6373.2725    11652.957    1914.3667 
  590000    303.73386   -1158.6324    6322.7132    11652.889    1871.4992 
  590100    298.87835   -1161.4138    6429.1837    11652.847    1850.6497 
  590200    301.33464   -1162.5168    6377.8857    11652.921    1860.1295 
  590300    299.98076   -1159.3065    6403.6986    11653.021    1920.4053 
  590400    299.87379   -1168.7804    6415.4754    11653.038    1930.2693 
  590500    300.16269   -1169.7089    6410.2106    11653.017    1908.5208 
  590600     297.8959   -1166.5415    6455.5334    11653.081    1908.9679 
  590700    300.73187   -1169.8459    6398.2791    11653.108    1918.0736 
  590800    299.06908   -1161.6576      6425.55    11653.044    1857.5272 
  590900    299.38541   -1162.0471    6419.2165    11653.079     1922.758 
  591000    302.22588   -1162.7565    6359.2404    11653.076    1936.0237 
  591100    300.59013   -1168.6289    6400.0033    11653.021    1915.0394 
  591200    300.21409   -1160.9287    6400.3295    11653.014     1910.624 
  591300    303.19296    -1167.624    6343.4258    11653.054    1887.5064 
  591400    295.69842   -1159.7738    6495.6178    11652.987    1901.0448 
  591500    301.34781   -1164.5628    6379.7346    11653.005    1834.8094 
  591600    300.57497   -1165.8187    6397.4375    11652.942    1935.4705 
  591700     294.9083   -1158.1337    6510.8251    11652.955    1951.6318 
  591800    303.45271   -1156.7178    6326.7413    11652.825    1850.8619 
  591900    299.38718   -1156.0165     6412.992    11652.923    1868.4413 
  592000    299.70718   -1160.1888    6410.2596    11652.855    1889.0188 
  592100    299.39559    -1155.717    6412.3452    11652.756    1911.8314 
  592200    299.29669   -1162.1174    6420.8274    11652.725    1855.3947 
  592300    296.70254   -1162.4917    6476.5954    11652.698    1879.4216 
  592400     302.0736   -1153.9976    6353.4398    11652.781    1846.7129 
  592500    299.82445   -1157.2424    6404.6697    11652.717    1835.8817 
  592600    298.67212    -1162.278    6434.3535    11652.747    1853.8828 
  592700    300.45718   -1155.2848    6389.3192    11652.841    1864.7271 
  592800    301.52791   -1155.4366    6366.6378    11652.882     1830.631 
  592900    298.71685    -1164.021    6435.2913    11652.897    1927.8015 
  593000     298.6057    -1161.251    6434.8584     11652.86    1884.0797 
  593100    299.84926   -1155.3312    6402.4098    11652.898    1855.7407 
  593200    301.21687   -1159.5549    6377.4491     11652.93    1935.4905 
  593300    301.45907   -1167.4564    6380.1358     11652.89    1924.2648 
  593400    297.12043   -1161.3439    6466.7548    11652.933    1900.6013 
  593500    301.90642   -1171.5448    6374.7778        11653    1860.3111 
  593600    299.04135   -1166.6912    6431.1593    11653.028    1903.2752 
  593700    300.84881   -1161.7843    6387.6006     11652.99    1887.4759 
  593800    300.17418   -1165.5972    6405.8284    11652.992    1880.7224 
  593900    297.69922   -1163.6626    6456.8638    11653.088    1951.4435 
  594000    302.18258   -1168.4465    6365.7475    11652.968    1915.9638 
  594100    299.02904   -1156.9672    6421.6569    11652.986    1921.3053 
  594200    300.41509   -1172.2533      6407.39    11653.044    1887.8812 
  594300    299.46013   -1163.8537    6419.3995    11653.052    1896.8509 
  594400    303.57028   -1167.5948    6335.2278    11652.946    1914.3083 
  594500     301.8933   -1165.4847    6369.0122    11653.015       1888.8 
  594600    297.74285    -1158.904    6451.0394    11652.954     1917.819 
  594700    300.35704   -1164.7346    6400.9339    11652.867    1949.5677 
  594800    300.92376   -1165.0914    6389.1905    11652.874    1882.6763 
  594900    300.45761   -1161.7746    6395.8857    11652.927    1877.7212 
  595000     297.8639    -1159.822      6449.28    11652.863    1862.5804 
  595100    301.56542   -1160.9592    6371.2634    11652.787    1866.3132 
  595200    297.96247   -1160.4952    6447.7842      11652.8     1862.651 
  595300     299.5025   -1160.0435    6414.4709    11652.839    1848.2556 
  595400    299.14623   -1157.2455    6419.2706    11652.825    1808.3881 
  595500    300.92395   -1156.7377    6380.7674    11652.808    1824.1228 
  595600    302.44956   -1160.6853    6352.0995    11652.785    1828.5031 
  595700    296.64785   -1159.5211    6474.9141    11652.819    1907.3631 
  595800    298.23793   -1163.9052    6445.3057    11652.796    1871.3246 
  595900    300.73675   -1163.7458    6391.8218    11652.855    1893.3904 
  596000    294.82638   -1158.8833    6513.2291    11652.859    1921.5127 
  596100    297.42977   -1158.9403    6457.7972    11652.988    1853.3457 
  596200    299.30614    -1158.916    6417.5355    11652.836    1837.1828 
  596300     303.2515   -1161.1436    6335.5029    11652.862     1900.187 
  596400    296.48534   -1161.9475    6480.9687    11652.976    1885.2862 
  596500    299.03139   -1161.3303    6425.8771    11652.894    1849.1728 
  596600    298.86107   -1161.5237    6429.8142    11652.999     1819.072 
  596700    300.91209   -1169.0938    6393.6802    11653.111    1859.7223 
  596800    299.29744   -1162.7922    6421.7705    11653.009    1868.1403 
  596900    299.08305   -1163.1297    6426.6779    11652.999    1878.0854 
  597000    301.02959   -1168.4178    6390.4115    11653.029    1944.1621 
  597100    299.76239   -1166.1423    6415.1957    11653.017    1901.4616 
  597200    300.20775   -1166.8338    6406.3915    11653.036    1898.2065 
  597300    299.11994   -1168.5512    6431.3091    11652.997    1907.7324 
  597400    297.06642   -1165.0552    6471.7249    11653.038    1934.4442 
  597500    302.76283    -1168.157    6353.0335     11652.94    1945.8615 
  597600    298.45905   -1164.5957    6441.4357     11652.96    1960.9542 
  597700    297.66445   -1168.2597    6462.0518    11652.936    1839.0438 
  597800    302.99965      -1164.8    6344.6374     11652.96     1856.293 
  597900    293.93126   -1164.7896    6538.4057    11653.006    1919.9252 
  598000    300.83026   -1163.0792    6389.2743    11652.972    1909.8056 
  598100    298.95571   -1160.8334    6427.1915    11653.088    1918.4737 
  598200    297.71469   -1164.8241    6457.6474    11653.041    1949.7772 
  598300    301.73977    -1163.981    6370.7205    11652.947    1951.1374 
  598400    299.99894   -1161.1274    6404.9601     11652.85    1895.9748 
  598500    299.86122   -1161.8224    6408.6722    11652.925    1868.3206 
  598600    297.02867   -1156.9188    6464.3296    11652.973    1932.9496 
  598700    301.26537   -1161.9879    6378.8612    11652.946    1841.6591 
  598800    298.50352   -1159.5006    6435.3942    11652.963    1873.8841 
  598900    300.50602    -1165.316    6398.4383    11652.972    1864.5845 
  599000     298.4068   -1167.1076     6445.028    11652.924    1857.0018 
  599100    300.71704   -1156.5923    6385.2425    11653.008    1868.1443 
  599200    304.03796   -1164.5432     6322.182    11652.943    1942.9618 
  599300    295.75437   -1162.5401    6497.1566    11652.955    1935.9449 
  599400    297.09207   -1160.6294    6466.6684    11652.955    1920.7252 
  599500    300.10055   -1161.9888    6403.7762    11652.975    1960.5135 
  599600    299.15193   -1159.1239    6421.2355    11653.033    1937.5435 
  599700    299.48853   -1162.2853     6417.146    11652.974    1980.4856 
  599800    298.78274    -1164.866     6434.775    11652.944    1962.6648 
  599900    302.30712   -1168.2109    6362.9351    11653.052    1880.1902 
  600000    303.00715   -1170.5705    6350.3134    11653.026    1886.3206 
Loop time of 278.387 on 8 procs for 300000 steps with 7168 atoms

Pair  time (%) = 137.524 (49.4004)
Bond  time (%) = 81.0462 (29.1128)
Neigh time (%) = 19.5517 (7.02323)
Comm  time (%) = 30.1598 (10.8338)
Outpt time (%) = 0.477352 (0.171471)
Other time (%) = 9.62748 (3.45831)

Nlocal:    896 ave 905 max 887 min
Histogram: 1 0 1 1 1 2 0 0 1 1
Nghost:    2841.62 ave 2851 max 2829 min
Histogram: 1 0 1 1 0 1 0 1 2 1
Neighs:    23642.2 ave 23959 max 23346 min
Histogram: 1 1 1 0 2 0 1 0 1 1

Total # of neighbors = 189138
Ave neighs/atom = 26.3864
Ave special neighs/atom = 157.056
Neighbor list builds = 3047
Dangerous builds = 0
# −−−−−−−−−−−−−− Flux calculation in nve −−−−−−−−−−−−−−−
reset_timestep  0
compute         PE all pe/atom
compute         KE all ke/atom

variable        CX atom (vx*(c_KE+c_PE))
compute         Jcx all reduce sum v_CX

variable        CZ atom (vz*(c_KE+c_PE))
compute         Jcz all reduce sum v_CZ

variable        CY atom (vy*(c_KE+c_PE))
compute         Jcy all reduce sum v_CY

compute         SA all stress/atom virial

variable        VX atom -(c_SA[1]*vx+c_SA[4]*vy+c_SA[5]*vz)*1.4593e-5
compute         Jvx all reduce sum v_VX

variable        VZ atom -(c_SA[3]*vz+c_SA[6]*vy+c_SA[5]*vx)*1.4593e-5
compute         Jvz all reduce sum v_VZ

variable        VY atom -(c_SA[2]*vy+c_SA[6]*vz+c_SA[4]*vx)*1.4593e-5
compute         Jvy all reduce sum v_VY

variable        Jx equal (c_Jcx+c_Jvx)/vol
variable        Jz equal (c_Jcz+c_Jvz)/vol
variable        Jy equal (c_Jcy+c_Jvy)/vol

fix             JJTx all ave/correlate $s $p $d                 v_Jx type auto file J0Jt_tx.dat ave running
fix             JJTx all ave/correlate 5 $p $d                 v_Jx type auto file J0Jt_tx.dat ave running
fix             JJTx all ave/correlate 5 20000 $d                 v_Jx type auto file J0Jt_tx.dat ave running
fix             JJTx all ave/correlate 5 20000 100000                 v_Jx type auto file J0Jt_tx.dat ave running

fix             JJTz all ave/correlate $s $p $d                 v_Jz type auto file J0Jt_tz.dat ave running
fix             JJTz all ave/correlate 5 $p $d                 v_Jz type auto file J0Jt_tz.dat ave running
fix             JJTz all ave/correlate 5 20000 $d                 v_Jz type auto file J0Jt_tz.dat ave running
fix             JJTz all ave/correlate 5 20000 100000                 v_Jz type auto file J0Jt_tz.dat ave running

fix             JJTy all ave/correlate $s $p $d                 v_Jy type auto file J0Jt_ty.dat ave running
fix             JJTy all ave/correlate 5 $p $d                 v_Jy type auto file J0Jt_ty.dat ave running
fix             JJTy all ave/correlate 5 20000 $d                 v_Jy type auto file J0Jt_ty.dat ave running
fix             JJTy all ave/correlate 5 20000 100000                 v_Jy type auto file J0Jt_ty.dat ave running

run             1000000
Memory usage per processor = 13.8919 Mbytes
Step Temp E_pair E_mol TotEng Press 
       0    303.00715   -1170.5705    6350.3134    11653.026    1886.3206 
     100    298.38489   -1170.8808    6449.4229    11653.077    1898.9746 
     200    299.48459   -1166.3987     6421.476    11653.106    1887.2206 
     300     298.3847   -1166.1762    6444.7179    11653.073    1947.5559 
     400    301.60061   -1162.4828    6372.3243    11653.076    1918.7042 
     500    301.95548   -1164.1834    6366.4056    11653.038    1886.9733 
     600    298.26324   -1160.3468    6441.4392    11653.029    1880.9413 
     700    301.06684   -1171.8043    6393.0055    11653.032    1828.2079 
     800    297.75315   -1166.2907    6458.2788    11653.027    1868.5374 
     900    301.48853   -1163.2298    6375.4072    11653.017    1910.6957 
    1000    296.35015   -1172.7143    6494.6959    11653.048    1948.7141 
    1100    299.07485   -1168.6657    6432.4184    11653.028    1929.1157 
    1200    299.07004    -1166.462    6430.2624    11652.973    1930.3691 
    1300    300.66191   -1155.9964    6385.8365    11653.021    1822.4022 
    1400    299.70785   -1162.5375    6412.6281    11652.889    1894.3834 
    1500     300.5421    -1165.655    6397.9855    11652.951    1909.9843 
    1600    300.15657   -1163.7888    6404.3126    11652.908    1861.1486 
    1700    297.28542   -1166.8226    6468.6549    11652.879    1940.8087 
    1800    296.15216   -1161.8135    6487.8576    11652.881    1891.5581 
    1900    295.10784   -1165.0516     6513.448    11652.923    1920.9013 
    2000    297.66561   -1161.4834    6455.2425    11652.928    1944.3154 
    2100    299.99445   -1159.7946     6403.782    11652.909    1848.6205 
    2200    297.79855   -1159.5186    6450.3478    11652.838    1817.5408 
    2300    298.67747   -1159.9035    6431.9488    11652.831    1870.6785 
    2400    298.06467    -1156.551    6441.6779    11652.821     1893.358 
    2500    304.10208   -1156.2749    6312.3985    11652.798    1844.4152 
    2600    297.92836   -1161.3346     6449.399    11652.847    1906.4991 
    2700    298.88505   -1162.0778    6429.7301    11652.873    1886.5397 
    2800    299.25384   -1162.6233    6422.3829    11652.859      1834.28 
    2900    304.07099   -1162.4534    6319.3774    11652.934    1804.9694 
    3000    297.76332   -1162.8398    6454.5283    11652.945    1848.0457 
    3100    299.44228   -1169.4174    6425.2035    11652.911    1861.9501 
    3200    297.88446    -1165.435    6454.5118    11652.921    1931.0482 
    3300      300.266   -1168.3661     6406.625    11652.981    1919.4774 
    3400    300.33827   -1165.8315    6402.5395    11652.974    1884.0086 
    3500    300.60753   -1163.7237    6394.7267    11653.022     1886.684 
    3600     300.2759   -1166.2908    6404.3645    11653.008    1887.5345 
    3700    301.31457   -1166.6172    6382.4838     11652.99    1880.2721 
    3800     299.5328   -1169.9295    6423.9445    11653.074    1871.9072 
    3900    299.45225   -1166.9831    6422.6639    11653.019    1869.2443 
    4000    298.76603   -1173.5656    6444.0074     11653.12    1867.2394 
    4100    299.40414   -1168.3136    6425.1236     11653.12    1833.3131 
    4200     297.1574   -1168.3225    6473.1463    11653.136    1970.0755 
    4300    302.87156   -1169.5539    6352.2081     11653.04    1948.9875 
    4400    300.30416   -1162.2361    6399.7687     11653.07    1945.2293 
    4500    297.73611   -1167.2746     6459.647    11653.047    1952.4827 
    4600    299.25289   -1167.9194    6427.8832    11653.043    2011.2741 
    4700    299.63219   -1169.8794    6421.7805    11653.083    1976.4312 
    4800    297.91167   -1169.6614    6458.3158     11653.08    1925.6205 
    4900    300.63088   -1172.5534    6403.0418    11653.006    1886.2362 
    5000    297.69606   -1169.4358    6462.6446    11653.028    1882.5914 
    5100    296.97471   -1171.2865    6479.9348    11653.057     1986.962 
    5200    298.89862    -1165.014    6432.5111    11653.008     1946.898 
    5300    301.14164   -1163.5206    6383.0377    11652.946    1936.4707 
    5400    297.97866   -1162.3833    6449.4938    11652.967    1963.0314 
    5500    299.16199   -1163.9553    6425.7974    11652.979    1911.0539 
    5600    300.19745   -1162.2437    6401.9187    11652.933     1877.365 
    5700    299.95942   -1163.6705     6408.404    11652.906     1932.705 
    5800    300.53331   -1169.6336    6402.2673    11653.067    1949.0523 
    5900    299.90582   -1165.6872    6411.6559    11652.996    1864.5266 
    6000    296.09585   -1169.3318    6496.7592    11653.061    1910.0957 
    6100    298.81377   -1163.8334    6433.2101    11653.074     1928.616 
    6200    303.03544   -1162.3782    6341.4549    11652.964    1866.6936 
    6300    297.41142   -1163.2856    6462.5458    11652.999    1968.0483 
    6400     300.7233   -1158.1433    6386.6163    11652.965     1916.953 
    6500    299.70459   -1160.2789     6410.416    11652.866    1927.3807 
    6600    298.97027   -1163.3727     6429.234    11652.902    1874.8694 
    6700    300.41132   -1162.7401    6397.8893    11652.976    1890.2755 
    6800     299.5657   -1167.8103    6420.9962    11652.947    1922.2471 
    6900    296.16652    -1170.514    6496.3826    11653.012    1935.8871 
    7000     302.8149   -1170.3489    6354.2034     11653.03    1895.0428 
    7100    298.10607   -1171.8332    6456.2661    11653.012    1902.3263 
    7200     299.1741    -1170.994    6432.6149    11653.017     1942.808 
    7300    301.93753   -1167.9584    6370.5263        11653    1958.3904 
    7400    298.60009   -1165.7748    6439.6138    11652.972    1945.3571 
    7500    297.88736    -1163.139    6452.1619    11652.929    1937.9025 
    7600    302.60882   -1162.0091    6350.1858     11652.95    1951.7994 
    7700    297.01003   -1163.1879    6470.9958    11652.971    1898.1624 
    7800     299.3777   -1168.2801    6425.5289    11652.994    1920.8003 
    7900    302.09424   -1171.6074    6370.8008    11652.973    1859.1072 
    8000    298.00022   -1170.0984    6456.7934    11653.012    1889.5001 
    8100    299.59617    -1166.798    6419.4876    11653.102    1867.3101 
    8200    298.73488   -1164.6405    6435.6124    11652.984    1885.0696 
    8300    301.88646   -1161.4764    6365.1019    11652.966     1852.149 
    8400    297.05061   -1160.1977    6467.1794    11653.012    1957.8765 
    8500    299.91394   -1164.6716    6410.3646    11652.894    1913.7575 
    8600    297.68779   -1172.2448     6465.599    11652.997    1980.1811 
    8700    301.64153   -1169.8513    6378.7171    11652.974    1851.4942 
    8800    298.26693   -1164.5351    6445.4589    11652.939    1848.1689 
    8900    297.50462   -1165.3112    6462.6005    11653.019    1888.7643 
    9000    298.44678   -1168.0771    6445.3036    11653.084     1853.344 
    9100    302.14426   -1167.8813    6366.1695    11653.137     1850.318 
    9200    301.83508   -1165.8343    6370.6472    11653.056    1842.8175 
    9300    302.31554   -1166.4216    6360.8257    11652.912    1810.3235 
    9400    297.61811   -1167.4598    6462.2813    11652.976    1874.2355 
    9500    302.69041   -1165.9504    6352.3726    11652.938     1852.916 
    9600    296.74209   -1163.7359    6477.2842    11652.988    1917.2989 
    9700    300.31723   -1169.1106    6406.2578    11652.964    1904.4013 
    9800    300.69691   -1162.7347    6391.7595    11652.953      1867.42 
    9900    296.54608   -1167.7706    6485.5597    11653.041    1948.7712 
   10000    295.54241   -1163.0613    6502.2245    11652.973    1938.6263 
Loop time of 1406.83 on 8 procs for 1000000 steps with 7168 atoms

Pair  time (%) = 564.587 (40.1318)
Bond  time (%) = 297.463 (21.1442)
Neigh time (%) = 65.2411 (4.63744)
Comm  time (%) = 107.299 (7.62702)
Outpt time (%) = 0.00365573 (0.000259855)
Other time (%) = 372.239 (26.4593)

Nlocal:    896 ave 903 max 890 min
Histogram: 1 0 0 2 2 1 1 0 0 1
Nghost:    2846.38 ave 2852 max 2836 min
Histogram: 1 0 0 0 1 1 0 1 3 1
Neighs:    23614.5 ave 24015 max 23252 min
Histogram: 2 0 1 1 0 0 1 1 1 1

Total # of neighbors = 188916
Ave neighs/atom = 26.3555
Ave special neighs/atom = 157.056
Neighbor list builds = 10139
Dangerous builds = 0
