LAMMPS (11 Jun 2012)
# Initialization
atom_style      full
units           real
variable        T equal 300
variable        dt equal 1.0
variable        seed equal 123464
variable        radius equal 0.5
variable        sizet equal 4
variable        sizeb equal -4
variable        p equal 20000    # correlation length
variable        s equal 5        # sample interval
variable        d equal $p*$s    # dump interval
variable        d equal 20000*$s    variable        d equal 20000*5    
# convert from LAMMPS real units to SI
variable        kB equal 1.3806504e-23    # [J/K] Boltzmann
variable        kCal2J equal 4186.0/6.02214e23
variable        A2m equal 1.0e-10
variable        fs2s equal 1.0e-15
variable        convert equal ${kCal2J}*${kCal2J}/${fs2s}/${A2m}
variable        convert equal 6.9510174124148567155e-21*${kCal2J}/${fs2s}/${A2m}
variable        convert equal 6.9510174124148567155e-21*6.9510174124148567155e-21/${fs2s}/${A2m}
variable        convert equal 6.9510174124148567155e-21*6.9510174124148567155e-21/1.0000000000000000777e-15/${A2m}
variable        convert equal 6.9510174124148567155e-21*6.9510174124148567155e-21/1.0000000000000000777e-15/1.0000000000000000364e-10
variable        b_eq equal 10.0/3.0

# setup problem
dimension       3
boundary        p p p
neighbor        2    bin
pair_style      lj/cut 10.0
bond_style      morse
read_data       lammps.data
  9 = max bonds/atom
  orthogonal box = (0 0 0) to (80 80 80)
  2 by 2 by 2 MPI processor grid
  7168 atoms
  33696 bonds
  10 = max # of 1-2 neighbors
  86 = max # of 1-3 neighbors
  824 = max # of 1-4 neighbors
  164 = max # of special neighbors
pair_coeff      1 1 0.000 3.500
pair_coeff      2 2 0.000 3.500
pair_coeff      1 2 0.105 3.500
bond_coeff      1 10 1.8 ${b_eq}
bond_coeff      1 10 1.8 3.3333333333333334814
bond_coeff      2 5 0.805 7.4536
bond_coeff      3 10 1.8 ${b_eq}
bond_coeff      3 10 1.8 3.3333333333333334814
bond_coeff      4 5 0.805 7.4536
velocity        all create $T ${seed} mom yes rot yes dist gaussian
velocity        all create 300 ${seed} mom yes rot yes dist gaussian
velocity        all create 300 123464 mom yes rot yes dist gaussian
timestep        ${dt}
timestep        1
thermo          100
dump            T1 all cfg 600000 *.cfg id type xs ys zs
dump            T2 all xyz 10000 traj.xyz
#dump_modify    1 element Cu
# −−−−−−−−−−−−− Equilibration and thermalisation −−−−−−−−−−−−−−−−
fix             NVT all nvt temp $T $T 10
fix             NVT all nvt temp 300 $T 10
fix             NVT all nvt temp 300 300 10
run             300000
Memory usage per processor = 11.5453 Mbytes
Step Temp E_pair E_mol TotEng Press 
       0          300   -906.89526 0.00012694983    5502.1446    343.62551 
     100    244.80819   -935.80086    6993.8549    11288.005    2150.7486 
     200    295.29254   -993.63216    10114.063    15428.903    1186.1301 
     300    303.53705    -990.2411    8501.5878     13995.95    513.42541 
     400    299.72017   -969.36754    6480.4593    11914.153    927.22259 
     500    299.35582   -950.38803    5663.9422    11108.832    1310.5435 
     600    298.53864   -947.47727    5595.9398    11026.283    1240.6386 
     700    299.47404   -958.77345    6348.4707    11787.501    1153.8299 
     800    299.16853   -970.49066    7192.1311    12612.917    1152.0092 
     900    303.81052   -973.58642    7192.3526    12709.212    1180.2742 
    1000    299.78236   -968.94461    6653.8791    12089.325     1206.048 
    1100    296.05003   -964.67017    6330.3703    11690.355    1405.6732 
    1200    300.13067   -964.54435    6201.9827     11649.27     1340.065 
    1300    300.50391   -967.97597    6253.9243    11705.753    1207.3262 
    1400    296.57741   -976.22116    6605.9649    11965.665    1281.7738 
    1500    302.95307    -982.2117    7014.0284    12503.944    1486.6581 
    1600    300.76828   -984.15931    6743.0173    12184.311    1375.1708 
    1700    298.91632   -983.93683    6309.7532    11711.705    1341.0712 
    1800    296.96112   -986.92791    6416.1688     11773.36    1430.6693 
    1900    297.88803   -994.06436    6520.0395    11889.896    1425.0539 
    2000    303.04821   -1001.9625    6499.4781    11971.676    1479.9859 
    2100    298.89439   -1011.2533    6444.9721    11819.139    1593.7724 
    2200    299.86033   -1022.1248    6356.2091     11740.14    1606.9344 
    2300    298.58551   -1037.9571    6406.8165    11747.681    1597.9655 
    2400    300.02266   -1057.1671     6464.778    11817.135    1552.9803 
    2500    298.52839   -1074.5686     6415.629    11718.661    1480.7752 
    2600    302.86935   -1094.1288    6316.5098     11692.72    1449.6751 
    2700    299.30993   -1115.3267    6338.1838    11617.155     1493.822 
    2800    304.44776   -1131.0576    6482.9526    11855.954    1617.3362 
    2900    297.34162    -1145.453    6219.3579    11426.152    1541.3698 
    3000    305.82493   -1144.4141    6124.4958    11513.562    1637.0741 
    3100     299.1996   -1150.3615    6193.8143    11435.393     1617.363 
    3200    302.95549   -1155.7107    6290.9617     11607.43    1706.0766 
    3300    299.82585   -1163.2818    6131.4754    11373.513    1656.8674 
    3400    302.89819   -1159.3137    6201.0492    11512.691     1628.992 
    3500    295.12673   -1158.4769    6452.1897    11598.643    1620.6821 
    3600    304.22408   -1168.8402    6500.0465    11830.487    1634.4509 
    3700    296.81868   -1179.2559     6372.148    11533.968    1641.7659 
    3800     302.9128   -1183.1466    6238.3629    11526.483    1676.3398 
    3900    296.01671   -1174.8967    6147.7644    11296.811    1678.3124 
    4000    303.16022   -1149.4764    6450.6448    11777.721    1819.8031 
    4100    297.94581   -1162.8886    6449.9884    11652.255    1781.6966 
    4200    295.01157   -1169.3166    6201.0184    11334.171    1713.3046 
    4300    296.60854   -1168.3614     6218.353    11386.578    1738.0414 
    4400      299.154   -1155.9911    6173.2449     11408.22    1690.2262 
    4500    305.82542   -1141.7743    6310.9786    11702.695    1721.6113 
    4600    296.84892   -1128.6228    6348.8321    11561.931    1639.0662 
    4700    302.34104   -1108.7813    6543.0792     11893.35     1700.822 
    4800    298.73215   -1097.4322    6632.3162    11916.838    1735.1883 
    4900    296.82119   -1080.8712    6226.3551    11486.613    1705.5287 
    5000    303.83179   -1069.3315    6255.0502    11676.619     1796.604 
    5100    296.08767   -1059.7584    6379.3979    11645.098    1785.3899 
    5200    302.95005   -1054.1748    6413.4631    11831.351    1706.0309 
    5300    298.10581   -1047.4321    6546.0693     11867.21    1679.8258 
    5400    301.45478   -1050.7664    6585.0893    11974.442     1678.722 
    5500    304.23983   -1050.9987    6574.5262    12023.145    1782.1322 
    5600    291.94498   -1052.2799    6385.2232      11569.9    1726.6479 
    5700     300.9782   -1057.1058    6376.5194    11749.351    1796.8336 
    5800    301.15193   -1066.8464     6341.059    11707.862    1793.2146 
    5900    294.77607   -1079.6709    6428.7451    11646.513    1727.0861 
    6000    302.25954   -1083.3351    6542.5235      11916.5    1773.7906 
    6100    295.60816   -1097.1607    6394.2297    11612.284    1744.3157 
    6200    300.95084   -1104.2674    6379.4311    11704.517     1746.089 
    6300      299.426   -1102.2702    6386.5679    11681.075    1812.2095 
    6400    296.73044   -1103.7493     6252.812    11488.253    1738.4954 
    6500    300.78296   -1092.8488    6306.1776    11639.095    1787.5761 
    6600    296.88884   -1083.3253    6348.5295    11607.779    1840.2468 
    6700    300.94412    -1070.188    6449.6672    11808.689     1896.658 
    6800    300.86933   -1072.7639    6362.8725     11717.72    1888.1248 
    6900    297.99401   -1082.2388    6215.3905    11499.337    1824.1014 
    7000    300.66553   -1105.3319    6246.0645     11563.99     1852.881 
    7100     301.1401   -1109.3529    6430.5549    11754.598    1904.7607 
    7200    298.60951    -1121.511    6324.3902    11582.213     1852.944 
    7300    302.49291   -1123.6443     6362.676    11701.329    1841.8213 
    7400    291.82165   -1118.5086    6405.1389    11520.952    1765.3597 
    7500    300.93026   -1114.3827    6358.2909    11672.821    1786.3376 
    7600    297.77982   -1110.9558    6323.0044    11573.658    1732.4991 
    7700    300.62561   -1102.6092    6420.2816    11740.077    1801.5594 
    7800    300.74567   -1099.2567    6524.2106    11849.924    1814.3805 
    7900    298.99806   -1098.3331    6448.3716    11737.673    1746.4635 
    8000    299.40515   -1093.2312    6427.6704    11730.771     1771.799 
    8100    298.31813   -1092.8794    6350.9074    11631.137    1730.1664 
    8200    304.89823   -1094.7065    6433.8597    11852.836    1832.4553 
    8300    303.90577   -1100.2975    6447.7663    11839.949     1784.388 
    8400     302.8285   -1102.3772    6537.3278    11904.417    1820.5723 
    8500     299.2595   -1111.7173     6492.823    11774.326    1760.2024 
    8600    298.56306   -1118.6285     6451.733    11711.446    1798.1309 
    8700    302.48797    -1123.665    6233.7118    11572.238    1805.3026 
    8800    299.48802   -1128.2492    6314.0164    11583.869    1867.5812 
    8900    300.53878   -1136.5915    6402.7555    11686.714     1875.288 
    9000    301.96379    -1143.668    6404.7952     11712.12    1894.0999 
    9100    300.20026   -1142.1884    6311.7473    11582.877    1865.1757 
    9200    298.19339   -1169.6462    6214.2321     11415.03    1808.6627 
    9300    304.39821   -1158.9029    6310.8728    11654.971    1794.4121 
    9400    300.21763   -1160.1975    6408.8761    11662.368    1800.3607 
    9500    297.50132   -1162.4774    6351.1296    11544.312    1761.1848 
    9600    300.78088   -1154.4777    6336.2389    11607.483    1754.9194 
    9700    303.03075   -1149.6979    6332.2418    11656.331     1831.312 
    9800    299.59525   -1138.4221    6335.0024    11596.973    1882.8099 
    9900    299.97916   -1153.6912    6206.4309    11461.334    1843.7706 
   10000     300.3398   -1162.2533    6349.3525    11603.398    1894.6005 
   10100    306.93649   -1163.5692    6280.7055    11674.363    1873.6523 
   10200    292.55463   -1156.5924    6239.1665    11332.555    1785.4211 
   10300    302.24255   -1152.9723    6396.5997    11700.576    1824.0718 
   10400    294.92276   -1146.5102    6360.0878     11514.15    1800.3189 
   10500    301.43776    -1148.051    6244.5701    11536.274    1804.2906 
   10600    301.87258   -1135.2754    6307.0212     11620.79     1865.693 
   10700    295.51525   -1129.5159     6401.709    11585.423    1865.4835 
   10800    303.99704   -1119.8741    6388.2871    11762.843    1793.8096 
   10900    298.51369   -1117.0539    6511.8721    11772.105    1831.3686 
   11000      301.826   -1111.8856    6386.2264     11722.39    1851.5938 
   11100    297.01808   -1108.4666    6353.2968    11590.166    1849.4734 
   11200    301.38039   -1110.6393    6432.5531    11760.443     1775.816 
   11300    300.80759   -1108.2514     6560.489     11878.53    1794.6577 
   11400     293.3393   -1109.8114    6407.5775     11564.51    1726.9994 
   11500    302.55886   -1110.1168    6401.5214     11755.11    1744.0493 
   11600    297.21832   -1111.0607    6421.3185    11659.871    1728.6109 
   11700    301.82479   -1111.8241    6523.8368    11860.036     1788.054 
   11800     300.0461   -1123.6161    6385.9462    11672.355     1702.774 
   11900    298.07122   -1125.9007    6457.1885    11699.122    1773.7972 
   12000     297.5495   -1127.1173    6476.2086     11705.78    1783.8859 
   12100    299.29025   -1132.4747    6413.4795    11674.882    1728.6131 
   12200    302.23535   -1136.9456    6408.3907     11728.24    1777.0029 
   12300    296.87783   -1139.7692    6368.4312    11571.001     1783.345 
   12400    298.40267    -1148.471     6344.443    11570.887     1767.166 
   12500    302.77554   -1148.1611    6462.9641    11783.138    1803.2855 
   12600    299.04514   -1151.7922    6337.5062    11574.355    1794.3914 
   12700    298.92227   -1151.0543    6400.4936    11635.455    1878.0454 
   12800    300.59589   -1151.9969    6267.2119    11536.985     1858.715 
   12900    303.10733   -1155.0024    6300.8873    11621.308    1935.2801 
   13000    297.89513     -1164.23    6365.4141    11565.256    1932.2646 
   13100    301.83395   -1159.2318    6304.1103    11593.098    1945.4861 
   13200     300.8528   -1152.8935    6360.7922    11635.157    1926.4845 
   13300    296.43639   -1147.2652    6379.5414    11565.185    1921.1789 
   13400    305.46017   -1150.8462    6285.4134    11660.255    1916.3721 
   13500    297.37419   -1145.2688    6238.8426    11446.517    1894.5783 
   13600    302.43087   -1145.3624    6431.3952    11747.004    1955.2383 
   13700     298.6383   -1136.8961    6301.5512    11544.604    1833.5191 
   13800    298.02127   -1140.8999    6447.7604    11673.628    1932.5174 
   13900    305.93778   -1142.5959     6411.577    11804.872    1898.2146 
   14000    298.32349   -1137.8814    6323.6126    11558.955    1817.4929 
   14100    296.46294   -1133.5786     6298.533     11498.43    1788.9484 
   14200    299.41748   -1130.2026    6410.3948    11676.787    1812.1844 
   14300    299.59499    -1120.347    6517.5011    11797.541    1868.1628 
   14400    296.85671   -1114.3134    6353.7673    11581.342    1760.7476 
   14500     301.1331   -1110.0174     6342.284    11665.513    1808.1398 
   14600    298.14652   -1104.5807    6486.5694    11751.431    1785.9395 
   14700    307.41757   -1097.0518    6550.7509    12021.204    1820.8276 
   14800    297.73681   -1092.4914    6549.1474    11817.346    1804.4089 
   14900    300.81136   -1087.7957    6456.1767    11794.754    1759.4098 
   15000    300.01378   -1088.8769    6488.6859    11809.143    1799.2157 
   15100    300.77111   -1087.1492    6538.7487    11877.113    1763.4528 
   15200    297.89346   -1086.7242     6563.367     11840.68    1778.2419 
   15300    304.82734   -1090.9359    6540.0445    11961.277    1806.4885 
   15400     297.7455   -1097.5643    6378.1688     11641.48    1685.6732 
   15500    299.85938   -1101.9961    6528.1549    11832.194    1746.7088 
   15600    303.30887   -1110.4067    6444.6182     11813.94    1730.2491 
   15700    297.40728   -1116.6742    6382.7643     11619.74    1704.2097 
   15800    296.59932   -1129.3938    6513.9598    11720.955    1821.0582 
   15900    302.68058   -1133.6655    6423.2149    11755.855    1871.3265 
   16000    299.52466    -1145.161     6335.999    11589.723    1855.1721 
   16100    300.73607   -1146.9826    6402.0192    11679.801    1924.1144 
   16200    298.31596   -1152.7356    6366.7447    11587.072    1873.8756 
   16300    302.96621   -1157.7097    6282.8146    11597.513    1883.5771 
   16400    298.49883   -1163.4736    6360.2272    11573.723    1880.4232 
   16500      305.373   -1163.2798    6388.9583    11749.504    1855.9068 
   16600    296.84122   -1171.8699    6527.7881    11697.475    1902.4864 
   16700    297.83381    -1170.119    6409.4277    11602.071    1866.8963 
   16800    299.61164   -1171.3908    6289.1393    11518.491    1860.8644 
   16900    301.56002   -1161.2592    6340.9408    11622.049    1920.6167 
   17000    299.87857   -1164.8344    6514.8009    11756.412    2016.6277 
   17100    298.21961   -1162.8479    6389.1541    11597.311    1896.1361 
   17200    300.18486   -1170.6377    6308.1424    11550.494    1906.3683 
   17300     299.5542   -1179.1523    6337.2486    11557.612    1948.0101 
   17400    303.10504   -1172.1573    6468.7334     11771.95    1971.4476 
   17500    299.33806   -1170.5207    6296.9562    11521.334    1882.1901 
   17600     297.5653   -1160.5922    6444.5073    11640.941    2019.0729 
   17700     304.1169   -1154.1348    6335.3008    11678.157     1835.949 
   17800    297.82437   -1150.0572    6402.3393    11614.843    1845.2803 
   17900    300.33955   -1134.1587    6540.7927    11822.928    1877.8883 
   18000    297.81032   -1132.5989    6320.9021    11550.564    1761.4482 
   18100    302.69683   -1128.6029    6367.4641    11705.515    1839.6605 
   18200    297.75161   -1128.7141    6471.6068    11703.899    1873.8296 
   18300    304.15057   -1123.4744    6442.2686    11816.504    1855.4597 
   18400    297.00666   -1116.6887    6501.0303    11729.433    1773.2676 
   18500     300.5863   -1116.9522    6477.8775     11782.49    1796.3802 
   18600    298.97217   -1120.3609    6385.8822    11652.603    1823.1885 
   18700    297.00819   -1118.7994    6445.5938    11671.919    1863.7745 
   18800    302.38487    -1118.775    6436.1963     11777.41     1788.902 
   18900    298.05493   -1124.7898     6432.516    11675.213    1830.1388 
   19000    304.39189   -1125.7905     6488.243    11865.318    1866.9529 
   19100    302.51644    -1129.426    6386.3777    11719.751     1852.428 
   19200     297.9961   -1128.4045    6399.3558    11637.181     1889.133 
   19300    306.50671   -1126.5056     6378.378    11799.918    1889.1849 
   19400    298.23432   -1131.9739    6318.0101    11557.355    1837.4221 
   19500    299.71334   -1125.0267    6460.6257    11738.515    1950.8854 
   19600    303.49269   -1120.9944     6373.745    11736.406    1931.4529 
   19700     300.1207   -1126.3771    6425.1707    11710.412    1986.8555 
   19800    299.22611   -1121.2442      6379.83    11651.093    1971.3339 
   19900    295.66897   -1125.1212    6348.4388    11539.832    2006.8947 
   20000    292.28644   -1132.8314    6321.8389    11433.259    1922.6294 
   20100    302.59254   -1132.9589    6390.3504    11721.817    1939.9965 
   20200    299.88558   -1132.8912    6415.4036    11689.108    1895.4699 
   20300    299.16199   -1138.9702    6388.2189    11640.386    1911.5958 
   20400    296.21554   -1133.8292    6494.2178    11688.579    1923.8882 
   20500    299.58583   -1126.4548    6421.8759    11695.613    1879.8739 
   20600     298.8443   -1129.8445    6347.3669    11601.872    1791.9439 
   20700    299.13927   -1123.5604    6456.4418    11723.533    1860.3981 
   20800    306.00449   -1129.3883    6394.6472    11802.575    1847.6971 
   20900    302.42688   -1126.6821    6413.1846    11747.389    1923.7116 
   21000    302.89039    -1129.305    6424.4703    11765.954    1846.3011 
   21100    298.15257   -1131.1942    6378.0795    11616.457    1798.9575 
   21200    297.08971    -1130.523    6435.8508    11652.194    1830.5465 
   21300     303.7867   -1130.5022     6432.956    11792.391    1846.5106 
   21400    295.10336    -1134.809    6413.7049    11583.326    1820.6476 
   21500    299.75265   -1137.3603    6380.5802    11646.975    1827.0725 
   21600    298.79342   -1136.4342    6347.7627    11594.591    1872.5505 
   21700    300.99426   -1138.1108    6468.1108     11760.28    1948.9241 
   21800    303.52063    -1135.207    6426.9696    11776.015    1947.2704 
   21900    293.01814   -1132.5228    6403.7443    11531.104    1853.1975 
   22000    303.89025   -1126.7229    6447.4489    11812.875    1948.6836 
   22100    297.68021    -1130.695    6331.7178    11560.504     1886.434 
   22200    300.57742   -1136.8519     6234.105    11518.629    1791.2189 
   22300    297.99897   -1140.6701     6486.688    11712.309    1879.3437 
   22400    303.86109   -1141.9869    6547.2524    11896.791    1897.1486 
   22500    301.31481   -1139.8075    6448.6991     11746.02    1838.1597 
   22600    293.45588   -1135.0663    6557.5784    11691.747     1932.439 
   22700    304.37936      -1139.9    6218.8751    11581.573    1902.4487 
   22800    300.36694   -1136.2023    6360.4407    11641.117    1939.5507 
   22900    297.12607   -1131.2084    6491.0069    11707.441    1895.0611 
   23000    303.14993   -1132.4578    6432.4082    11776.283    1878.5033 
   23100     301.3973   -1133.8974    6524.5448    11829.538    1943.6673 
   23200    300.44576   -1130.9606    6426.6901    11714.292     1888.816 
   23300    295.57746   -1130.1345    6385.6764    11570.101    1903.4835 
   23400    301.68976   -1130.5465    6380.8461    11695.438     1855.896 
   23500    294.20878   -1132.3504    6481.9859    11634.955    1882.8356 
   23600    303.54842   -1136.3972    6427.6549    11776.104    1859.4334 
   23700    300.88276   -1138.6438    6547.6499    11836.905    1929.0304 
   23800    296.82443   -1142.3894    6432.8967    11631.706    1893.5485 
   23900    302.67282   -1139.1402    6389.0391    11716.039    1931.2599 
   24000     296.5116   -1142.6888    6435.8468    11627.673    1882.1381 
   24100    301.19565   -1142.8655    6462.1869    11753.904    1872.0239 
   24200    301.39675   -1150.9515    6408.2078    11696.136    1883.3352 
   24300    300.92185   -1151.7189    6375.9879    11653.003    1881.8089 
   24400     298.5555   -1156.7663    6294.7275    11516.141    1817.0683 
   24500     296.0309   -1162.7298    6345.4491    11506.965    1773.7611 
   24600    300.26501   -1160.4309    6448.8337    11703.104    1768.6765 
   24700    300.92221   -1150.4394    6345.3933    11623.695    1741.1737 
   24800    296.89286    -1159.226    6412.4617    11595.896    1887.0048 
   24900    296.19894   -1151.6603    6377.3566    11553.532    1875.2927 
   25000    303.13779   -1157.2225    6327.3688     11646.22    1838.9552 
   25100    297.56404   -1164.2936    6294.7297    11487.435    1797.6894 
   25200    297.17604   -1163.0419    6403.3737    11589.042      1833.08 
   25300    298.69647   -1163.1493    6479.3223    11697.365    1885.5714 
   25400    300.98924   -1164.3379    6350.1787    11616.014    1835.6775 
   25500    299.42352   -1156.8908    6508.3339    11748.167    1908.9166 
   25600    305.16274   -1159.5802    6358.9569     11718.71    1840.6896 
   25700     296.6278   -1152.9717    6346.6293    11530.655    1886.5309 
   25800    300.86185   -1146.1902    6445.2205    11726.482    1954.1701 
   25900    297.39846    -1140.727    6411.0457     11623.78    1942.3775 
   26000    296.36912   -1145.0682    6376.5667     11562.97    1919.1527 
   26100    299.42078   -1132.8224    6360.2204    11624.064    1848.9935 
   26200    303.67064   -1132.1713    6478.0985    11833.384    1914.6223 
   26300    293.95145   -1133.0565    6495.6387    11642.404    1894.6213 
   26400    302.48372   -1133.8799    6474.0973    11802.318    1914.0262 
   26500    296.25952   -1126.1634    6346.6975    11549.664    1798.1315 
   26600    299.12029   -1127.9547    6431.8666    11694.158    1901.0392 
   26700    300.73889   -1127.4889    6460.2245    11757.561    1884.3075 
   26800    305.99163   -1126.3308    6381.5208    11792.232     1842.061 
   26900    298.19147   -1124.4404    6454.2631    11700.226    1882.5402 
   27000    298.66918   -1119.5883    6459.8361    11720.857    1857.0728 
   27100    294.67967   -1120.0433    6447.1988    11622.535    1788.3204 
   27200    306.54819   -1121.3364    6414.7574    11842.353    1817.6818 
   27300    299.54104    -1118.022    6471.6899    11752.903    1843.9924 
   27400    304.73851   -1118.1963    6484.5295    11876.604    1850.0911 
   27500      301.391   -1115.1186    6436.7169    11760.354    1847.3533 
   27600    300.01782    -1111.144    6342.5327    11640.809    1818.7945 
   27700    303.29929   -1115.1797    6482.3344    11846.679    1876.5219 
   27800    297.40028   -1114.2265    6504.7655     11744.04    1787.7677 
   27900    295.98517    -1113.982    6432.2144    11641.502    1828.6247 
   28000     302.6331   -1114.2854    6421.0543    11772.061    1913.4205 
   28100    303.01201   -1111.4109    6383.8835    11745.859    1867.3476 
   28200    298.76145   -1114.0055    6490.5487    11759.123    1864.4209 
   28300    298.55883   -1113.3035    6440.0743    11705.022    1850.4251 
   28400    296.12017   -1114.7116    6418.0473    11629.489    1912.8445 
   28500    300.89759   -1120.0802    6378.1493    11686.284    1920.1226 
   28600    302.71305   -1119.2309    6542.5763    11890.345    1921.4263 
   28700    300.67626   -1117.2642    6556.9447    11863.168    1914.9042 
   28800    301.14486    -1121.674    6305.3898    11617.214    1767.9616 
   28900    302.81618   -1116.2708    6456.8958    11809.828    1906.9725 
   29000    300.38984   -1118.3248    6396.3016    11695.345    1867.7666 
   29100    301.80222   -1125.6543    6396.7603    11718.647    1923.8802 
   29200    303.83664   -1124.5603       6506.7    11873.143    1949.9509 
   29300    299.89778   -1128.3374    6412.1928    11690.711    1804.7472 
   29400    292.79912   -1128.8179    6410.6436     11537.03    1775.7123 
   29500    301.72688   -1133.6309    6493.0623    11805.363    1849.1027 
   29600    298.12086   -1135.0555    6455.9471    11689.786    1762.4386 
   29700    300.92589   -1136.6252    6522.4296    11814.624    1857.2585 
   29800    296.86223   -1143.1506    6252.9039    11451.759    1784.2227 
   29900    299.69225    -1140.429     6446.624     11708.66    1897.7797 
   30000    299.28653   -1141.4275    6489.6408    11742.011    1900.6526 
   30100     303.1908    -1143.959    6370.1648    11703.412     1836.337 
   30200    295.48624   -1143.0974    6416.7281    11586.241    1860.1773 
   30300    300.79005   -1147.0651     6320.446    11599.299    1892.5028 
   30400    303.40252   -1153.6774     6398.444    11726.496    1901.9082 
   30500     298.9108   -1157.5305     6379.421    11607.661    1847.0041 
   30600    299.44071   -1158.4591    6357.1693    11595.802    1810.8966 
   30700    305.89164    -1161.252    6370.3248    11743.978    1883.0471 
   30800    299.97661   -1150.9746     6390.744    11648.309     1844.361 
   30900    298.48303   -1155.1574     6390.769    11612.244    1901.0876 
   31000    299.05396   -1147.1736    6405.2771    11646.933    1953.3848 
   31100    301.52814   -1147.9861    6412.4308    11706.131     1888.198 
   31200    299.40251    -1134.973    6366.2687    11627.571    1868.3758 
   31300    299.35744   -1145.3623    6378.3497      11628.3    1941.0176 
   31400    301.84416    -1145.964      6346.34    11648.813    1871.8053 
   31500    297.95035   -1142.6453    6488.5645    11711.171    1930.9115 
   31600    299.23198   -1148.8204    6427.0028    11670.815    1914.4455 
   31700     302.3363   -1142.8401    6384.7714    11700.883    1834.2376 
   31800     297.4715   -1146.2579    6418.4853     11627.25    1843.9921 
   31900    300.73721   -1132.6946    6531.1059      11823.2      1902.74 
   32000    297.56344   -1135.5905    6420.3591    11641.755     1894.478 
   32100    300.89162   -1132.9898    6383.9812    11679.079    1843.4992 
   32200    295.95993   -1128.8488    6443.7353    11637.616    1847.9417 
   32300    303.18499   -1124.6083    6445.6234    11798.097    1904.0688 
   32400    295.68643   -1125.1877    6392.0951    11583.794    1856.0736 
   32500    301.63919   -1124.9865    6450.7778     11769.85    1861.7047 
   32600    301.61709   -1126.0693    6538.6943    11856.211    1916.5884 
   32700    302.93686   -1124.9101    6415.5622    11762.433    1833.8402 
   32800     299.4195   -1126.8119    6462.2537     11732.08    1807.3339 
   32900    298.93835   -1131.6151    6470.7523    11725.496    1859.3061 
   33000    302.44595   -1136.3074     6456.275    11781.261    1929.7266 
   33100    297.33162    -1135.851     6460.742    11676.925    1880.9781 
   33200     303.2405   -1143.8993    6428.5643    11762.933    1910.3582 
   33300    298.41595   -1149.5365    6365.9585    11591.621     1845.613 
   33400    300.57206   -1154.2901    6458.7866    11725.757    1854.1313 
   33500    299.24392   -1155.2977    6439.7324    11677.322    1830.3826 
   33600     304.8726   -1152.4809    6341.4717    11702.126    1863.7412 
   33700    299.72171   -1148.3333    6296.0777    11550.839    1741.8079 
   33800     296.2028   -1148.7409    6408.7478    11587.925    1777.0616 
   33900    300.64652   -1149.5527    6439.5366    11712.836    1836.5909 
   34000    297.26078   -1151.3775    6358.2578    11557.401    1828.1285 
   34100    300.91283   -1152.6891    6403.5667    11679.419    1841.6266 
   34200    301.53418   -1147.4795    6347.2109    11641.547      1875.09 
   34300    294.83332   -1162.9796    6334.8247    11470.507    1889.1316 
   34400    303.39606    -1158.437    6482.4457      11805.6    1896.8415 
   34500    297.28206   -1158.0532    6363.0035    11555.925    1830.7592 
   34600    304.13433   -1158.7143    6439.4971    11778.146    1876.1422 
   34700    295.50212   -1159.3619    6433.8856    11587.473    1840.7531 
   34800     295.6447     -1150.73    6352.3264    11517.592    1870.1253 
   34900    302.88782   -1152.7398    6327.6807    11645.674    1892.8069 
   35000     296.6167    -1147.041     6458.479    11648.199     1875.675 
   35100    300.68313   -1143.8883    6479.9051     11759.65    1832.5143 
   35200    297.81396   -1143.6531    6423.3847     11642.07    1837.7826 
   35300    300.04042   -1135.8031    6416.6294     11690.73    1899.1553 
   35400    298.89126   -1136.8618    6358.0334    11606.525    1834.8759 
   35500    295.44738   -1135.3993    6439.7039    11616.084    1816.3048 
   35600    303.37856   -1132.8573    6432.5141    11780.874    1837.5156 
   35700    298.78506   -1132.5831    6486.8915    11737.393    1858.5531 
   35800    299.54091   -1131.0904     6526.011    11794.152    1860.7112 
   35900    301.38864   -1136.4811    6418.9561    11721.181    1820.2893 
   36000    300.05318    -1130.405    6361.1168    11640.888    1706.9734 
   36100    302.28918   -1136.4784    6470.5598    11792.026    1692.8828 
   36200    298.55074   -1134.1827     6457.935    11701.831    1763.1665 
   36300    302.28283   -1134.2546    6480.0099    11803.564    1811.6835 
   36400    299.71797   -1132.8065    6451.1518     11721.36    1789.4071 
   36500    305.48874   -1132.8043    6367.0671    11760.561    1838.0771 
   36600    298.12246   -1138.3036    6467.4197    11698.045     1863.785 
   36700    301.25163   -1131.6443    6507.1542    11811.289    1886.9718 
   36800    299.44018   -1138.9561    6336.8869    11595.011    1828.7123 
   36900    295.60983   -1138.8607    6396.7976    11573.187    1850.7742 
   37000    300.35709   -1142.7093    6499.3463    11773.305     1858.779 
   37100    303.30031   -1137.7711    6388.6864    11730.461     1803.285 
   37200    302.50656    -1138.117    6402.0386     11726.51    1815.5651 
   37300    298.66837   -1140.0454    6464.1955    11704.742    1832.8447 
   37400    296.87647   -1143.7939    6420.5416    11619.058    1831.3947 
   37500    297.90192   -1146.6919    6348.4284    11565.954    1785.7556 
   37600    302.64079   -1150.1566    6410.3129    11725.612    1869.0468 
   37700    295.37099   -1153.1191    6387.7918    11544.821    1826.3962 
   37800    299.75098   -1152.7873    6458.5232    11709.456    1859.6485 
   37900    299.44076   -1151.1128    6296.0187    11541.998    1837.8067 
   38000    299.40178   -1143.7952    6401.4152     11653.88    1932.8605 
   38100    298.23469   -1144.2667    6413.8352    11640.895    1861.4598 
   38200    301.40311   -1142.8514    6424.1393    11720.303    1824.0157 
   38300    302.29058   -1153.3171    6366.6495    11671.307    1828.8749 
   38400    299.49481   -1153.1365     6318.726    11563.837    1747.5131 
   38500    299.27706   -1152.1559    6451.3802    11692.819    1783.5005 
   38600    297.07591   -1155.5769    6410.3733    11601.367    1835.4213 
   38700    298.94361   -1151.7229    6295.3325    11530.081    1805.0431 
   38800    301.53336   -1141.5623    6411.3291    11711.564    1887.8841 
   38900    300.17681   -1143.5899     6435.044    11704.271    1929.7263 
   39000    304.24426   -1143.8552    6343.5431      11699.4    1845.6701 
   39100    299.15546   -1137.7176    6467.1914    11720.471    1846.4664 
   39200    299.60569    -1141.865    6420.2912    11679.042    1824.4403 
   39300    300.28797   -1142.7399    6494.6081     11767.06    1782.7727 
   39400    303.30417   -1141.7031    6465.7747      11803.7    1823.4688 
   39500    301.52781   -1141.4265    6446.3841    11746.637    1891.8448 
   39600    296.66156   -1140.9841    6352.4059    11549.141    1797.5969 
   39700    293.57779   -1137.1344    6487.7573    11622.462    1753.3643 
   39800    305.98066   -1134.6393    6532.6507    11934.819    1816.5541 
   39900    299.61501   -1129.2334    6481.1262    11752.708    1782.3205 
   40000     301.1291   -1133.7993    6401.2234    11700.585    1769.3994 
   40100     300.8489   -1129.7714    6449.7254    11747.129    1807.7654 
   40200    295.49896   -1130.9545    6401.6406    11583.568    1785.6233 
   40300    304.28253   -1130.9964    6508.3621    11877.895    1838.7057 
   40400    300.79389   -1134.4652    6464.1424    11755.677    1825.5866 
   40500    294.27574   -1139.4827     6435.416    11582.683    1910.8566 
   40600    296.56553   -1142.2773    6414.4922    11607.882    1846.3579 
   40700    303.15928   -1141.2782    6368.6626    11703.917     1829.308 
   40800    298.05305   -1151.4977    6424.4425    11640.391    1886.4265 
   40900    304.15855   -1152.8039    6392.8954    11737.972    1868.3657 
   41000     299.2365   -1148.7302    6412.6389    11656.637    1946.6416 
   41100    296.21184   -1155.3217    6396.5632    11569.353    2016.1225 
   41200    303.08022   -1156.2752    6255.2733    11573.842     1886.131 
   41300    299.43066   -1158.2519    6485.3736    11723.998    1987.7356 
   41400    302.33659   -1154.9646    6440.5958    11744.588     1924.586 
   41500    294.32653   -1151.6338    6371.3264    11507.527    1907.2142 
   41600    299.70386   -1155.3861     6323.496    11570.823    1892.4784 
   41700     304.2498   -1156.0028    6421.0331    11764.861    1943.0635 
   41800      296.033   -1157.0405    6342.6105    11509.861    1926.5255 
   41900      302.612    -1162.721    6403.8911    11706.011    1967.8761 
   42000    301.15433   -1160.3844    6443.9925    11717.308    1926.5447 
   42100    297.44731   -1155.7667     6371.773    11570.512    1925.3351 
   42200     300.1277   -1158.6426    6307.3353     11560.46    1915.8291 
   42300    296.85135   -1157.6015    6335.3739    11519.546    1854.6864 
   42400    305.41769   -1157.5298    6515.5057    11882.756    1934.1721 
   42500    297.51458   -1153.3141    6455.4906    11658.119    1874.0911 
   42600    299.13123   -1146.2174    6460.5562    11704.819    1880.9014 
   42700    299.84895   -1148.6052     6334.593    11591.801    1831.1209 
   42800    297.81781   -1145.9912     6467.255    11683.684    1913.8424 
   42900    302.43004   -1145.1397    6437.2054     11753.02    1881.3265 
   43000    299.15808   -1142.3785    6403.4864    11652.161    1792.1675 
   43100    298.55781    -1139.419    6604.0052    11842.816    1867.0317 
   43200    300.29514   -1134.7752    6538.3629    11818.933    1794.6363 
   43300    302.10105   -1135.3123    6389.3071     11707.92    1839.8916 
   43400    298.89509   -1132.9904    6364.1645    11616.609    1852.7823 
   43500    302.17096   -1137.5515     6442.692    11760.559     1890.264 
   43600    297.72838   -1130.9693     6497.621    11727.162    1872.0256 
   43700    299.76104   -1138.4343     6482.449    11747.949    1889.6793 
   43800    297.06738   -1139.3166    6371.3596    11578.432    1855.4208 
   43900    300.98782   -1140.1894    6391.8732    11681.827    1871.1054 
   44000    298.52773    -1138.242    6447.8543    11687.199     1784.907 
   44100    298.06135   -1142.1412    6440.3284    11665.811    1791.2522 
   44200    297.88384   -1137.8999    6437.5402    11663.472    1842.0899 
   44300    302.10124   -1145.2021    6312.5648    11621.292    1772.4207 
   44400     299.4864   -1138.6701    6502.9548    11762.352    1901.8182 
   44500    300.19454   -1142.4756    6444.0623    11714.783    1922.0331 
   44600    297.67439   -1140.9293    6364.8589    11583.286    1855.0215 
   44700    301.19109   -1148.0934    6335.6801    11622.072    1888.7942 
   44800    298.20162   -1153.8945    6364.0225    11580.748     1859.671 
   44900    302.70594   -1149.4764    6446.9721    11764.344    1802.0007 
   45000    297.63001   -1154.3021    6437.1868    11641.293    1811.0832 
   45100    297.35438   -1159.1857    6399.6674    11593.002    1901.4064 
   45200    302.98006   -1158.2286    6359.3204    11673.796     1880.322 
   45300    302.26003   -1148.7966    6355.3499    11663.875    1831.3903 
   45400    298.51636   -1154.4231    6439.0082    11661.929    1954.7837 
   45500    294.69364   -1153.0867    6328.1291     11470.72    1920.1369 
   45600    304.30119   -1154.7789     6320.251      11666.4    1887.0804 
   45700    297.11905   -1148.3978    6473.2292    11672.324    1992.3545 
   45800    298.12567   -1152.7393    6357.0305    11573.289    1900.3943 
   45900    297.52788   -1156.2223    6340.9751    11540.979     1909.211 
   46000    304.52946     -1154.68    6332.1815    11683.306    1901.4436 
   46100    298.34654   -1152.3998    6494.6578    11715.974    1962.8303 
   46200    301.76905   -1147.6954    6397.5753    11696.713     1830.303 
   46300     299.0602   -1148.8569    6418.3206    11658.426    1765.0599 
   46400    300.35127   -1141.0293    6541.2302    11816.745    1927.8767 
   46500    303.06106   -1142.0459    6376.0559    11708.445    1869.9251 
   46600    296.11871   -1144.1838     6371.634    11553.572    1827.4199 
   46700    301.62699   -1139.5059     6417.497    11721.789    1839.6683 
   46800     301.7176    -1143.532    6547.4437    11849.645    1953.5403 
   46900    303.26252   -1140.4877    6392.7276    11730.978    1812.9004 
   47000    301.83028   -1141.9896    6424.9225    11731.074    1873.7694 
   47100    296.64332   -1139.7574    6464.6553    11662.227    1889.9877 
   47200    300.80763   -1136.4309    6415.1632    11705.026    1836.1077 
   47300    300.95936   -1134.8153    6477.4928    11772.213    1891.7107 
   47400    296.04699   -1136.1092    6422.6414    11611.122    1885.6345 
   47500    301.36554   -1140.4541    6455.1564    11752.915    1835.9658 
   47600    298.86446   -1141.3885    6344.2997    11587.692    1801.4125 
   47700    299.35728   -1142.5783    6381.9418    11634.672    1884.9518 
   47800    300.23029   -1140.9905    6520.6211     11793.59    1884.0634 
   47900    296.39412   -1141.8339    6456.5303    11646.702    1839.3926 
   48000    302.49831   -1145.6949    6301.8398    11618.557    1908.6214 
   48100    300.58972   -1151.5073    6409.5193     11679.65    1945.7879 
   48200    294.76248   -1144.6748    6408.8503    11561.324    1903.5263 
   48300    302.44359   -1149.0001    6369.1821    11681.425    1882.6082 
   48400    297.59322   -1158.5738    6452.7839    11651.833    1918.8129 
   48500    302.46316   -1154.3494    6435.2898    11742.602     1928.052 
   48600    302.89974   -1150.8669    6383.9922    11704.114    1904.8426 
   48700    300.28168   -1157.7422    6449.1134    11706.429    1949.7307 
   48800    301.13939   -1157.6374    6404.9464     11680.69    1898.6172 
   48900    301.71989   -1153.1797    6421.0072     11713.61    1879.9527 
   49000    300.95929   -1153.8104    6475.6194    11751.342    1942.3691 
   49100    295.29561   -1156.7879    6401.1949    11552.945    1895.2417 
   49200     303.5108   -1155.3644    6402.4631    11731.141    1915.2051 
   49300    293.73185    -1159.267    6475.6215    11591.485    1893.6428 
   49400    301.27566   -1158.6676    6416.3627    11693.987      1949.98 
   49500    296.26857   -1160.3711    6302.2692    11471.222    1879.2218 
   49600    300.88136   -1155.0746    6399.3081    11672.102    1844.1653 
   49700    297.87894   -1149.7678    6434.7313     11648.69    1840.4784 
   49800    296.82666   -1149.4631    6471.7103    11663.494    1857.8599 
   49900    305.08934   -1142.8119    6591.3209    11966.275    1887.8561 
   50000    294.92629   -1150.0305    6402.3901    11553.007    1835.1587 
   50100    303.02294   -1145.0572    6295.8524    11624.415    1878.9593 
   50200    295.81559   -1141.1868    6425.1962    11603.655    1851.4748 
   50300    303.50921   -1139.2949    6462.1395    11806.853    1891.4104 
   50400    294.87398    -1141.515    6442.7422    11600.757    1878.2759 
   50500    299.89261   -1138.0107    6461.0132    11729.748    1879.5062 
   50600    291.16645   -1138.1645    6420.5201     11502.68    1800.1534 
   50700    301.33401   -1142.9655    6422.4058    11716.979    1843.7012 
   50800    299.91428     -1142.55    6417.5904    11682.249    1850.1147 
   50900    300.88276   -1140.9043    6515.3826    11802.377    1870.3989 
   51000    301.28727    -1139.384    6469.0471    11766.203    1898.9672 
   51100    299.81784   -1145.2439    6334.8803    11594.785    1931.9741 
   51200    300.15692   -1137.3973    6433.8855     11708.88     1942.107 
   51300     301.0226   -1143.1533    6466.0219    11753.755     1998.095 
   51400    302.69144   -1147.0901    6403.1068    11722.555    1963.5076 
   51500    303.09951    -1148.843     6341.028    11667.441    1930.4735 
   51600    300.72182   -1152.8624    6472.8884    11744.486    1989.2062 
   51700     300.4509   -1152.1673    6304.1725    11570.678    1899.6152 
   51800    299.60123   -1153.5136     6479.049    11726.056    1966.3141 
   51900    295.76054   -1153.3095     6375.693    11540.854    1830.5332 
   52000    298.35095   -1156.5233    6433.0846    11650.372    1911.0805 
   52100    299.36056   -1160.1277    6391.5888     11626.84     1876.981 
   52200    301.14427   -1156.3201    6381.9983    11659.164    1872.1276 
   52300    300.97059   -1157.2225    6426.8086    11699.361    1848.8597 
   52400    301.24127   -1163.6853    6467.1831    11739.055     1878.472 
   52500    298.44405   -1157.2291    6374.0338    11592.604    1900.0119 
   52600    303.80428   -1156.8424    6310.2536    11643.724    1904.3125 
   52700    300.97669   -1155.2287    6529.2114    11803.888    1964.6992 
   52800    297.07274   -1146.4876    6392.8532    11592.869     1863.982 
   52900    300.34682   -1149.4781    6417.0334    11684.004    1900.8559 
   53000    301.30044   -1149.0243    6459.3216    11747.119    1937.7048 
   53100    297.67282   -1153.7821    6351.9264    11557.467    1890.7188 
   53200    296.91918   -1148.3878    6497.0563    11691.891    1974.6005 
   53300    304.72359   -1147.0686    6306.2645    11669.148    1927.9816 
   53400     296.1018   -1144.5874    6433.9867     11615.16    1945.4182 
   53500    303.17648   -1142.1701    6382.1484    11716.879    1881.3477 
   53600    297.46164   -1137.6808    6456.7214    11673.852    1931.3077 
   53700     303.3416   -1143.3191    6400.8813     11737.99    1879.8677 
   53800    293.27308   -1138.4871    6495.4208    11622.263    1892.1937 
   53900    299.73734   -1136.0257    6428.5057    11695.908    1926.7621 
   54000     301.8935   -1132.9862     6367.368    11683.873    1874.5195 
   54100    301.10939    -1133.588    6497.2623    11796.414    1931.2433 
   54200    299.01865   -1139.8056    6448.7204    11696.989    1964.9583 
   54300    298.96922   -1139.1165    6474.4844    11722.386    1932.6419 
   54400    304.06717    -1138.069    6485.1603     11843.02    1868.0222 
   54500    298.92235   -1139.2103    6389.1054    11635.913    1849.4527 
   54600    296.29197   -1141.0351    6514.4467    11703.235    1911.2194 
   54700    303.07082   -1139.4434    6446.9733    11782.173    1881.5562 
   54800    297.65892   -1144.0302    6479.0184    11694.014    1898.3122 
   54900    304.45576    -1151.439    6356.6948    11709.486    1890.2827 
   55000    298.46166    -1151.041    6383.2172    11608.352    1980.9496 
   55100    299.51575   -1148.9308    6359.4869    11609.251    1926.0589 
   55200     298.8977   -1152.4061    6423.9961    11657.081    1882.6656 
   55300    300.23215   -1157.3396    6438.0868    11694.746     1908.417 
   55400    302.53192    -1156.185    6369.4704    11676.416    1927.9261 
   55500    303.78042   -1159.8406    6375.2586     11705.22    1998.0626 
   55600    299.51828   -1162.8898    6342.1464    11578.005    1930.4549 
   55700    300.84136   -1159.6235    6486.5744    11753.965    1976.7717 
   55800    301.18723   -1161.3722    6447.2894     11720.32    1950.4237 
   55900    301.75498   -1164.5221    6369.1671    11651.177    1921.9754 
   56000    301.75086   -1164.5131    6422.9707    11704.902    1922.8299 
   56100    299.92823   -1160.9833    6384.1899    11630.713    1915.2275 
   56200    295.94837   -1158.1515    6404.8639    11569.195    1907.0929 
   56300    305.27068   -1159.3696    6450.8508    11813.121    1965.8213 
   56400    297.10024   -1150.2385    6423.9617    11620.814    1973.4555 
   56500    301.80731   -1155.4465    6411.2381    11703.442    1987.3045 
   56600    303.25031   -1157.7642    6405.4419    11726.155    1965.4769 
   56700    299.79262   -1156.4475    6368.1311    11616.293     1894.751 
   56800    305.31552    -1154.584    6405.8211    11773.835    1899.3828 
   56900    299.11348   -1144.3306    6472.0383    11717.808    1902.5221 
   57000    300.11837   -1143.5395     6492.683    11760.712    2012.2753 
   57100    299.38034   -1144.8284    6381.6307    11632.604    1965.7577 
   57200    294.04474   -1140.1479    6429.6941    11571.361    1923.5372 
   57300    304.17519   -1138.7131    6585.1785    11944.702    1964.5774 
   57400    294.16394   -1138.8331    6465.3887    11610.917    1926.9041 
   57500    302.93285   -1138.7483     6445.839    11778.786    1916.0757 
   57600    305.19865   -1136.2329    6445.6847    11829.553    1898.7645 
   57700    298.10127   -1135.5997    6434.9035     11667.78    1972.3508 
   57800    299.74933   -1140.5107    6396.5152    11659.689    1958.0475 
   57900    300.80514   -1136.3405    6510.6181    11800.518    1927.1261 
   58000    296.00463    -1141.193    6409.5472    11592.039     1914.111 
   58100    299.90338   -1143.0592    6343.3786    11607.295    1905.5336 
   58200    300.92216   -1144.9055    6474.6174    11758.452    1942.8293 
   58300    299.28804   -1153.6942    6453.1266    11693.262    1894.4671 
   58400    304.95483   -1144.3835    6468.4154    11838.924    1932.7484 
   58500    300.04135   -1149.7389    6512.4719    11772.656    1912.5841 
   58600    298.98899   -1154.0726    6400.6463    11634.015    1870.8327 
   58700    303.98397    -1153.141    6399.6471    11740.657    1887.4133 
   58800    301.44857   -1151.6598    6340.4145    11628.741     1855.533 
   58900    304.02938   -1156.9771     6315.633    11653.777    1922.8965 
   59000    299.49726   -1159.0078    6449.6251    11688.917    1985.2749 
   59100    299.17537    -1161.344    6439.2199    11669.299    1867.9491 
   59200    299.23563   -1162.3809      6448.23    11678.559    1888.4337 
   59300    301.45971   -1156.0778    6408.0131     11692.16    1946.2385 
   59400    295.00068   -1156.5679    6450.0884    11595.757    1971.5095 
   59500    300.54436   -1155.9002    6283.5878    11548.357    1922.6661 
   59600    299.09011   -1156.2081    6322.0118    11555.405    1974.6374 
   59700    298.83677   -1156.1613    6430.4939    11658.522    1943.3567 
   59800    302.12424   -1155.5115     6406.727    11705.636    1929.4706 
   59900    302.81308   -1156.4247    6354.5252    11667.237    1955.9492 
   60000    302.20316   -1155.6012    6423.6738    11724.179    1985.8594 
   60100    299.71161   -1155.5359    6337.3136    11584.656    1874.4525 
   60200     297.8377   -1151.1033    6471.3602    11683.102    1944.0784 
   60300    299.41451   -1149.7648    6398.9302    11645.697    1904.6513 
   60400    296.69054   -1141.9204    6415.9811    11612.399    1909.4564 
   60500     302.4313   -1145.8553    6320.4138    11635.539    1896.1095 
   60600    297.02933   -1144.6498    6442.9184    11643.845    1974.5513 
   60700    300.36066   -1138.1269    6444.8115    11723.429    1956.6174 
   60800    300.99442   -1144.4343    6399.3538    11685.203    1915.4113 
   60900    298.81364   -1143.5155    6615.0246    11855.204    1969.0482 
   61000    298.10132   -1137.7121    6449.9767    11680.742    1877.8109 
   61100    303.03692   -1144.6516    6460.7883    11790.056     1903.257 
   61200    300.01312   -1144.1678    6401.0924    11666.244    1848.2334 
   61300    299.59716   -1143.2021     6494.394    11751.625    1885.7312 
   61400    296.92521   -1146.8798    6481.5075    11677.979     1849.729 
   61500    301.64274   -1139.0873    6431.9064    11736.953    1846.0532 
   61600    295.53511   -1144.1426    6476.6629    11646.174    1867.8298 
   61700    300.96701   -1146.2253    6397.3417    11680.815    1848.1759 
   61800    301.87302   -1152.6115    6382.1045    11678.547    1850.4547 
   61900    293.01929    -1151.817    6487.4551    11595.546    1934.4995 
   62000    301.51438   -1151.4145    6356.2138    11646.191    1888.1325 
   62100    295.50177   -1157.3376    6429.4141    11585.018    1880.1256 
   62200    302.06678   -1160.3482    6336.6654     11629.51    1866.4798 
   62300    298.62514   -1158.7923    6389.5351    11610.411    1956.3499 
   62400    302.19889   -1163.3689    6414.6199    11707.267    1876.0173 
   62500    300.52482   -1161.8158    6482.6112    11741.047    1916.1058 
   62600    296.49658   -1159.3603    6389.8567    11564.691    1965.0201 
   62700     299.3241   -1159.8046    6272.1303    11506.926    1855.5867 
   62800    298.56153    -1155.441    6463.4927    11686.361    1926.1436 
   62900    298.62247   -1162.4742     6380.226    11597.363    1921.2649 
   63000    303.33576   -1152.7386    6447.8018    11775.366    1930.0032 
   63100    298.01747    -1155.533    6364.1525    11575.305    1894.2903 
   63200    294.03764   -1157.1856    6297.0056    11421.483    1914.5342 
   63300    302.51122   -1159.2651    6351.0734    11654.496    1951.5814 
   63400    303.99042   -1155.3394    6313.9718    11652.921    1845.7203 
   63500    297.59391   -1158.0292    6448.6633    11648.271    1870.6005 
   63600     304.6621   -1150.5813    6423.2463    11781.303    1885.4477 
   63700    296.01908   -1153.4858    6336.5404    11507.048     1869.162 
   63800    295.58059   -1151.0974    6424.9105    11588.439    1899.4535 
   63900    303.85953   -1151.2347    6467.7413    11807.999    1913.2846 
   64000    303.20271   -1141.1228    6504.3199    11840.658     1933.328 
   64100    298.79685   -1142.7811    6412.5322    11653.087    1818.8212 
   64200    299.21752   -1139.9302    6370.4066      11622.8    1824.6127 
   64300    300.54212   -1143.3675    6438.5787    11715.832    1913.9522 
   64400    299.99847   -1142.9227    6456.0058     11722.09    1886.6301 
   64500    300.03431   -1143.8859    6465.8876    11731.774     1854.729 
   64600    301.81234   -1148.4029    6499.6816    11799.036    1939.3956 
   64700    298.54872   -1146.0177    6439.6341    11671.652    1902.0263 
   64800    297.94511   -1146.6193    6421.6137    11640.135     1928.932 
   64900    295.64172   -1150.5158    6308.3734    11473.789    1914.2438 
   65000    298.49773   -1153.0521    6384.1107    11608.005    1947.8914 
   65100    303.70212   -1153.2774    6416.8579     11751.71    1881.0803 
   65200    305.04801   -1152.6306    6528.7429    11892.995    1987.1188 
   65300    298.60621   -1154.5515    6400.1487    11624.861    1866.3515 
   65400    297.98672   -1150.5546    6384.9292    11600.404     1913.797 
   65500    300.39503   -1151.3169    6430.6509    11696.813    1986.2329 
   65600    300.92138   -1152.3979    6366.1494    11642.475    1966.7305 
   65700    300.64699   -1157.8588    6417.4766    11682.479    1888.5062 
   65800    297.06088   -1156.3109    6451.3722    11641.311    1970.5212 
   65900    305.76988   -1164.5256    6384.9565    11752.735    1912.2989 
   66000     298.9572   -1156.5258    6429.9534    11660.189     1904.246 
   66100    302.34839   -1162.0805    6441.2956    11738.425    1982.9766 
   66200    300.83801   -1157.0758    6416.6096    11686.476    1990.1112 
   66300    301.29096   -1157.8716    6300.0587    11578.806    1974.0979 
   66400    298.01444   -1158.9655    6345.2898    11552.946    1929.7225 
   66500    296.14943   -1152.9234    6505.5797    11679.434    1972.6967 
   66600     303.2744   -1156.1556    6425.2762    11748.113    1928.9797 
   66700    297.86337   -1159.6741    6424.7921    11628.512    1989.6338 
   66800    300.23608   -1149.5114    6360.5093    11625.081    1952.3173 
   66900     304.0169   -1150.6774    6403.9905    11748.168     1949.955 
   67000    301.35915   -1149.4218    6372.9831    11661.637    1933.4181 
   67100     299.2894    -1139.181    6411.9685    11666.646    1997.3386 
   67200     301.8139   -1142.1666    6460.0473    11765.672    1925.9111 
   67300    303.63578   -1138.4632    6506.9228    11855.172     1934.454 
   67400     299.0865   -1144.7953    6457.3402    11702.069    1944.8703 
   67500     298.8061   -1143.8673    6480.5374    11720.204    1919.8186 
   67600    299.95531   -1143.6659    6401.6985    11666.117    1849.4245 
   67700    299.53088   -1141.0449    6454.9563    11712.929    1932.3196 
   67800    294.82253   -1138.7614    6444.6212    11604.291    1890.1289 
   67900    301.14918   -1141.9621     6479.601    11771.229    1890.5939 
   68000    303.13055   -1143.2786    6492.0824    11824.723    1948.2531 
   68100    299.03657   -1141.6841    6389.9302    11636.704    1923.5678 
   68200    303.99219    -1141.881    6445.0744     11797.52    1818.7936 
   68300    301.94324   -1143.6987    6547.2734    11854.129    1855.4939 
   68400    297.21618   -1148.0528    6428.7513    11630.266    1898.4584 
   68500    307.00078   -1148.1826    6383.9825    11794.401     1846.726 
   68600    299.35214   -1150.1034     6473.926    11719.022    1902.0535 
   68700    297.44131   -1152.2153     6363.551    11565.713    1907.6113 
   68800    303.96294   -1151.7438    6451.7131    11793.671    1943.4442 
   68900    296.29615   -1155.5213    6374.7121    11549.104    1896.4039 
   69000    296.02208   -1150.1191     6391.858    11565.796    1905.8168 
   69100    303.33832   -1155.5358    6362.0278     11686.85    1908.4694 
   69200    299.84089   -1153.5389    6478.5973    11730.699    1890.1984 
   69300    299.60959   -1151.5396    6464.5099    11713.669    1969.0803 
   69400     301.4373   -1154.9533    6289.3166    11574.109    1992.0649 
   69500    302.26622   -1159.9512    6265.7739    11563.277    1941.6331 
   69600    296.94756   -1155.0965    6478.3119    11667.044    1991.1126 
   69700    299.68371   -1151.7938    6418.2781    11668.767    1950.8198 
   69800    294.37173   -1155.9357     6404.828    11537.693    1942.7894 
   69900    298.75117   -1159.1644    6277.2619    11500.458    1887.3769 
   70000    300.62276   -1157.9269    6372.4661    11636.883    1941.7829 
   70100    295.72367    -1153.814    6468.9005    11632.769    1911.5914 
   70200    301.86352    -1151.668    6407.0014    11704.184    1821.6334 
   70300    301.08714   -1151.2598    6486.5827    11767.588    1919.6671 
   70400    300.04208   -1154.1083    6487.7566    11743.587    1924.9627 
   70500    297.15244    -1149.204    6293.1347    11492.137    1860.4431 
   70600    298.72355   -1144.9071     6393.289    11630.152    1905.2165 
   70700    298.89506   -1148.3747    6444.6973    11681.757    1988.8513 
   70800    302.65336   -1147.0286    6358.0175    11676.714    1929.7929 
   70900    297.78172   -1148.4882    6378.4511    11591.612    1880.6957 
   71000    301.93685   -1142.7676    6577.9119    11885.562    1968.3977 
   71100    298.11081    -1144.707    6458.2628    11682.236    1918.4186 
   71200    300.33354   -1143.7733    6403.6821    11676.074    1874.7024 
   71300    298.82569   -1142.2848    6540.9072    11782.575    1948.5937 
   71400    298.97918   -1140.9347    6393.6892    11639.986    1924.9835 
   71500    297.81562   -1148.7154    6347.1403    11560.799    1869.3143 
   71600    303.27936   -1148.8901     6447.048    11777.256    1901.6046 
   71700    301.00779   -1144.4563    6399.2823    11685.396    1849.1183 
   71800    295.95689   -1150.0679    6429.9663    11602.563    1875.5711 
   71900    298.91131   -1151.5447    6499.2277    11733.464    1855.4436 
   72000    299.20144   -1151.3245    6285.5969    11526.252    1868.7494 
   72100     300.1311   -1157.8691    6388.3242    11642.296    1966.2659 
   72200    295.21975   -1152.0661    6448.3863    11603.237    1887.2227 
   72300    302.14022   -1151.3811    6449.6178    11752.999    1879.5347 
   72400    294.78515    -1156.746    6467.0761    11607.962     1891.676 
   72500    300.16605   -1154.0008      6352.47    11611.056    1817.1198 
   72600    298.80068   -1157.3594    6348.4297    11574.488    1827.2126 
   72700    302.07952   -1157.0756     6348.698    11645.088    1949.5417 
   72800    298.09889    -1159.625    6390.8389    11599.639    1878.0019 
   72900    304.58883    -1154.607    6424.9912    11777.457    1911.0925 
   73000    299.20592   -1153.9027    6377.1576     11615.33    1933.0446 
   73100    298.58652    -1161.045    6424.7368    11642.535    2013.7284 
   73200    301.49445    -1159.107    6389.6344    11671.494    1913.7854 
   73300    302.05061   -1154.1638    6480.4049    11779.089      1947.54 
   73400    298.97249   -1155.1182    6410.5671    11642.537     1864.904 
   73500    296.40087   -1154.1024     6378.755    11556.802    1875.4518 
   73600    297.14449   -1145.9472    6428.1588    11630.248    1882.3603 
   73700    298.63845   -1151.4537    6381.7718     11610.27    1824.7237 
   73800    303.26082   -1151.0656    6521.0228    11848.659    1947.4758 
   73900    304.27436   -1150.1314    6499.0422    11849.266    1872.7391 
   74000     301.6022   -1146.7825     6520.402    11816.888    1891.7566 
   74100    296.00094   -1145.3077    6310.3764    11488.675    1829.8708 
   74200      296.214    -1145.488    6540.6577    11723.327    1908.7187 
   74300    300.48342   -1145.5503    6532.5299    11806.347    1892.6338 
   74400    298.87102   -1143.3912    6261.9781    11503.508    1756.1647 
   74500    302.39205    -1143.187    6349.6479    11666.603     1845.534 
   74600    301.08568    -1144.286    6563.5628     11851.51    1845.0606 
   74700    301.27371   -1144.4038    6530.5792    11822.426    1815.5101 
   74800    296.55991   -1145.7216    6302.5894    11492.415    1746.0603 
   74900    300.62641   -1144.5407    6508.8845    11786.766     1924.058 
   75000    301.08621   -1147.6554    6493.4875    11778.077    1860.2925 
   75100    301.47502   -1142.7716    6288.2542    11586.034    1722.3287 
   75200    299.61539   -1144.2069    6451.4229    11708.039    1825.6792 
   75300    303.71899   -1147.4216    6431.4789    11772.547    1794.6616 
   75400    296.10629   -1140.5647    6388.6955    11573.987    1877.5433 
   75500    302.75201   -1151.8554    6374.9091    11690.886    1886.3816 
   75600    294.85727   -1157.6389    6378.0138    11519.548    1838.4051 
   75700    306.20724   -1152.8507    6465.0474    11853.845      1845.87 
   75800    296.41381   -1155.9016    6341.2881    11517.813    1803.2861 
   75900    305.67075   -1151.8869    6377.7446    11756.044    1937.9016 
   76000    296.55217   -1162.9454    6476.0954    11648.532    1968.0484 
   76100    297.64463   -1161.2852    6385.4616    11582.897    1864.5698 
   76200    299.92952   -1159.6906    6493.4839    11741.327    1956.6679 
   76300    308.52631   -1167.3938    6458.9761    11882.773    1976.8066 
   76400    300.34896   -1149.5021     6373.504    11640.496    1927.0687 
   76500    298.51942   -1148.0224    6412.3048    11641.692    1933.7266 
   76600    300.41189   -1160.4561    6382.4762    11639.859    1947.2771 
   76700    299.43455   -1153.8588    6424.8286    11667.929    1923.6394 
   76800    295.18184   -1156.6648    6458.4421    11607.884    1888.6365 
   76900    304.59999   -1154.1169    6363.6769    11716.871    1930.0315 
   77000    296.72118   -1157.8914    6412.0813    11593.183    1920.1666 
   77100    303.07051   -1159.1412    6381.0202    11696.515    1918.6284 
   77200    297.16618   -1152.5981    6401.4672    11597.369    1916.7933 
   77300    300.43771   -1149.0938    6499.2954    11768.592    1933.6313 
   77400    300.44954   -1154.2219    6340.1041    11604.526    1854.4802 
   77500    297.91241   -1152.7682    6351.6152    11563.289    1857.1177 
   77600    298.06178   -1145.8699    6487.1789    11708.942    1888.8912 
   77700    301.36533   -1151.3941    6361.7977    11648.612    1867.7713 
   77800    298.03901   -1147.6946    6359.9571    11579.409    1869.9991 
   77900     303.8921   -1147.0957    6500.9685    11846.061    1848.1879 
   78000    298.91501   -1147.5611    6513.9693    11752.269    1845.7598 
   78100    304.27996    -1148.549    6334.1812    11686.107     1806.883 
   78200    299.10395   -1148.1978    6529.9373    11771.636    1913.0276 
   78300    296.17843   -1146.7125    6388.4415    11569.127    1876.5848 
   78400    299.53857   -1144.7449    6388.2204    11642.657    1883.9484 
   78500    301.04593   -1145.0224    6456.5824    11742.944     1912.855 
   78600     301.3927   -1146.2105    6388.5858    11681.168    1842.3581 
   78700    304.47431   -1148.3851    6493.9911    11850.232    1948.0455 
   78800    301.50757   -1152.3494    6494.0873    11782.984    1977.0447 
   78900    294.12431   -1154.3115    6362.9678    11492.171    1895.5128 
   79000    300.75056   -1157.8189    6490.1354    11757.391    1941.7541 
   79100    299.32452   -1152.6448     6393.241    11635.205    1918.5935 
   79200    298.54529   -1157.3057    6319.7955    11540.452    1866.2848 
   79300    300.63154   -1159.3861    6420.8484    11683.994    1827.3259 
   79400    297.63987   -1150.1943    6522.2128    11730.637    1874.0134 
   79500    301.60172   -1155.4199    6417.5824    11705.421    1907.4674 
   79600    301.96422   -1153.6455    6403.4892    11700.846    1923.0642 
   79700    296.93711   -1153.6818    6354.2841    11544.208    1913.8386 
   79800    300.80205    -1153.937    6382.7393    11654.976    1889.9413 
   79900     301.7627   -1153.8898    6384.0288    11676.836    1801.9538 
   80000    296.09839   -1157.1657     6432.338     11600.86     1857.429 
   80100    300.33889   -1154.6099    6296.4884    11558.158    1851.7917 
   80200    300.44818   -1156.7983    6394.3734    11656.189    1913.4921 
   80300    292.36237    -1152.305    6507.9961    11601.565    1870.9313 
   80400    300.65093   -1155.6643    6503.6406    11770.922    1940.1474 
   80500      298.766   -1154.4777    6413.5292    11641.729    1885.1106 
   80600     299.8712   -1153.5355    6399.2783    11652.031    1890.3437 
   80700    300.55481   -1146.2066     6378.998    11653.684    1886.7593 
   80800    302.05578   -1149.0323    6435.5668    11739.493    1857.7996 
   80900    302.67699   -1145.0106    6537.3398    11858.559    1894.4561 
   81000    297.97751   -1151.2113    6300.0734    11514.694    1815.8406 
   81100    293.36282   -1143.2461    6480.9675    11604.968      1880.55 
   81200     302.4021   -1151.9355    6435.6823    11744.104    1864.8849 
   81300    299.94646   -1144.7108    6353.8224    11617.007    1806.2206 
   81400    298.08399   -1145.4695    6466.2297    11688.867     1771.561 
   81500    300.98811   -1143.4751    6445.6224    11732.297    1796.1469 
   81600    304.96907   -1149.7382    6417.6629    11783.121    1875.3791 
   81700    301.00673   -1144.2894    6385.6663    11671.924    1852.5222 
   81800    299.70138    -1144.598     6539.443    11797.505    1902.3612 
   81900    299.08887   -1148.8866    6419.7229    11660.411    1833.2661 
   82000    293.48388    -1148.797    6355.6015    11476.637    1852.1548 
   82100    301.65524   -1152.6884    6408.4991    11700.212    1943.4075 
   82200    296.57574   -1153.2739    6514.0584     11696.67    1912.5339 
   82300    305.63388   -1152.6265    6382.7286    11759.501    1914.3251 
   82400    295.80472   -1156.3232    6350.9967    11514.088    1890.1802 
   82500    302.98767   -1158.7756     6406.803    11720.894    1907.4902 
   82600    297.77192   -1154.5408    6369.1295    11576.029    1910.0063 
   82700    302.04458   -1154.1515     6377.554    11676.121    1886.6001 
   82800    296.57624   -1150.1794    6411.8302    11597.547      1864.33 
   82900    299.53475   -1156.6396    6350.8018    11593.263    1869.8527 
   83000     297.9038   -1156.6855    6431.1017    11638.674    1942.8269 
   83100    300.48081   -1153.3076    6281.6881    11547.692    1839.3625 
   83200    298.36246   -1160.5166    6464.6353    11678.175    1924.7406 
   83300    301.74016   -1164.9855    6495.5755    11776.806    1941.4856 
   83400    303.09326   -1159.0504    6335.1874    11651.259    1947.1027 
   83500    300.71869   -1156.9126    6314.6545    11582.135    1901.2953 
   83600    297.07571   -1156.4514    6478.0093    11668.125    1867.9135 
   83700    302.99827   -1148.4936    6492.1131    11816.713    1861.3951 
   83800    296.46044   -1154.9566    6375.8851    11554.351    1865.6032 
   83900    302.99714   -1151.7045    6380.1526    11701.517    1891.9009 
   84000    299.34464   -1150.5414    6423.8239    11668.321    1876.3757 
   84100    298.45513   -1152.4682    6502.8197    11726.387     1975.663 
   84200    298.79754   -1151.4833     6493.725    11725.593    1968.9807 
   84300    302.94434    -1151.939    6408.4623    11728.464    1861.3288 
   84400    298.21626   -1148.2424    6452.4857    11675.176    1871.0384 
   84500    306.19023   -1149.7093    6452.8802    11844.455    1882.6479 
   84600    296.13559   -1150.9632    6357.6087    11533.128    1814.7369 
   84700    301.42232   -1145.6316     6475.558    11769.352    1896.7525 
   84800    300.82699   -1147.9979    6502.7735    11781.483    1943.8098 
   84900    299.23308   -1146.0321    6452.1794    11698.803    1978.0137 
   85000    299.23951   -1142.9871    6394.5119    11644.318     1916.098 
   85100     302.5595   -1145.4694    6394.1429    11712.393    1924.6939 
   85200    297.94689   -1146.3987    6437.1775    11655.957    1900.7569 
   85300    300.00192   -1146.3998    6468.3403    11731.021     1906.918 
   85400    301.53721   -1149.6735    6395.4455    11687.652    1883.4566 
   85500    299.21149   -1151.8655    6373.6658    11613.995    1847.0395 
   85600     295.7857   -1151.6866    6414.1366    11581.458    1867.5659 
   85700    301.82856   -1154.9359    6385.6678    11678.836    1854.3413 
   85800    296.21091     -1148.35    6357.8731    11537.615    1886.7674 
   85900    300.72736   -1148.9262    6462.0619    11737.714    1912.4115 
   86000    296.37285   -1148.2501    6322.2669    11505.568    1871.7933 
   86100    304.16454   -1156.0929    6332.1559    11674.072    1929.1612 
   86200    296.04887   -1150.3669    6464.2854    11638.548    1971.4264 
   86300    299.10898   -1154.7512    6488.2989    11723.552    1932.3932 
   86400    302.96551   -1158.5811     6372.679    11686.491    1899.0886 
   86500    300.66792   -1157.8475    6388.8633    11654.324    1991.6621 
   86600    297.27232   -1155.4234    6361.7206    11557.064    1964.0706 
   86700    297.71048   -1160.8883    6468.8853    11668.125    1940.3119 
   86800    297.24849   -1153.2985    6372.7506     11569.71    1855.0186 
   86900    299.09797   -1153.6968    6375.3267    11611.399    1868.2678 
   87000    300.57743   -1153.5623    6441.4427    11709.256    1881.7186 
   87100     297.8697   -1150.9554    6447.8273    11660.401    1896.2242 
   87200    301.54297   -1149.1813    6352.3185     11645.14    1926.2665 
   87300    297.82995   -1148.6889    6381.1149    11595.106    1875.3565 
   87400    299.63877   -1147.9622    6424.6084    11677.969    1881.0689 
   87500    299.25248   -1152.7559    6475.5183    11715.833    1907.2728 
   87600    301.04423   -1148.6872    6472.2756    11754.936    1899.1865 
   87700    297.80577   -1150.8473    6425.4605    11636.776    1866.4599 
   87800    303.23874   -1149.5104    6391.2698     11719.99     1869.114 
   87900    297.36785   -1149.5449    6412.8762    11616.139    1911.5654 
   88000    293.93771   -1148.4717    6384.8934     11515.95    1814.9893 
   88100    304.94954   -1139.6166    6458.2873     11833.45    1887.1409 
   88200    298.89705   -1148.5498     6476.831    11713.758    1910.9923 
   88300    305.28143   -1142.3683    6380.5807    11760.082    1920.8591 
   88400    302.25226   -1139.7521    6428.3952    11745.799    1893.4312 
   88500     300.1656   -1146.4178    6338.8314    11604.991    1894.3019 
   88600    297.95011   -1154.5835       6499.3    11709.963    1951.8765 
   88700    300.27824   -1154.0924    6435.6627    11696.554    1876.9007 
   88800    296.48409     -1149.53    6347.1204    11531.518    1810.5337 
   88900      299.847   -1153.7105    6508.6444    11760.705    1948.8795 
   89000    294.14979   -1156.5085    6404.1443    11531.695    1869.7882 
   89100    301.57073    -1148.206    6438.6622    11733.052    1934.3501 
   89200    298.10209   -1152.6722    6360.1469    11575.968     1914.582 
   89300    306.38441   -1151.4258    6302.8886    11696.896    1936.8772 
   89400      299.363   -1150.4752    6462.6032    11707.559    1908.6739 
   89500    299.21036   -1153.3984    6425.8978     11664.67    1906.3112 
   89600    301.93165   -1153.4224    6353.0768    11649.961    1880.8949 
   89700    296.94666   -1158.6957    6383.1471    11568.261     1867.763 
   89800    301.16318   -1165.8694    6446.0436    11714.063    1888.7745 
   89900    297.63011   -1155.3584    6384.4419    11587.494    1883.6874 
   90000    301.85135   -1154.4196    6449.9512    11744.123     1872.425 
   90100    298.25834   -1158.5484    6502.7038    11715.987     1924.434 
   90200    296.47214   -1154.2832     6413.266    11592.655    1926.3258 
   90300    301.65293    -1155.348     6436.652    11725.656    1967.8379 
   90400    299.53183   -1151.1452    6337.3048    11585.197    1898.3428 
   90500    294.54732    -1146.704    6448.5726     11594.42    1990.5826 
   90600    303.60361   -1155.3805    6212.4289    11543.074     1894.113 
   90700    299.17347   -1152.6797    6403.0644    11641.767    1834.3164 
   90800    306.35038    -1152.178    6587.9725      11980.5    1951.8487 
   90900     297.5017   -1153.1843    6438.8547    11641.338    1898.5532 
   91000    300.06131   -1147.7641    6475.2391    11737.825    1939.6355 
   91100    299.10975   -1147.9553    6284.3283    11526.394    1900.4189 
   91200    299.42862   -1148.0172     6385.792    11634.608    1914.5476 
   91300    296.39485   -1146.5668    6511.6299    11697.084    1916.6392 
   91400    301.27781   -1145.3172    6395.6931    11686.714    1872.4999 
   91500     305.6919   -1144.5071    6425.8073    11811.939    1883.2523 
   91600    302.20849   -1146.3656    6489.8069    11799.662    1935.3815 
   91700    297.49581   -1146.0238    6377.4159    11586.934    1945.9753 
   91800    303.30347     -1152.26    6424.9604    11752.314    1913.0661 
   91900    297.17995   -1155.2296    6546.0172    11739.581    1889.4405 
   92000    303.54568   -1155.2825    6455.0071    11784.512    1912.8854 
   92100    298.60014   -1154.3417    6358.2095    11583.002    1878.4972 
   92200    293.05196   -1158.3229    6357.9261    11460.209    1888.7973 
   92300    304.39175   -1154.0094    6366.6382    11715.492    1895.6684 
   92400    297.15989   -1151.5059    6559.5261    11756.385    1961.3058 
   92500    301.12489   -1156.9391    6287.2984    11563.431    1836.9263 
   92600    299.40623   -1158.2474    6351.1764    11589.284    1952.2387 
   92700    298.95764    -1151.216    6423.1744     11658.73     1947.817 
   92800    301.18057   -1156.8729    6377.7353    11655.123    1890.0214 
   92900    294.00329   -1154.3725     6425.348    11551.905    1940.5055 
   93000    300.99479   -1156.6675    6479.6683    11753.293    2019.9482 
   93100    297.14127   -1159.6351    6313.6702    11502.002    1896.5225 
   93200    300.73325   -1152.1546    6312.4991    11585.049    1910.3282 
   93300    303.40911   -1148.6579    6487.9472    11821.159    2000.5527 
   93400    299.41254   -1158.5117    6469.4579    11707.436    1968.5509 
   93500    300.89406     -1155.48    6284.4092    11557.069    1823.8608 
   93600    299.75615   -1157.2796    6387.0425    11633.593    1917.3196 
   93700    300.04439   -1151.4767    6429.0356    11687.547    1930.1843 
   93800    296.49588   -1151.5195    6566.6842    11749.344    1934.7352 
   93900    297.96131   -1144.0673    6470.6166    11692.035    1903.3697 
   94000    299.63458   -1149.8079    6435.4978    11686.923    1956.1793 
   94100    302.70957   -1147.8271    6384.0336    11703.132    1943.1925 
   94200    296.14776   -1142.7329    6376.3242    11560.334     1879.893 
   94300    293.89362   -1147.3568    6434.9873    11566.217    1888.0769 
   94400    299.48489   -1142.6542    6427.9918    11683.373    1836.4028 
   94500    298.70736   -1141.2722    6500.0308    11740.183    1908.5897 
   94600    298.12351   -1143.7715    6401.8905     11627.07    1901.4843 
   94700    305.39552   -1141.9712    6418.9929    11801.328     1868.784 
   94800    299.08135   -1142.9176    6571.1517    11817.648      1848.71 
   94900    302.01741   -1146.2924    6419.7198    11725.566    1816.0297 
   95000    298.89719   -1145.0756    6415.9913    11656.396    1911.3048 
   95100    294.53732   -1140.9149    6475.1761    11626.599    1880.4275 
   95200    301.21891   -1144.1337    6407.5634     11698.51    1871.3781 
   95300    301.68416    -1149.465     6429.575    11725.129    1901.7134 
   95400    302.72275   -1151.0304    6486.0611    11802.238    1906.4407 
   95500    297.46524   -1152.4561     6343.296    11545.728    1824.0854 
   95600    299.09874   -1153.2011    6324.2929    11560.877    1916.4374 
   95700     295.8871   -1155.0242    6400.9261    11567.076    1887.1043 
   95800    300.64408   -1153.0368    6432.3519    11702.115    1856.0307 
   95900    302.96213   -1148.9048    6545.1304    11868.547    1899.0498 
   96000    296.15756   -1152.8323    6382.6932    11556.813    1870.3019 
   96100    299.63469   -1157.9761    6285.0456    11528.305    1908.4959 
   96200    300.42117   -1157.8637    6339.3837    11599.557    1913.2368 
   96300    295.34351   -1158.0191    6455.6042    11607.146    1919.2071 
   96400    301.75823   -1161.0495    6512.2159    11797.768    1903.9923 
   96500    298.08242   -1155.1598    6413.2189    11626.133     1874.794 
   96600    301.48267   -1160.4557    6288.3172    11568.576    1937.9979 
   96700    301.37932   -1155.7262    6326.5126    11609.293    1978.3053 
   96800    304.04412   -1151.7342    6376.6964    11720.398     1919.949 
   96900     300.8066   -1150.2206    6416.5337    11692.585    1874.9946 
   97000    296.34458   -1156.5979    6501.8917    11676.241    1904.7523 
   97100    296.73191   -1156.4442    6475.3009    11658.079    1889.3728 
   97200    303.20233   -1155.5518    6273.6771    11595.578    1878.4376 
   97300    300.82657   -1152.3005    6383.3655    11657.763    1969.5516 
   97400    297.68591   -1152.9807    6558.9522    11765.574    1939.8155 
   97500    304.07147   -1154.4038    6424.5034     11766.12    1882.3969 
   97600    300.35002   -1145.4827    6376.6541    11647.689    1868.9877 
   97700    297.61001   -1150.8233    6444.1151    11651.273    1840.8611 
   97800    297.02395     -1147.68     6348.165    11545.946    1789.0587 
   97900    301.14423   -1146.9053    6394.5108     11681.09    1894.6452 
   98000    299.66375   -1147.6671    6445.4512     11699.64    1863.5583 
   98100    298.09083   -1147.5759    6510.4051    11731.082    1845.2235 
   98200    299.82185   -1143.8954    6563.9271    11825.265    1846.3896 
   98300     306.7681   -1145.3423    6305.3208    11713.608    1829.2753 
   98400    297.23283   -1150.7727    6525.4427    11724.593    1916.9267 
   98500    300.23473   -1155.4309    6432.7741    11691.397    1875.6098 
   98600    298.22648   -1151.9639    6444.1935    11663.381    1952.0125 
   98700    303.26937   -1150.6518    6345.1149    11673.348    1875.7612 
   98800    298.65175   -1151.2166    6452.2497    11681.269    1866.8848 
   98900    296.82113   -1152.1695    6436.5042    11625.463    1881.5309 
   99000    301.17402   -1155.2447    6393.7589    11672.635    1924.4232 
   99100    298.04197   -1150.0337    6303.4265    11520.602    1904.1284 
   99200    299.44454   -1157.9114     6389.313    11628.575    1929.7888 
   99300    305.71596   -1159.2403    6431.4488    11803.361    1890.1382 
   99400    296.73737    -1162.914    6386.7842    11563.209    1864.6329 
   99500    299.83909   -1158.0545    6406.1884    11653.736    1872.4307 
   99600    301.60958    -1159.684    6378.2796    11662.022    1904.8934 
   99700    297.08773   -1154.2315    6327.6226    11520.215    1886.0682 
   99800    306.14237   -1153.3617    6424.4998      11811.4    1941.8639 
   99900     297.4912   -1156.2009    6417.6271    11616.869     1922.268 
  100000    301.44782   -1154.8359    6300.3019    11585.436     1884.783 
  100100    297.00636   -1159.7373    6354.7487    11540.097    1947.6674 
  100200    300.33439   -1154.2534    6375.6456    11637.576    1925.1091 
  100300    302.63195   -1159.6821    6417.7903    11723.376    1862.3321 
  100400    300.76735   -1155.7438    6474.9611     11744.65    1839.2603 
  100500    301.07884   -1156.5022    6490.1957    11765.781    1853.7141 
  100600    300.72042   -1151.5197    6502.6269    11775.538    1874.4014 
  100700    296.18456   -1150.2723    6360.2642    11537.521    1813.9843 
  100800    306.97506   -1147.7438    6347.5221    11757.829    1888.3324 
  100900    296.74667   -1141.2867    6504.0691     11702.32     1925.531 
  101000    304.00454   -1144.0233    6327.3872    11677.954    1865.7201 
  101100    299.89829   -1147.1701      6507.56    11767.257    1889.3181 
  101200    299.57682   -1139.5143    6542.9059    11803.391    1829.3522 
  101300    302.05598   -1144.8951    6493.8079    11801.875    1826.5013 
  101400    295.13865   -1144.5901    6383.8947    11544.489    1804.6611 
  101500    300.66075   -1146.4358    6405.3969    11682.117    1868.5065 
  101600    299.94839    -1143.731    6407.9396    11672.146    1815.5652 
  101700    298.40075   -1142.9863    6478.7269    11710.615     1860.036 
  101800    304.53604   -1143.1022    6460.0915    11822.934     1904.655 
  101900    300.40355   -1143.5067    6445.4674    11719.622     1900.756 
  102000    302.40428   -1146.3324    6418.6099    11732.681    1900.3281 
  102100    293.00477   -1148.1948    6398.7787    11510.181    1921.0999 
  102200    302.88642   -1146.6234    6385.7597     11709.84    1938.8793 
  102300    298.50655   -1152.4555    6362.6176    11587.297    1912.6686 
  102400    299.15601   -1152.0194    6395.3784    11634.368    1894.0996 
  102500    300.35264   -1154.1275      6511.27    11773.716    1962.0595 
  102600    297.68671   -1154.0229    6403.0471    11608.644    1893.6326 
  102700    304.24976   -1163.8094    6339.3836    11675.403    1907.6639 
  102800    302.45998   -1162.7299    6353.8072    11652.671    1946.6032 
  102900    294.98697   -1160.1583    6359.5341     11501.32     1858.391 
  103000    297.66922   -1150.6561    6456.2797     11664.87     1831.781 
  103100    301.18276   -1159.7356    6387.3177     11661.89    1945.7728 
  103200    307.64192   -1154.1936    6388.3127    11806.417    1961.9195 
  103300    299.63054   -1156.1043    6291.4193    11536.462    1913.5261 
  103400    299.56916   -1155.2148    6380.6335    11625.254    1949.2265 
  103500    299.63899   -1158.4392    6415.5036    11658.392    1906.8304 
  103600    298.55155   -1156.2946    6461.9003    11683.702    1887.1335 
  103700    302.61405    -1162.692    6418.5748    11720.768    1937.0084 
  103800    306.55242   -1154.7541      6402.81    11797.078    1985.9826 
  103900    295.49837   -1152.7245    6416.8674    11577.012    1934.9682 
  104000    301.09041   -1155.1868    6362.5812    11639.729    1927.6649 
  104100    299.70968   -1148.2925    6522.5496    11777.095    2012.7129 
  104200    299.35464   -1146.1397    6445.8689    11694.982     1932.958 
  104300    302.50511    -1142.107    6311.0945    11631.545    1924.4786 
  104400    295.47973   -1150.7775    6392.0731    11553.767    1971.6724 
  104500    297.36772   -1147.9177     6485.553    11690.441    1917.2554 
  104600    301.91489   -1148.0674    6461.0978    11762.979    1822.5026 
  104700     298.8995   -1149.4014    6503.2531    11739.381    1949.8637 
  104800    299.36044   -1144.6785    6359.0916     11609.79    1890.6497 
  104900    299.82691   -1146.9541    6341.8053    11600.193    1894.9516 
  105000    299.16369   -1146.4735    6499.1621    11743.862     1945.368 
  105100    298.81266    -1147.289    6526.1157    11762.501    1921.2504 
  105200    304.63593   -1146.6896    6403.3828    11764.772    1882.1654 
  105300     297.5753   -1150.6839    6387.1425    11593.698     1969.886 
  105400    301.20522   -1154.2984    6391.7479    11672.237    1942.1242 
  105500    301.05133   -1151.6285    6433.7261    11713.597    1958.6017 
  105600    296.75541   -1158.8262    6410.7687    11591.666    1891.1446 
  105700    304.36856    -1159.423    6406.3985    11749.343    1947.1278 
  105800    299.90356   -1160.1196     6479.275    11726.135    1935.4295 
  105900    304.19198    -1157.368     6316.583     11657.81    1866.1056 
  106000    299.39587   -1159.8762    6469.0365    11705.294    1975.2303 
  106100    301.14029   -1159.6481    6525.7318    11799.484    1961.1232 
  106200    297.46333   -1162.0383    6390.0267    11582.836    1922.4295 
  106300    301.85154   -1158.9602    6332.8408    11622.476    1980.2315 
  106400    300.64738   -1165.3446    6357.4706    11614.996     1968.848 
  106500    300.38312   -1157.4072    6393.0544    11652.872    1924.6514 
  106600     300.9488   -1161.6127    6418.5175    11686.214    1937.9726 
  106700    298.05277   -1160.9589     6385.092    11591.573    1949.7341 
  106800    300.34344   -1159.5632    6380.7638    11637.577    1871.2287 
  106900    299.11536   -1166.3909    6488.7202     11712.47    1918.4203 
  107000    304.15192    -1158.456    6345.6195    11684.902    1895.7363 
  107100    300.26195   -1154.9077    6387.9038    11647.632    1859.5498 
  107200      294.327   -1156.5705    6493.2182    11624.492    1917.2575 
  107300    302.41599   -1151.8209    6405.2907    11714.123    1915.2439 
  107400     298.1113   -1148.8559    6432.2917    11652.126    1861.5245 
  107500    299.94191   -1149.0206    6533.2095    11791.988    1894.3195 
  107600    303.73914   -1154.4705    6449.6869    11784.137    1909.2295 
  107700    298.55673    -1149.723    6483.4636    11711.947    1961.7044 
  107800    296.57293   -1146.3414    6405.5389    11595.023    1951.9584 
  107900    302.80961   -1146.2235    6439.4919    11762.331    1966.0079 
  108000    296.17879   -1146.0536    6437.6152    11618.967    1850.9016 
  108100    300.68144    -1140.048    6436.5082    11720.058    1874.2017 
  108200    299.08477   -1144.8747    6481.7185    11726.331    1926.2656 
  108300    296.88746   -1141.9342    6339.8351    11540.446    1913.5649 
  108400    300.61565   -1144.3726    6373.0634    11650.883    1949.1455 
  108500    299.78145   -1145.9384     6457.145    11715.577    1968.0087 
  108600    298.30232    -1146.092    6476.9227    11703.602    1936.5523 
  108700    304.22614   -1151.3388    6380.2327    11728.219    1880.1147 
  108800    299.31378   -1150.8843    6465.6436    11709.139    1947.1768 
  108900    299.41518   -1152.9869    6445.8041    11689.363    1950.5797 
  109000    296.69894   -1149.8161    6516.8378    11705.539    1912.0035 
  109100    296.67089   -1150.0297    6425.6005    11613.489    1917.8348 
  109200    302.29411   -1151.3339    6392.3382    11699.054    1920.9149 
  109300    294.66779   -1151.7033    6427.8949    11571.317    1881.0649 
  109400    304.71925   -1157.4025    6360.2383    11712.695    1957.1839 
  109500    299.63093   -1159.1928    6369.6393    11611.602    1973.8382 
  109600    298.79551   -1158.7866    6423.2108    11647.732    1933.1532 
  109700    303.21307   -1158.2715    6413.7574    11733.168    1877.8818 
  109800    295.79285   -1153.7501    6445.7287    11611.139    2001.4403 
  109900    301.33361   -1161.6462    6311.2216    11587.106    1883.0992 
  110000    298.69445   -1162.7103    6451.7023    11670.141    1961.4364 
  110100    299.37958   -1154.5625    6356.5554    11597.778    1912.1207 
  110200    296.34005   -1157.7193    6435.7419    11608.873    1910.8906 
  110300    298.37679    -1154.275      6334.01    11554.097    1901.3015 
  110400    300.71283   -1152.9297    6354.4523    11625.791    2006.7604 
  110500     295.9011   -1150.0996    6382.3927    11553.766    1902.5074 
  110600    304.04122    -1146.905     6502.227    11850.696    1929.6671 
  110700     298.8034   -1152.4161    6368.2854    11599.345    1900.8822 
  110800    303.74635   -1149.8225    6456.2318    11795.484    1943.9855 
  110900    307.88698   -1152.5224    6334.3882    11759.399    1899.9437 
  111000    302.40986   -1157.0252    6433.0707    11736.568    1945.0712 
  111100    298.92236   -1149.6292     6490.862     11727.25    1969.6045 
  111200    300.27523   -1152.4861    6408.1136    11670.547    1844.2608 
  111300    293.46769   -1142.3973    6504.5686    11631.658    1910.9633 
  111400    299.82649    -1146.105     6368.033    11627.261    1854.2059 
  111500    305.10175   -1145.4723    6320.1629    11692.721     1845.321 
  111600    297.90273   -1139.4818    6500.4551    11725.208    1837.9327 
  111700     298.6473   -1146.2663    6445.1436    11679.019    1800.2305 
  111800    299.47245   -1147.3242    6384.9839    11635.429    1809.9183 
  111900    300.29091   -1149.0143    6403.5496     11669.79    1852.0603 
  112000    300.03526   -1151.7344    6510.3562    11768.415     1858.495 
  112100    303.14789   -1153.6095    6428.7315    11751.411    1847.8507 
  112200     303.6341   -1151.0118    6469.3095    11804.974    1900.7825 
  112300    297.78872   -1148.4251    6456.5645    11669.938    1896.2966 
  112400    298.47345   -1153.5946    6324.8568     11547.69    1898.3557 
  112500    304.45566   -1153.3674     6340.121    11690.982    1929.1468 
  112600    295.33904   -1145.9527    6489.6672     11653.18    1954.8396 
  112700    302.63236   -1151.4246    6498.6392    11812.491    1955.9876 
  112800    300.33654   -1150.7542     6239.572    11505.047    1886.8382 
  112900    292.92684   -1154.7355    6344.0827     11447.28    1923.3149 
  113000    302.73791   -1154.3547     6511.801    11824.977     1924.717 
  113100    294.95376     -1156.84    6480.3464    11624.741    1912.8627 
  113200    296.10668    -1156.146    6380.1101    11549.829    1878.6346 
  113300    305.50061   -1160.7585    6339.7421    11705.535    1913.3737 
  113400    298.97771   -1159.1816    6408.6554    11636.674    1933.6768 
  113500    291.39476   -1157.9551    6459.3778    11526.625    1920.4997 
  113600    292.54345   -1153.6452    6302.2989    11398.396    1891.2545 
  113700    298.53779   -1159.6039    6458.0772    11676.275    2003.7546 
  113800    301.79739   -1160.8176    6379.5982    11666.219    1952.2683 
  113900    298.56681   -1158.7308    6353.5444    11573.235    1960.7441 
  114000    299.24219   -1155.2913    6454.3446    11691.904    1959.7642 
  114100    307.13622   -1156.5026     6456.034    11861.025    1948.6679 
  114200    297.90744   -1155.8399    6367.0403    11575.536    1893.0657 
  114300    300.75489   -1149.2297    6389.4647    11665.402     1817.115 
  114400    301.71962   -1150.4515    6623.0516    11918.377    1938.6051 
  114500    301.26042   -1152.9846    6316.4029    11599.385    1912.1268 
  114600     302.7626   -1150.5045    6369.2657     11686.82    1929.7934 
  114700    297.67654   -1144.7443    6498.3821     11713.04    1927.9952 
  114800    304.03974   -1147.3289    6349.5485    11697.562    1925.7417 
  114900    303.03556   -1145.4486    6449.8926    11778.334    1987.6842 
  115000    296.00205   -1150.8527    6378.8619    11551.639    1896.5253 
  115100    304.34468   -1145.9351    6365.9998    11721.922    1901.1007 
  115200    296.86064   -1147.6789    6526.8908    11721.184    1904.3481 
  115300    301.08713   -1145.1671    6474.6113    11761.709    1924.6459 
  115400    300.92975   -1149.2449    6385.6189    11665.276    1929.3204 
  115500    297.39337   -1153.1672    6423.2657    11623.452      1916.25 
  115600    301.93747   -1152.6277    6424.6041    11722.407    1849.8628 
  115700    296.64927   -1153.6922    6453.8468    11637.611    1932.2035 
  115800    298.31814   -1155.8688    6446.6513    11663.892     1925.889 
  115900    306.31013   -1148.6911    6378.2076    11773.362     1917.608 
  116000    297.56279   -1145.0063    6459.9394    11671.905    1971.5575 
  116100    303.66015   -1147.5103    6369.3113    11709.034    1875.5691 
  116200    298.89772   -1152.2534    6408.6226     11641.86    1939.6681 
  116300    300.55222   -1150.6657    6342.8271    11612.999    2015.8825 
  116400    302.40194   -1154.7691    6393.0116    11698.596    1913.6867 
  116500    299.92915   -1155.8299    6446.4377    11698.134    1933.2276 
  116600    300.17595   -1158.5503    6314.7587    11569.007    1897.6151 
  116700     299.2698   -1160.0505    6487.3955    11720.785    1926.1897 
  116800    300.20982   -1160.1422    6489.2838    11742.664    1928.3283 
  116900    302.02207   -1155.9755    6342.3781    11638.641    1936.4073 
  117000    299.53646   -1152.6267    6405.9797     11652.49    1952.1484 
  117100    299.85878   -1153.7771    6378.0711    11630.317    1933.9595 
  117200     301.9224   -1149.1385    6403.2062    11704.177     1947.819 
  117300    299.30813   -1152.7115    6410.0773    11651.625    1919.9507 
  117400    301.95933   -1153.1365    6374.3708    11672.132     1902.224 
  117500    298.14867   -1152.7698    6350.2953    11567.014     1863.186 
  117600    297.99091   -1153.9348     6409.748    11621.932    1853.6147 
  117700    302.47114   -1157.0654     6601.534      11906.3    1930.6096 
  117800    299.61121   -1147.3204    6424.3032    11677.717    1909.8061 
  117900    299.26089   -1151.5315    6386.2634    11627.982    1917.4451 
  118000    297.96589     -1153.42    6477.8123    11689.976    1906.6259 
  118100    299.84903   -1151.4747    6366.2252    11620.565    1861.6968 
  118200    300.55905   -1146.6997    6411.0446    11685.328    1873.8874 
  118300     303.9495    -1149.429    6474.4757    11818.461    1956.9478 
  118400    296.69806    -1151.086    6414.0812    11601.494     1903.682 
  118500    304.92625   -1149.5366    6435.6398    11800.385    1951.5295 
  118600    298.04924   -1151.1411    6452.6483    11668.872    1937.9072 
  118700    300.04991   -1154.4915    6459.2481    11714.863    1963.4901 
  118800    297.66073   -1152.4513    6407.5722    11614.186    1916.0294 
  118900    298.22521   -1151.8661    6419.6298    11638.888    1939.3464 
  119000    300.60761   -1155.1249    6402.3119    11669.207    1922.5505 
  119100    298.16894   -1148.7166    6455.2993    11676.505    1884.3964 
  119200    301.74132    -1152.287    6474.1614    11768.115    1903.9582 
  119300    296.53767   -1149.7095     6340.071    11525.434    1932.8669 
  119400    302.95287   -1147.6312    6406.9403    11731.432    1949.2412 
  119500    296.68464   -1151.8011    6464.7125    11651.123    1921.2682 
  119600    301.89124   -1153.3067    6374.3378    11670.474    1960.2498 
  119700    300.85274   -1156.3114    6425.6703    11696.616    1945.3949 
  119800    302.53756   -1155.5932    6421.9019    11729.559    1940.3227 
  119900    300.09766   -1155.1046    6390.7157    11646.737    1954.3358 
  120000    300.09178   -1159.3451    6402.7953    11654.451    1930.0613 
  120100    302.77797   -1152.4075    6501.2038    11817.183    1940.1887 
  120200    298.09006   -1157.7412    6401.4031    11611.899     1930.681 
  120300     296.9334   -1158.7384    6292.3357    11477.124    1885.4381 
  120400    299.56149    -1152.469         6450    11697.202    1955.2496 
  120500    301.96806   -1152.2731    6444.5151    11743.326    1963.2206 
  120600    298.18106   -1152.3774    6423.8956    11641.699     1935.692 
  120700    295.12934   -1154.9278    6397.6382    11547.696    1939.9819 
  120800    300.35297   -1158.5511    6347.9623    11605.992    1969.9646 
  120900    303.74406   -1149.9327    6388.7482    11727.841    1919.9203 
  121000    295.36861   -1153.3889    6551.1249    11707.833    1893.0858 
  121100    300.27902    -1155.105    6435.3247     11695.22    1895.3113 
  121200    299.62803   -1155.0432    6364.9235    11610.974    1834.1837 
  121300    299.38579   -1151.4501    6374.1629    11618.631    1830.3076 
  121400     301.6676   -1149.6822    6545.3988    11840.382    1903.9671 
  121500    299.40457   -1151.3064    6315.0433    11560.056    1838.6561 
  121600     301.1901   -1148.9284    6392.1617    11677.698    1925.7715 
  121700    296.91045   -1147.4255    6498.4849    11694.096    1883.1691 
  121800    300.57797   -1148.2258    6447.3357    11720.497     1898.876 
  121900    296.32947   -1148.2481    6272.7474    11455.124    1891.2797 
  122000    304.00341   -1143.5504    6457.6189    11808.635    1911.0907 
  122100    298.31124    -1148.247    6548.0496    11772.765    1914.7783 
  122200    301.83999   -1155.9581    6420.1792    11712.569    1916.4106 
  122300    300.34248     -1152.52     6438.881    11702.717    1943.7585 
  122400    300.30938   -1153.6223    6411.4765    11673.503    1877.3614 
  122500    300.83354   -1154.0939     6340.932    11613.685     1937.189 
  122600    297.19342   -1150.0231    6454.4761    11653.534    1979.3323 
  122700    301.36667   -1149.4238    6492.3342    11781.147    1941.9736 
  122800    299.04554   -1148.2717    6451.8857    11692.263    1986.4904 
  122900    305.54035   -1151.3767    6308.1141    11684.138    1942.3156 
  123000    297.05807   -1153.0283    6383.0173    11576.179     1878.964 
  123100    303.46348   -1157.6533    6449.2816     11774.66     1925.565 
  123200    298.68195     -1155.71     6455.031    11680.203    1968.5487 
  123300    301.58287   -1159.6094    6364.7189    11647.965    1892.4475 
  123400    300.47278   -1161.0179    6445.2749    11703.397    1927.4156 
  123500    304.00573   -1160.5515    6468.2192    11802.284     1926.328 
  123600    298.34727   -1150.5546    6409.6591    11632.836    1916.0435 
  123700    296.36844   -1156.6596    6304.4101    11479.207    1921.2619 
  123800    300.64929   -1152.7165    6430.9674    11701.162    1988.2713 
  123900    299.23837   -1149.4686    6455.3995      11698.7    1922.2655 
  124000    294.05518   -1148.1401    6417.4253    11551.323     1941.569 
  124100    299.02972   -1145.2682    6382.3846    11625.428    1950.9565 
  124200    296.94107   -1152.1417    6432.4948    11624.044     2001.213 
  124300    296.65391   -1153.0922    6394.0939    11578.557    1883.7771 
  124400    307.57605   -1154.2683    6375.1688    11791.791    1960.5527 
  124500     302.0622   -1153.2239    6362.8058    11662.677    1913.0813 
  124600    297.21273   -1151.5109    6487.4105    11685.394    1872.5219 
  124700    301.61754   -1147.9071    6470.6774    11766.366    1924.3933 
  124800    299.29488   -1154.6575    6440.6315     11679.95    1944.2567 
  124900    298.21128   -1146.2993    6362.0496    11586.577     1905.743 
  125000    303.55936   -1146.7184    6436.8052    11775.167    1906.0739 
  125100    297.31844    -1150.461    6465.8923    11667.184    1956.9811 
  125200    300.70036   -1149.8417    6340.8258    11614.986    1960.5265 
  125300      299.922   -1149.4185    6467.6636    11725.618    1978.8936 
  125400    297.70192   -1149.2976    6440.8737    11651.521    1966.4158 
  125500    297.49683   -1154.8498    6287.5501    11488.264    1906.2168 
  125600    297.92368   -1158.7571    6452.8829    11658.808    1905.5992 
  125700    299.09004    -1153.619    6537.6583    11773.639    1951.4027 
  125800    305.92997   -1151.3943    6367.3908    11751.721    1937.2462 
  125900    296.61338   -1150.7071    6386.0983    11572.081    1856.4603 
  126000    298.19624   -1156.2663     6334.577    11548.816    1818.9429 
  126100    300.24181   -1149.5605     6449.412    11714.057    1967.6278 
  126200    302.12243   -1146.8122    6427.7151    11735.285    2024.2359 
  126300    299.80058   -1157.4087    6394.0552    11641.426    1960.5213 
  126400    304.50522   -1159.0174    6372.2275    11718.497    2006.6733 
  126500    299.29269   -1155.3825    6398.5096    11637.056    2001.7922 
  126600    299.94544   -1163.1574     6446.263     11690.98     1908.969 
  126700    295.39807   -1159.1958    6572.5863    11724.117    1945.2192 
  126800    304.17444   -1164.1091     6419.252    11753.363    1961.8458 
  126900    300.86266   -1158.5593    6410.3932    11679.303    1997.8475 
  127000    298.86699    -1158.826    6333.4148    11559.423    2009.5543 
  127100    300.69531   -1158.7253     6385.195    11650.364    1960.7653 
  127200    299.61073   -1155.5685    6439.2668    11684.422    1955.8619 
  127300    299.56413   -1153.6183    6450.4423    11696.552    1932.1501 
  127400    301.60722   -1158.6793     6381.851    11666.547    1971.3908 
  127500    298.66532   -1150.0552    6317.1834    11547.654    1905.2654 
  127600     300.5281   -1161.0078    6401.5447    11660.859    1948.1624 
  127700    297.05995   -1160.2373    6522.6725    11708.665     1917.566 
  127800    304.27073   -1156.3169    6539.6497     11883.61    1923.0757 
  127900    293.87132   -1151.9865    6419.4087    11545.532    1953.9935 
  128000    300.87903   -1160.7862     6355.864    11622.897    1989.5495 
  128100    306.78751   -1153.4406    6374.3052    11774.909    1962.8578 
  128200    295.35673   -1152.8076    6389.8789    11546.915    1912.0699 
  128300    303.65654   -1149.8483    6576.4052    11913.713    2018.9616 
  128400    301.16758   -1145.9518    6456.9458    11744.977     1976.527 
  128500    300.90137   -1154.0712    6317.4546     11591.68    1994.8602 
  128600    301.42356   -1152.6454     6342.365    11629.172    1988.6085 
  128700    300.63724   -1157.6248    6418.6988    11683.727    1943.4883 
  128800    303.18691   -1155.8178    6489.7456    11811.051    1927.5017 
  128900    298.44127   -1155.7587    6515.5218    11735.503    1908.7149 
  129000    301.26456   -1156.8203    6406.1449     11685.38    1919.6651 
  129100    300.64303   -1158.9263    6421.3395     11685.19    1986.2969 
  129200    302.97885    -1153.068    6430.4652    11750.076    1971.8308 
  129300    296.99339   -1150.7671    6457.6742    11651.715    1954.8911 
  129400    300.81076   -1153.4502    6292.5979    11565.508    1913.7294 
  129500    304.13919   -1151.0758    6512.5166    11858.908    2017.4498 
  129600    299.58298   -1155.5129    6425.8155    11670.433    1946.7658 
  129700    301.29832   -1156.9758    6365.0075    11644.808    1940.9798 
  129800    300.99787   -1155.7561    6494.1526    11768.754    1930.6181 
  129900    301.12903   -1166.7025    6352.6767    11619.134    1850.1898 
  130000    297.81845   -1157.3832    6486.8157    11691.867    1917.0631 
  130100    303.85717   -1157.4558    6448.9578    11782.944    1881.1558 
  130200    299.93382   -1155.3638    6469.8694    11722.132     1941.499 
  130300    306.15868   -1154.5697    6332.6708    11718.711    1940.5544 
  130400    298.66155   -1153.5959    6320.0695    11546.919    1943.1853 
  130500    301.93963   -1150.0463    6476.1065    11776.537    2002.8166 
  130600    301.21958   -1150.6381    6369.6221    11654.078    1980.1373 
  130700    304.37002   -1159.4618    6367.2224    11710.159    1950.3354 
  130800    300.28854   -1158.0297    6466.3573    11723.531    1960.6152 
  130900    308.40769   -1156.1172    6525.3675    11957.907    1979.9696 
  131000    296.68136   -1157.6908    6345.0699    11525.521    1948.6048 
  131100    301.60083    -1155.001     6400.994    11689.232    1956.8879 
  131200    300.67328   -1156.6289    6519.0602    11785.855    1925.2329 
  131300    301.41763    -1150.528    6529.7387    11818.536    1946.2987 
  131400    301.48764   -1153.1458    6493.0452     11780.72    2005.3629 
  131500    300.31561   -1156.2251    6338.9872    11598.544    1939.8055 
  131600    301.53782    -1151.414    6358.6104    11649.089    1987.0287 
  131700    297.44089   -1154.3958    6381.7457    11581.718    1955.6105 
  131800     303.0697    -1155.106    6586.1528    11905.666    1983.3861 
  131900    299.44338   -1154.9006    6443.7092    11685.957    1883.0075 
  132000    299.66121   -1159.5616    6349.5497     11591.79    1893.6046 
  132100    302.01702   -1156.1842     6499.864     11795.81     1962.712 
  132200    302.37341   -1158.1641    6377.1551    11678.735    1883.5898 
  132300    301.13973   -1150.7989    6391.2448    11673.834      1943.82 
  132400    305.46935   -1154.9142    6364.7615    11735.731    1991.0737 
  132500    297.17872   -1155.1063    6417.9242    11611.585    1932.5938 
  132600    302.60484   -1155.1735    6376.0516    11685.566     1908.752 
  132700     298.4663   -1147.4786    6480.9602    11709.756    1973.1625 
  132800    300.13551   -1154.7682     6454.309    11711.475     1962.998 
  132900    296.50107   -1158.3816    6292.8503    11468.759    1848.3065 
  133000    303.22198   -1157.2105    6380.9269    11701.589    1899.2175 
  133100    300.40667   -1154.6233    6465.5694    11728.674    1833.4544 
  133200    297.28914   -1160.8796    6426.6466    11616.893    1788.5375 
  133300    300.79001   -1155.3678     6424.794    11695.343    1915.2723 
  133400    301.52002   -1153.4181    6398.5353     11686.63    1898.7633 
  133500     305.2061   -1155.1233    6298.4916    11663.628     1920.606 
  133600    298.37476   -1157.8146    6369.5389    11586.043    1980.7522 
  133700    298.48083   -1152.1491    6548.8939     11773.33    2012.0354 
  133800    298.67782   -1150.9669     6391.728    11621.554    1952.8346 
  133900    300.54217   -1150.3977    6445.0899    11715.314    2009.1305 
  134000    299.93642   -1151.4347    6441.0977    11697.344    1963.5864 
  134100    301.40889   -1147.0265    6402.6629    11694.775    1921.2518 
  134200    298.95792   -1150.9469    6486.4567    11722.287    1974.1163 
  134300    299.64657   -1147.8949    6440.8548    11694.449    1905.5844 
  134400    298.93873   -1154.5218    6501.7789    11733.624    1961.8578 
  134500    299.30869   -1152.2075    6306.1903    11548.254    1918.5654 
  134600    302.79982    -1151.478    6479.7298    11797.105    1971.3717 
  134700    297.79379   -1146.8771    6408.8689    11623.899    1926.8126 
  134800    306.06258   -1148.6514    6416.7031    11806.609    1930.2545 
  134900    299.82332   -1154.0829     6528.742    11779.924    2007.4312 
  135000    304.12856   -1153.5166     6386.335    11730.059    1909.9036 
  135100    297.38557   -1156.0781    6388.9393    11586.048    1885.1543 
  135200    306.19446   -1154.9808    6370.9446    11757.339    1913.2808 
  135300    307.15167   -1151.9286    6439.5717    11849.467    1858.2368 
  135400    297.47244   -1154.0338     6549.019    11750.027    1939.0572 
  135500    303.18649   -1157.4964    6343.1062    11662.724      1908.74 
  135600    303.49445   -1151.3698    6374.4077    11706.731    1900.5194 
  135700    305.29687   -1153.2447    6407.8523    11776.807    1911.2678 
  135800    295.69368   -1154.0763    6411.2879    11574.253    1901.3008 
  135900    300.52511    -1156.652    6328.9628    11592.569    1897.4728 
  136000    297.32411   -1159.2666    6543.9595    11736.566    1975.2745 
  136100    304.06714   -1157.5501    6441.3378    11779.716    1975.2335 
  136200    298.34484   -1158.2592    6304.2063    11519.627    1923.4373 
  136300     299.1081   -1156.6157    6439.1408    11672.511    1915.2229 
  136400    293.85703   -1155.1485    6496.3485    11619.005    1961.3606 
  136500    301.80782   -1156.1255    6359.7737    11651.309    1993.4854 
  136600    300.43439   -1157.0052    6375.1576    11636.472    1929.1384 
  136700    298.10213   -1159.2311     6456.589    11665.852    1981.2311 
  136800    297.77987   -1157.2123    6342.2068    11546.605    1927.6025 
  136900    304.61625   -1154.8391    6473.3756    11826.195    1925.1932 
  137000    297.68478    -1153.968    6478.1415    11683.752    1894.3097 
  137100    304.48853   -1152.8915    6444.2914     11796.33    1924.9925 
  137200    302.64924   -1148.8371    6432.5748    11749.374    1877.3989 
  137300    299.72886   -1149.3773    6434.7558    11688.626    1842.7427 
  137400    302.20239   -1149.2544    6415.7369    11722.573    1900.0286 
  137500    300.44795   -1152.4131     6486.468    11752.664    1948.1302 
  137600    297.44487   -1154.1578    6376.1361    11576.431    1894.1047 
  137700    301.96634   -1155.7366    6501.7519    11797.063    1984.6102 
  137800    300.93975   -1154.5398    6392.3021    11666.878      1929.71 
  137900    297.93705   -1155.5446    6369.1422    11578.566    1926.6747 
  138000    302.91364   -1154.0312    6426.6291    11743.883    1952.8282 
  138100    295.58644    -1153.192    6452.9344    11614.493    1930.0741 
  138200    298.11649   -1153.9931    6349.8077    11564.616    1878.1084 
  138300    301.77317   -1152.0621    6440.1161    11734.975    1917.2613 
  138400    303.70025   -1154.0792    6588.2794     11922.29     1998.327 
  138500    300.98493   -1156.2113     6295.548    11569.418    1892.9955 
  138600    293.72375   -1155.4753    6441.5807    11561.063    1947.6165 
  138700    300.27653    -1154.058    6407.0008     11667.89    1893.2677 
  138800    300.46132   -1153.3791    6573.3618    11838.878    1979.8043 
  138900    297.61691   -1154.9125    6347.8691    11551.085     1881.675 
  139000    303.67365   -1155.5956    6349.8221    11681.748    1910.3306 
  139100    294.39758   -1155.1803    6411.0185    11545.191    1948.5335 
  139200    303.15364   -1153.9739     6476.994    11799.433    1958.3887 
  139300    304.37991   -1162.8794    6381.8785    11721.609      1898.71 
  139400    298.98389   -1161.4046    6456.4869    11682.414    1956.1077 
  139500    298.59744   -1156.4712    6369.3873    11591.992    1899.6902 
  139600    304.92768   -1159.0222    6437.3245    11792.614     1923.643 
  139700    297.51798   -1158.2682    6457.2818    11655.029    1936.2693 
  139800    302.01324   -1156.8997    6400.2297    11695.379    1937.7933 
  139900    298.84835   -1155.4275    6309.2431    11538.252    1857.7101 
  140000     296.1223    -1154.249    6411.9958    11583.945     1922.085 
  140100    300.24482   -1154.7348     6498.246    11757.781     2004.546 
  140200    301.93013   -1155.2985    6430.0918    11725.067    1905.7232 
  140300    294.53422   -1150.0924    6474.4689    11616.648    1913.1195 
  140400     301.7743   -1157.0623    6460.9317    11750.814    1954.5569 
  140500    300.87979   -1159.9295    6407.7152    11675.621    1937.8856 
  140600    301.37608   -1157.9714    6461.3438     11741.81    1956.6573 
  140700    296.54995   -1153.1028    6504.5032    11686.735    1943.4109 
  140800    296.95551   -1155.1055    6555.4097    11744.303    1952.4646 
  140900     297.9145   -1147.8007     6350.242    11566.927    1873.6417 
  141000    300.04329    -1150.652    6478.2253    11737.538     1902.379 
  141100    301.00046     -1149.41    6446.2102    11727.213    1946.1719 
  141200    299.06144   -1152.9008    6367.0136    11603.102    1899.2525 
  141300    298.62408   -1148.3031     6376.064    11607.406    1916.2027 
  141400    297.74274   -1151.5022    6438.9819    11648.296    1942.6035 
  141500    301.16325    -1153.783    6430.1979    11710.306    1951.9205 
  141600    299.46071   -1155.2681    6431.5416    11673.792    1881.5017 
  141700     298.8733   -1149.9586    6420.8534    11655.864    1808.2909 
  141800    300.88228   -1159.4812    6351.7127     11620.12    1896.2702 
  141900    298.88021   -1157.2725    6453.6246    11681.469    1954.1059 
  142000    302.43977   -1154.7987    6381.6996    11688.063    1952.8452 
  142100    302.01899   -1152.9147    6406.5032    11705.761    1922.8506 
  142200    298.26586   -1150.5734    6442.1319    11663.551    1881.0918 
  142300    301.61889   -1158.0578    6382.7982    11668.365    1940.9842 
  142400    299.28026   -1155.8132    6333.1388    11570.989    1902.2703 
  142500    301.85867   -1158.3018    6542.5008    11832.946     1987.623 
  142600    302.27956   -1155.1419    6435.0024    11737.599     1939.488 
  142700    300.00952   -1161.6438    6341.5344    11589.134    1901.7963 
  142800    305.57249   -1160.0461    6426.3891     11794.43    1901.0519 
  142900    298.05483   -1162.7045     6446.373    11651.153     1849.535 
  143000    301.40527   -1156.1362     6518.174    11801.099    1917.6557 
  143100    295.45115   -1159.0015    6371.7496    11524.609    1911.4581 
  143200    301.58891    -1152.307    6383.1372    11673.814    1933.9776 
  143300    295.43307    -1154.559    6353.8772    11510.792     1853.224 
  143400    297.27116   -1150.4581    6452.8277    11653.112    1951.4781 
  143500    298.73867    -1154.885    6432.4964    11659.705    1964.9879 
  143600    298.98396    -1158.359    6238.8287    11467.803    1891.7494 
  143700    299.09308   -1151.4417    6475.1551    11713.378    1927.0722 
  143800    305.91017   -1152.6859    6457.4274    11840.043    1935.0549 
  143900    300.70983   -1155.1874    6580.3846    11849.401    1959.5515 
  144000    299.71746    -1157.293    6419.1158    11664.826    1899.6236 
  144100    299.36676   -1154.6795    6424.2128    11665.045    1981.3156 
  144200     298.2129   -1153.9532    6420.2264    11637.134    1934.2568 
  144300    302.13668   -1149.7381    6440.0801    11745.029    1925.5519 
  144400     298.9672   -1152.3507    6450.0681    11684.693    1912.3295 
  144500     301.6885   -1152.8781    6402.2764     11694.51    1925.5706 
  144600    301.15289   -1149.4731    6447.8493    11732.046    1964.4863 
  144700    300.50001   -1150.0045    6400.7278    11670.445    1911.9705 
  144800    300.20216   -1154.1004    6516.0266    11775.285    1966.6619 
  144900    299.30403   -1155.5487    6266.6251    11505.248    1848.4315 
  145000    296.03457   -1163.6219    6418.3163    11579.019    1842.4644 
  145100     302.4796    -1163.744    6417.0237    11715.292    1867.2344 
  145200    300.87881   -1158.3102    6450.4293    11719.933    1901.5262 
  145300    302.22627   -1153.1285    6341.9677     11645.44    1919.9985 
  145400    295.09712    -1155.089    6464.9315     11614.14    1872.0195 
  145500    303.25048   -1156.9114    6427.8518    11749.422     1916.608 
  145600    301.09342   -1154.5248    6337.3376    11615.212    1926.1763 
  145700    296.95422   -1160.4752    6496.4769    11679.973    1917.8353 
  145800    298.52808   -1157.2244     6395.839    11616.209    1970.7079 
  145900    297.83007   -1162.6175    6453.1679    11653.233    1953.2045 
  146000    303.35933   -1158.5407    6432.5188    11754.785    1868.9946 
  146100    298.05667   -1162.6757    6411.7592    11616.607    1874.0823 
  146200     296.6033   -1167.1159    6357.3962    11526.755    1909.7534 
  146300    302.83892   -1161.5309    6410.8953    11719.053    1931.3126 
  146400    297.16626   -1156.4269    6523.9869    11716.061    1964.6394 
  146500    301.58299   -1156.9853    6394.0615    11679.934    1950.3093 
  146600    298.00181   -1148.7301    6400.0673    11617.689     1913.873 
  146700    293.72708   -1152.9222     6413.756    11535.862    1840.3054 
  146800    294.33744   -1156.6013    6506.6154    11638.082    1916.7045 
  146900    302.12888   -1155.9703    6318.5207     11617.07    1857.8644 
  147000     306.0981   -1156.7591    6412.4219    11794.979    1913.4257 
  147100    299.08622   -1148.4774    6438.9632    11680.004    1857.8158 
  147200    300.17535   -1150.2286    6421.9919    11684.549    1855.1459 
  147300    301.85194   -1157.7871     6414.548    11705.364     1889.997 
  147400    299.30776   -1151.9835    6368.8503    11611.118    1932.6041 
  147500    301.23056   -1153.1404     6434.304    11716.492    1945.0333 
  147600    301.19695   -1149.1429    6461.9173    11747.385    1936.3267 
  147700    303.34415   -1149.3254    6443.6685    11774.826     1943.409 
  147800    297.35166   -1151.5018    6395.2005    11596.161     1891.896 
  147900    302.12438   -1153.0744    6350.5607     11651.91    1895.3294 
  148000    297.56386   -1149.5879    6398.0114    11605.419    1908.2535 
  148100    299.47358   -1154.0224    6481.5734    11725.344    1899.8979 
  148200    299.01608   -1157.8537    6407.5851    11637.751    1877.1277 
  148300    296.97555   -1159.0678     6359.842    11545.201    1860.8198 
  148400    302.31063   -1159.6192    6476.4937    11775.277     1925.301 
  148500    300.41201     -1159.03    6415.2594    11674.071    1916.6765 
  148600    300.94123    -1158.546    6406.9674    11677.569    1972.4437 
  148700    298.03319   -1155.6218    6447.6633    11659.063    1949.8125 
  148800    305.71639   -1157.7544    6481.2422    11854.649    1958.1409 
  148900    295.87039   -1158.8385    6375.3656    11537.344    1890.4363 
  149000    302.68357   -1160.4925    6357.6523     11663.53    1948.2475 
  149100    300.82033   -1159.9682    6473.2828    11739.879    1949.0278 
  149200    295.43217    -1160.421    6515.5152    11666.549    1897.5958 
  149300    302.31257   -1161.3945    6446.7402     11743.79    1927.2942 
  149400    298.22798   -1164.1934    6372.4625    11579.452    1898.9348 
  149500    303.06117   -1163.3553    6371.4521    11682.534    1891.4311 
  149600    299.43622   -1158.9523    6490.8463    11728.889    1915.0801 
  149700    299.45237   -1155.5894    6422.6784    11664.429    1968.6971 
  149800       305.58   -1153.3441    6323.7108    11698.615    1964.0919 
  149900    300.64333   -1151.1845     6293.058    11564.657    1926.2775 
  150000    296.38859   -1149.8868    6465.8851    11647.886    1970.3063 
  150100    302.36116   -1147.7798    6434.7103    11746.413    1905.2473 
  150200    300.29125   -1155.3294    6454.6061    11714.539    1954.9264 
  150300    301.83048   -1161.1156     6344.026    11631.055    1959.7999 
  150400    300.18634    -1156.911     6422.101    11678.211    1953.7908 
  150500    301.78553   -1154.9171    6482.2057    11774.473    1943.5011 
  150600    298.40448    -1154.164    6454.3272    11675.117    1904.1492 
  150700    303.90656   -1151.5093    6442.7093    11783.697    1929.3347 
  150800    298.90654   -1148.3065    6509.0172     11746.39    1974.6013 
  150900    301.64539   -1147.8795    6337.9804    11634.292    1856.1862 
  151000    296.55245   -1151.2334    6363.3555     11547.51    1857.3294 
  151100    294.87323   -1148.3492    6493.6414    11644.806    1895.2274 
  151200    294.60427   -1156.2069    6467.4415    11605.003    1941.4619 
  151300    298.92205   -1151.7788    6370.3502    11604.582    1904.8314 
  151400    299.90641   -1153.4442    6601.0868    11854.683    1964.5142 
  151500    303.28533   -1158.3622    6367.7746    11688.638     1907.779 
  151600     302.8778   -1160.1473    6360.9177     11671.29    1936.1162 
  151700    301.20139   -1156.3943    6419.3541    11697.665    1909.3381 
  151800    297.95826   -1158.7378    6504.0303    11710.714    1919.7214 
  151900    305.53024   -1159.6995    6440.7906    11808.276    1910.6912 
  152000    304.02117   -1152.6081    6412.5055    11754.843    1894.8337 
  152100    305.24264   -1152.4616    6411.5713     11780.15    1907.4494 
  152200    301.37727   -1158.6928    6425.5873    11705.357    1966.1797 
  152300    300.89088   -1159.8737    6314.9962    11583.195    1875.6193 
  152400    298.60164   -1155.8584    6465.6632    11688.971    1931.6465 
  152500    305.85346   -1161.3051    6432.6818    11805.466    1893.2805 
  152600    300.20905   -1159.1918      6435.28    11689.594    1910.6068 
  152700    298.67532   -1163.4901    6328.7577    11546.007    1923.7969 
  152800    301.21188   -1156.5806    6490.5484    11768.897    1942.3003 
  152900    296.65609   -1155.4463    6572.1812    11754.337    1971.2839 
  153000    305.99397   -1155.3127    6392.0015     11773.78    1948.3312 
  153100    296.71072   -1157.3034    6340.6308    11522.097    1924.5662 
  153200     305.3387   -1159.7889    6300.4126    11663.717    1960.9459 
  153300    298.90723   -1152.2685    6510.0135    11743.439    1932.5273 
  153400     300.3564   -1152.4873    6504.3523    11768.519    1933.2185 
  153500    303.29344   -1155.6593    6455.6555    11779.395    1910.0879 
  153600    301.86694   -1153.7711    6254.0966     11549.25    1847.9297 
  153700    293.29251   -1155.4924    6413.6416    11523.894    1941.1993 
  153800    302.49669   -1157.9477    6409.0611    11713.491    1871.6141 
  153900    298.67186   -1152.0124    6429.9929    11658.647    1883.7448 
  154000    298.41465   -1148.5895    6536.4547    11763.036    1946.5381 
  154100    301.46732   -1148.5588    6448.7462    11740.574    1940.2809 
  154200    296.49453   -1146.5296    6324.6825    11512.304    1911.9591 
  154300    300.05985   -1148.9738    6351.6642    11613.009    1917.5783 
  154400    302.57559   -1149.2851    6437.5469    11752.325    1925.5065 
  154500    297.18246   -1154.1385    6521.4382    11716.147    1879.2022 
  154600     304.6848   -1153.3861    6492.4254    11848.163    1881.1009 
  154700    295.37969   -1154.7052    6256.0369    11411.666    1818.7113 
  154800    306.99507    -1153.441     6425.534    11830.572    1881.8076 
  154900    298.06181   -1157.4259    6432.9464    11643.154    1847.6236 
  155000    302.09015   -1153.2858    6507.2044    11807.611    1964.1025 
  155100    298.07801   -1154.2963    6373.0262    11586.709    1913.8591 
  155200    299.86006   -1161.6916    6347.4457    11591.804    1934.1701 
  155300    303.97362    -1156.705    6401.8569    11739.082    2010.9231 
  155400     296.8712   -1149.7219      6460.72    11653.196     1940.524 
  155500    295.84996   -1157.6263    6409.6911    11572.445    1910.1699 
  155600    302.77998    -1162.032    6358.9741    11665.372    1934.0661 
  155700    299.88356   -1160.8254    6502.4984    11748.225    2018.9952 
  155800    302.55647   -1158.0662    6433.1662    11738.755    1930.9521 
  155900    296.53704   -1159.7536    6337.0783    11512.384    1907.3734 
  156000    301.92392   -1159.8698    6420.6292    11710.901    1936.6549 
  156100    298.29917   -1155.8965    6370.1994    11587.007    1846.8286 
  156200     300.3821   -1158.8688     6406.619    11664.953    1871.9348 
  156300    304.11225   -1156.9408    6390.0202    11729.971    1944.1266 
  156400    301.05682   -1159.1061     6307.546    11580.057    1875.9893 
  156500    297.21865   -1158.1559    6398.6449    11590.109    1869.1458 
  156600    297.74883   -1150.5601    6517.6722    11728.059    1906.2237 
  156700    300.53238   -1162.4729    6381.1961    11639.136    1877.3973 
  156800     300.6743   -1154.3653    6326.1042    11595.184    1842.4064 
  156900    296.49337   -1157.8169    6364.9976    11541.307    1916.3546 
  157000    296.74578   -1157.3007    6430.5888    11612.806    1889.1703 
  157100    304.45177    -1153.287    6572.1466    11923.004    1894.1107 
  157200    300.56798   -1154.4317    6353.6958    11620.438    1886.5395 
  157300    303.66117   -1150.2128    6331.4306    11668.473    1864.6376 
  157400     299.1748    -1150.423    6606.4608    11847.448    1934.2485 
  157500    304.70552   -1155.7534    6442.0127    11795.825    1836.3216 
  157600     299.9895    -1154.023     6375.615    11630.407     1867.717 
  157700    300.31797   -1156.8198    6466.0507    11725.064    1917.3914 
  157800    294.79083   -1157.3418    6438.9309    11579.343    1903.2159 
  157900    302.80412   -1155.4477    6538.8243    11852.322    1954.8993 
  158000    299.94549    -1146.249    6498.5205    11760.147    1894.7752 
  158100    301.17883   -1151.9924    6332.6296    11614.861    1811.1189 
  158200    301.26328   -1155.0881    6367.4583    11648.398    1878.4944 
  158300    303.37058   -1149.9639    6460.6572     11791.74    1881.4328 
  158400    296.42162   -1154.4727    6447.3789    11625.499    1827.3217 
  158500    297.88352    -1154.791     6395.917     11604.95    1857.0214 
  158600    302.95506   -1160.8078    6421.5956    11732.958    1917.5599 
  158700    296.93989   -1158.4372    6444.4665    11629.694    1896.5468 
  158800    299.22665    -1155.969    6435.8795    11672.429     1938.041 
  158900    297.31552   -1159.3368    6352.4561    11544.809    1916.0784 
  159000    299.46229   -1158.0461     6397.539    11637.045    1895.0612 
  159100    297.70435   -1156.6613    6511.4202    11714.756     1928.304 
  159200    297.66779   -1151.2768    6320.7116     11528.65    1857.6457 
  159300    301.66679   -1158.7436    6348.8141    11634.719    1861.3359 
  159400    300.42604   -1154.0164    6439.1861    11703.311    1860.7814 
  159500    295.58826   -1154.2357    6389.7236    11550.278    1835.0129 
  159600    298.37086   -1150.9833    6377.8406    11601.093    1876.7368 
  159700    301.01734   -1153.1326    6395.4142    11673.055    1890.4659 
  159800    297.17702   -1159.6653    6502.7106    11691.776     1958.316 
  159900    298.84352   -1162.7634    6414.1016    11635.671    1914.4366 
  160000    303.00656   -1153.7752    6392.2236    11711.719    1879.3799 
  160100    303.88776   -1159.4089    6446.3687    11779.056    1911.7548 
  160200    296.87267   -1157.3441    6441.8297    11626.715      1896.47 
  160300    303.42827   -1153.5413    6451.6683    11780.406    1951.0233 
  160400    294.64929   -1156.1591    6345.8918    11484.463    1819.9637 
  160500    296.18889   -1151.7674    6421.0053    11596.859    1815.6184 
  160600    297.52533   -1146.0407    6426.9412    11637.073    1900.4172 
  160700    298.24674   -1155.3573    6354.1656    11570.392    1875.8258 
  160800    300.22037   -1157.2738    6336.6411    11593.115    1834.9218 
  160900    300.23231   -1160.6389    6491.2543    11744.618    1930.7338 
  161000    299.05244   -1156.7327    6391.0048    11623.069    1856.4656 
  161100    301.28923   -1159.7787      6446.57    11723.373    1884.0403 
  161200    300.37172   -1156.4688    6484.0072    11744.519    1936.9727 
  161300      299.937   -1155.6346    6322.4415    11574.501    1834.4979 
  161400    297.68987   -1155.4803    6489.6656    11693.873    1891.2338 
  161500    305.23918   -1152.4159    6439.1943    11807.745    1878.8839 
  161600    298.94724   -1158.3981    6336.3657    11564.517    1902.0001 
  161700    300.94511   -1156.5094    6395.5859    11668.307    1828.9704 
  161800    301.93448   -1154.7808    6447.5847    11743.171    1869.3779 
  161900    300.62254   -1163.8359      6418.72    11677.223    1875.5873 
  162000    298.05051   -1163.1967     6335.973    11540.168    1818.0358 
  162100    302.99533   -1162.2145    6439.5246     11750.34    1923.4839 
  162200    300.01568   -1160.1165    6419.9551    11669.213    1913.7187 
  162300    301.39739   -1158.0436    6426.7397    11707.589    1865.4289 
  162400    298.69361   -1153.3929      6413.68    11641.418    1874.5622 
  162500    301.27565   -1149.6072    6498.2127    11784.898    1912.9518 
  162600    303.59502   -1152.5701    6421.1171    11754.389    1880.9033 
  162700     296.5776   -1154.9611    6362.4656     11543.43    1892.9019 
  162800    297.98648   -1158.1441    6359.5638    11567.444    1850.9883 
  162900    298.57282   -1156.8277    6433.1788    11654.901    1870.2252 
  163000    299.76263   -1148.0853    6454.2205    11710.104    1871.6685 
  163100    300.79098   -1159.1776      6442.67     11709.43    1892.7325 
  163200    299.76373   -1153.6189     6359.138    11609.511    1831.5596 
  163300    299.42741     -1153.79     6410.815    11653.832    1913.6035 
  163400    299.75314   -1149.9573     6315.582    11569.391    1834.6162 
  163500    297.81284   -1152.5309    6513.5559    11723.339    1865.6778 
  163600    302.52843   -1147.1635    6562.7052    11878.597    1894.5478 
  163700     300.8334   -1146.4553    6405.0473    11685.436    1846.4426 
  163800    302.82083   -1150.1765     6390.734     11709.86     1868.301 
  163900    297.68351   -1156.3722    6388.8446    11592.024     1858.777 
  164000    298.83816   -1151.0653    6445.4998    11678.653    1846.8216 
  164100    301.15223   -1152.7916    6481.1589    11762.023    1875.9509 
  164200    302.11013    -1156.353    6453.7697    11751.536    1895.2714 
  164300    298.45182   -1153.7076    6383.7214    11605.979    1905.6885 
  164400    300.25194   -1156.7967    6393.3424    11650.968    1908.9783 
  164500    300.91975    -1149.902    6407.7899    11686.577    1930.2208 
  164600    299.88922    -1150.389    6356.4357     11612.72    1891.7681 
  164700    300.99211   -1151.9816    6485.7522    11764.005     1930.295 
  164800    299.95303   -1155.3091      6254.43    11507.157    1823.7337 
  164900    299.46898   -1156.2088    6404.6002    11646.087    1991.8167 
  165000    300.94523   -1153.5838    6434.1911     11709.84    1972.7009 
  165100     303.1634   -1151.3447    6409.7095    11734.986    1858.8364 
  165200    296.15824   -1157.7194    6440.2492    11609.496     1854.218 
  165300    302.86259   -1157.5814    6407.6086    11720.222    1888.5306 
  165400     300.4447    -1153.041    6424.3548    11689.854     1866.049 
  165500     291.6031    -1159.578    6399.4418    11469.517     1893.956 
  165600    298.78987   -1155.0775    6365.1218    11593.231    1908.6744 
  165700    304.06142   -1153.1483    6420.2933    11762.951    1855.9304 
  165800    299.85285   -1156.7475    6420.0482    11669.197    1908.0717 
  165900    299.57236   -1159.0681    6406.7699    11647.606    1992.2035 
  166000     303.9457   -1157.1034    6469.0882    11805.318    2018.2705 
  166100    296.74332   -1158.5028    6358.0615    11539.024    1845.7615 
  166200    304.05626   -1159.9808    6494.4314    11830.146    1984.9776 
  166300    295.24916   -1152.4151    6491.1493     11646.28    1940.6583 
  166400    302.62748   -1153.8039    6456.5182    11767.886    1951.1516 
  166500    299.12123   -1158.3299    6375.7084    11607.645    1985.8586 
  166600    298.83049   -1153.9014    6451.9244    11682.078    1949.4552 
  166700    295.34858    -1151.554    6552.0171    11710.132    1962.9764 
  166800    299.31125   -1155.1844    6378.5769    11617.718    1934.6223 
  166900    299.95766   -1151.3485    6480.1283    11736.915    1973.8448 
  167000    298.85088   -1153.7227    6277.3807    11508.149    1863.7465 
  167100    301.91028    -1150.307    6474.4115    11773.954    2013.4829 
  167200    300.74635   -1154.6816    6325.5541    11595.857    1937.9159 
  167300      300.146   -1158.3067    6513.6927    11767.545    1904.9301 
  167400    298.91198   -1150.9765    6564.5347    11799.354    1935.7265 
  167500    303.88428   -1156.5769    6379.9298    11715.374    1945.8871 
  167600    296.63878   -1157.6378    6411.1782    11590.773    1901.0768 
  167700    302.63679   -1157.6893    6377.8734    11685.555    1888.2711 
  167800    300.85265   -1156.1265    6371.8086    11642.937    1902.4131 
  167900     299.7398   -1150.1421    6499.4593    11752.798    1886.4017 
  168000    301.81077   -1145.5066    6455.0451    11757.263    1846.3069 
  168100    296.90039   -1154.6851    6428.3745    11616.511    1870.4153 
  168200    305.92843    -1155.056    6430.0387    11810.674     1965.764 
  168300    298.76462   -1152.9219    6403.9475    11633.673    1894.8752 
  168400    303.85795   -1155.2431    6454.6587    11790.874    1939.4194 
  168500    297.05118   -1157.3892    6397.3209    11585.974    1886.3341 
  168600    303.99772   -1156.7649    6572.6317    11910.312    1964.8993 
  168700    301.04987   -1154.8192     6385.803    11662.452    1895.9938 
  168800    298.92216   -1155.3048    6420.4599    11651.168    1934.4761 
  168900    301.12511   -1158.0694    6420.3091    11695.316    1932.1029 
  169000    302.98342   -1159.6542    6345.7033    11658.825    1910.5986 
  169100    297.08832    -1154.475    6406.8166    11599.178    1873.5519 
  169200     300.3019   -1150.7945    6453.1119    11717.807    1913.0764 
  169300    305.31854    -1150.985    6399.4171    11771.094    1939.0412 
  169400    299.71149    -1153.457    6299.4835    11548.903    1811.0024 
  169500    304.71458   -1148.3103    6394.6058    11756.055    1861.2358 
  169600    304.73515   -1151.6978    6510.0029    11868.504    1857.5038 
  169700    296.60903   -1152.8398    6488.6633     11672.42    1818.7318 
  169800    298.29249   -1154.4868    6410.5504    11628.625    1864.8767 
  169900    302.67065   -1157.5567    6378.8541    11687.392    1912.2629 
  170000     297.1479   -1155.6979    6344.3404    11536.751    1871.9215 
  170100     300.0124   -1154.6111    6420.7861     11675.48    1879.9878 
  170200    301.24271   -1158.1785    6472.5532    11749.963    1883.0394 
  170300     300.8628   -1153.6461    6521.1461    11794.972    1892.6586 
  170400    305.47753   -1151.7137    6446.9911    11821.336    1856.7355 
  170500    298.18679   -1153.1547    6385.4821    11602.631    1938.6177 
  170600    301.19093   -1157.4354    6296.2287    11573.275    1863.2399 
  170700    298.76847   -1150.3476    6443.7581     11676.14    1867.1367 
  170800    300.53527    -1155.849    6509.9937     11774.62     1847.758 
  170900    299.86973   -1154.5674    6385.0243    11636.713    1773.3322 
  171000    300.10073   -1153.9735    6465.7248    11722.943     1825.567 
  171100    302.53935   -1154.8451     6421.539    11729.983    1857.4174 
  171200    299.28979   -1150.2289    6316.2652    11559.903    1861.3742 
  171300    294.77155   -1151.6095    6386.8148    11532.547    1840.9161 
  171400    306.27098   -1149.4419    6481.0726     11874.64    1871.2935 
  171500    294.69611   -1153.2671    6410.3625    11552.825    1860.2507 
  171600    301.44506   -1153.2737    6324.0691    11610.707    1846.0775 
  171700    302.77324   -1158.9681    6389.5719    11698.889    1818.2479 
  171800    299.11695   -1154.9316    6540.4772     11775.72    1926.8843 
  171900     301.7155   -1157.5693     6376.821     11664.94    1816.0358 
  172000    294.39212   -1154.8528    6370.2061    11504.589    1805.5759 
  172100    296.40829   -1150.4366    6437.4734    11619.345     1854.924 
  172200    300.84167   -1158.1301    6475.1183    11744.009    1981.7995 
  172300    305.47754   -1157.8919    6381.7371    11749.904    1931.6545 
  172400    299.10963     -1150.98    6426.1903    11665.228    1938.2592 
  172500    302.87188   -1149.1583    6400.9669    11722.202    1959.8914 
  172600    296.90987   -1157.4356    6421.2444    11606.833     1869.241 
  172700    301.86783   -1153.2915    6447.2237    11742.875    1918.7049 
  172800      300.577   -1157.3947    6415.5918    11679.564    1895.2306 
  172900     301.0338   -1153.0448    6431.9072    11709.987    1897.2002 
  173000    295.21523   -1153.3596    6403.7457    11557.207    1897.6621 
  173100    304.32904   -1156.9313     6436.358     11780.95    1955.1068 
  173200    297.75737   -1153.9442    6437.0728    11644.258    1917.7107 
  173300    298.86008   -1155.6853     6305.664    11534.666    1861.5455 
  173400    301.25288    -1150.525    6442.1197      11727.4    1939.8271 
  173500    299.86344   -1146.1654    6474.5877    11734.545    1904.6226 
  173600    298.71429   -1152.2084    6387.8421    11617.206    1869.9483 
  173700     300.3063   -1152.5663    6372.2843    11635.301     1870.466 
  173800    299.84338   -1154.8343    6468.3862    11719.246    1872.5684 
  173900    299.65903   -1154.5033    6402.3053    11649.558    1804.8673 
  174000    299.05738   -1150.2476     6404.242    11642.896    1886.2917 
  174100     298.3723   -1151.2455    6423.5399    11646.561    1847.0023 
  174200    297.73284    -1153.055    6415.7056    11623.256    1902.3781 
  174300     297.2728    -1146.558    6452.7105     11656.93    1938.9707 
  174400    304.53253   -1148.9076    6421.3837    11778.346    1970.3588 
  174500    300.65602   -1153.3823    6377.3789    11647.051    1923.6312 
  174600    307.18546   -1152.4243    6431.5135    11841.635    1968.1391 
  174700    299.34545   -1150.7054     6453.754    11698.105    1951.2762 
  174800    294.71162   -1152.8647    6359.6085    11502.805    1913.0399 
  174900    299.24465   -1151.1039    6441.9121    11683.711    1970.0536 
  175000    296.98283   -1153.9037    6295.1566    11485.835    1870.8796 
  175100    299.55521   -1153.1593    6442.0239    11688.402    1909.0429 
  175200    303.51621   -1152.7589    6433.1333    11764.533    1883.8171 
  175300    300.66519   -1155.2438    6494.9282    11762.935    1931.8235 
  175400    296.87873   -1153.0582    6410.2347    11599.535    1921.8598 
  175500    305.45031   -1153.0878    6388.0619    11760.451    1951.1691 
  175600     305.2605   -1159.9461    6358.6454    11720.121    1876.2622 
  175700    299.69218   -1157.4246    6406.2378    11651.277    1890.9037 
  175800    297.29921   -1157.0813    6362.7774    11557.037    1883.1212 
  175900    300.46552   -1158.1617    6456.6427    11717.466    1885.8938 
  176000    301.70582   -1165.1258    6384.9888    11665.345    1853.9701 
  176100    292.77623   -1159.0021    6416.1024    11511.815    1901.6931 
  176200    303.74142    -1154.128    6455.7368    11790.578     1984.544 
  176300    300.79148    -1155.591    6365.8496    11636.207    1884.3504 
  176400    306.07966   -1154.5943    6414.4784    11798.806    1930.6374 
  176500    297.46205   -1162.0402    6358.0343    11550.814    1911.1473 
  176600    298.62996   -1159.6281    6344.1874     11564.33    1884.2191 
  176700    297.19106   -1156.1357    6410.7994    11603.695    1878.5026 
  176800     298.2224   -1158.7781    6443.5871    11655.873    1864.6939 
  176900    304.71285   -1157.7391    6435.0084    11786.992    1957.3668 
  177000    295.78519   -1155.6196    6418.0786    11581.456    1928.2623 
  177100    299.74284   -1153.6316     6388.911    11638.825    1939.7135 
  177200    299.60452   -1156.7794    6482.3844    11726.196    1905.6608 
  177300    303.73424    -1154.459    6408.3103    11742.667    1860.4062 
  177400     299.9946   -1148.4987     6406.274      11666.7    1862.3586 
  177500    298.72308   -1156.8458    6442.4075    11667.322    1907.9122 
  177600    302.06899   -1154.4298    6428.0723    11726.883    1889.9618 
  177700    303.34379   -1152.4028    6369.3682     11697.44    1869.9625 
  177800    300.23356   -1156.5359    6500.3202    11757.814    1860.6939 
  177900    298.04503   -1155.1842    6457.0748    11669.165    1870.6605 
  178000    301.14283   -1157.1857    6469.0499    11745.319    1856.8842 
  178100    297.47461   -1150.9129    6428.8019    11632.978     1803.467 
  178200    302.88326   -1153.3078    6512.3949    11829.723    1904.9599 
  178300    297.05962   -1154.2171    6352.7796    11544.786    1817.8099 
  178400    305.10139   -1151.0058    6496.3071    11863.324    1948.2733 
  178500    299.56317   -1155.0818    6336.4898    11581.116     1905.095 
  178600    300.40894    -1151.052    6461.8743    11728.598    1898.5696 
  178700    301.03205   -1149.4469    6403.1148    11684.756    1889.5853 
  178800    297.25476   -1153.5819    6404.7442    11601.554    1915.2939 
  178900    300.68509   -1154.6233    6403.3591    11672.411    1876.9873 
  179000    300.02324   -1153.5036    6396.5723    11652.605     1851.922 
  179100    299.33752   -1158.0936    6448.1361    11684.929    1918.1916 
  179200    300.57951   -1162.9281    6429.4379     11687.93    1937.5199 
  179300    303.43899   -1160.2217     6442.361    11764.648    1975.8068 
  179400    299.46588   -1158.1549    6384.1402    11623.614    1925.5616 
  179500     299.5863   -1154.8685    6378.1154    11623.449    1915.5349 
  179600    298.36974      -1151.7    6453.0315    11675.543    1891.8801 
  179700    298.47533   -1157.7899    6428.9831    11647.661     1875.146 
  179800     301.1097   -1153.7911    6374.0634    11653.019    1868.3338 
  179900    308.08472   -1151.9632     6376.426     11806.22    1890.9325 
  180000    299.39905   -1156.5108    6480.6139    11720.304    1897.6822 
  180100    300.96707   -1157.7387    6425.9043    11697.865    1895.2761 
  180200    304.61447   -1158.1015    6373.4673    11722.987     1873.934 
  180300    300.68708   -1157.0638    6452.4386    11719.093    1838.3504 
  180400    296.91726   -1156.8259    6422.2203    11608.576    1867.9439 
  180500    299.29506   -1154.3574    6393.9107    11633.533    1854.4142 
  180600    301.26639   -1154.8863    6407.7288    11688.937    1919.6616 
  180700    296.85948   -1154.7402    6443.0438    11630.251    1968.4592 
  180800    305.91658    -1157.272    6306.6113    11684.778    1912.3486 
  180900    297.15056   -1155.0892    6440.4395    11633.516    1890.7823 
  181000    304.21858   -1149.6904     6394.357     11743.83    1867.1514 
  181100    295.23593   -1143.6249     6435.448    11599.086    1892.0384 
  181200    297.44503   -1156.8501    6451.2159    11648.822    1905.9606 
  181300    301.35877   -1152.5875    6449.0987    11734.579    1890.8728 
  181400    297.72053   -1153.3096    6301.5952    11508.628    1872.6602 
  181500     295.9484   -1149.4708    6357.0019    11530.015     1895.663 
  181600    300.15464    -1147.707    6463.0507    11727.687    1922.6878 
  181700    301.40381   -1157.4285    6455.0475    11736.649    1968.7237 
  181800    299.79811   -1149.9636    6448.0313    11702.794    1946.7375 
  181900    299.51491   -1154.1746    6504.2416    11748.743    1892.2567 
  182000     298.0183   -1153.6887     6357.204    11570.219    1876.2659 
  182100    301.55125   -1158.2144    6389.7644     11673.73    1932.0427 
  182200    300.29748   -1154.8067    6420.3268    11680.915    1884.9767 
  182300    303.52109   -1154.5256    6367.5848    11697.321    1863.5564 
  182400    295.65925   -1153.6112    6489.9408    11652.636    1848.6864 
  182500    301.43651     -1153.95    6499.8339    11785.612    1904.4129 
  182600    298.50527   -1158.0734    6331.2346    11550.268    1841.3118 
  182700    299.19863   -1161.4293    6337.3091      11567.8    1857.8164 
  182800    299.39834   -1152.9718    6498.8985    11742.113    1911.4661 
  182900    299.71495   -1154.7076     6497.779    11746.022    1867.3501 
  183000    307.91557   -1148.0166    6423.1152    11853.242    1839.3907 
  183100    304.71258   -1150.1553    6417.8102    11777.372    1914.5931 
  183200    299.50153   -1152.2451      6347.37    11593.516    1897.0973 
  183300    302.57455   -1156.5322    6499.0225    11806.531    1929.9024 
  183400    292.23207   -1155.7899     6351.135    11438.435    1872.4399 
  183500    298.53406   -1157.8934    6557.5991    11777.428    1929.2337 
  183600    301.28598   -1159.0872    6439.4215    11716.847    1821.2576 
  183700    301.40023   -1159.0675    6215.6826    11495.569    1776.9458 
  183800    303.78967   -1153.6801     6428.956    11765.276    1910.7204 
  183900    296.18043   -1154.5381    6471.9413    11644.844    1886.3076 
  184000    299.16224   -1153.0104    6498.9188    11737.051    1959.5315 
  184100    302.78533    -1153.339    6428.0967    11743.302    1905.2777 
  184200    304.29085   -1149.4676    6405.3183    11756.558    1911.5771 
  184300    298.52752   -1156.2077    6326.0371    11547.412    1864.1371 
  184400    304.34227   -1151.5598    6355.3979    11705.644    1858.7196 
  184500    303.55865   -1150.1347    6424.6854    11759.616    1851.2643 
  184600    298.28116   -1157.2843    6464.8556    11679.891    1868.1917 
  184700    304.50078   -1153.6383    6322.6621    11674.216    1853.1696 
  184800    298.84997   -1150.3843    6429.9677    11664.054    1879.5185 
  184900    298.93018   -1152.7249    6485.3363    11718.796    1898.9029 
  185000    299.79418   -1157.4926    6306.6222    11553.772    1956.7651 
  185100    298.70372   -1159.4377    6389.7396    11611.649     1998.207 
  185200    301.74051   -1154.8084    6476.7933    11768.208     1983.476 
  185300    297.23269   -1151.6089    6321.8848    11520.196    1882.9559 
  185400    301.24532   -1159.4044    6464.3939    11740.634    1963.5543 
  185500    297.22905    -1157.371    6441.4837    11633.955     1847.937 
  185600    305.19406   -1156.9154    6400.5824     11763.67    1932.3765 
  185700    297.55481   -1158.5371    6408.3322    11606.597    1866.8903 
  185800    302.50524   -1155.1163    6512.7533    11820.197    1962.0367 
  185900    299.36439   -1156.9212    6454.6477    11693.187    1938.2151 
  186000    302.50744   -1156.5276    6407.2796    11713.359    1910.0559 
  186100    298.05983   -1155.7752    6441.8029    11653.619    1901.7164 
  186200    301.38937    -1156.727    6453.9341    11735.929    1885.3538 
  186300    302.97119   -1153.0622    6406.0112    11725.464    1895.3733 
  186400    296.40682   -1152.3614    6511.1758    11691.091     1960.192 
  186500    299.61178   -1156.0073    6346.9697    11591.708    1928.5158 
  186600    301.71365   -1158.3379    6357.0759    11644.387    1915.7504 
  186700    297.38953    -1152.829    6409.1192    11609.561      1904.51 
  186800    306.71183   -1154.8957     6507.784    11905.316    1885.6774 
  186900    298.21974   -1153.0776    6448.7402     11666.67    1881.8545 
  187000    303.86382   -1153.7282    6336.5974    11674.454    1926.2307 
  187100    300.93527   -1158.0693    6328.3789     11599.33    1917.2871 
  187200    297.14297   -1153.7236    6407.6848    11601.965    1972.5443 
  187300    302.79731   -1152.2074     6378.547     11695.14    1910.2785 
  187400    297.19113   -1147.1184    6426.0186    11627.933    1934.6159 
  187500    301.06788   -1147.3868    6380.7493    11665.216    1906.5674 
  187600    297.31221   -1148.1163    6428.7702    11632.273    1892.3844 
  187700    306.59263   -1151.9741    6484.1884    11882.095    1960.9606 
  187800    300.05877   -1157.2395     6401.109    11654.165    1935.6822 
  187900    302.63016   -1156.7755    6352.4905    11660.944    1935.3952 
  188000    297.46555   -1156.9757    6344.7721    11542.692    1935.8012 
  188100    301.21331   -1154.5737    6461.9637     11742.35      1955.58 
  188200    297.13292   -1153.0697    6468.6029    11663.322    1943.3344 
  188300    302.03721   -1154.6953     6407.317    11705.183    1868.3016 
  188400    297.12106   -1151.5225    6390.3786    11586.392    1827.2983 
  188500    294.90761   -1152.3191         6403    11550.929    1855.5686 
  188600    298.98113   -1152.2118    6299.1379    11534.199     1882.316 
  188700    303.76225   -1148.5045    6336.1394    11677.049     1911.393 
  188800    299.77589   -1156.9972    6380.7313    11627.986    1841.6848 
  188900    299.67557   -1158.8441    6487.9423    11731.207    1913.4755 
  189000    296.56331   -1157.0078    6427.3257    11605.938    1882.9454 
  189100     299.0192   -1162.3974    6422.5892    11648.278     1962.526 
  189200    300.10269   -1157.4004    6281.4703    11535.304    1893.3163 
  189300    298.03111   -1150.6412    6402.5856    11618.922    1950.9944 
  189400    302.22143   -1146.2507    6468.7529    11778.999      1952.64 
  189500    292.76743   -1154.3134     6425.333    11525.547    1920.9356 
  189600    302.64942   -1152.4746    6332.9513    11646.117    1936.1476 
  189700    296.40591   -1154.6548    6440.7742    11618.377    1937.1913 
  189800    305.61939   -1155.4464    6375.5572      11749.2    1854.8682 
  189900    301.15797   -1159.4716    6485.4404    11759.747    1927.7786 
  190000     302.3943   -1159.4735    6374.4263    11675.143    1818.2373 
  190100    295.23266   -1154.7724    6395.1712    11547.592    1811.5929 
  190200    301.64862   -1157.0594    6381.5861    11668.787    1891.9903 
  190300    296.79273   -1154.9875    6510.0281    11695.562    1958.6536 
  190400    301.32428   -1151.0423    6478.1638    11764.452     1879.907 
  190500    295.59871   -1156.3335    6437.9491    11596.629    1911.5388 
  190600     302.4633   -1154.6672    6247.3194    11554.317    1886.8002 
  190700    298.87568   -1153.8328    6406.8477    11638.035    1947.6532 
  190800    300.75007   -1154.6286    6416.9874    11687.423    1914.0527 
  190900    298.70998   -1152.8385    6405.7831    11634.425    1896.2173 
  191000    303.60991   -1151.6012    6374.1005    11708.659    1880.6355 
  191100    299.78328   -1152.0625    6496.7743    11749.122    1899.3143 
  191200    296.09925   -1152.8277    6418.3072    11591.186    1799.6173 
  191300    301.18979   -1153.6592    6444.8187    11725.617    1851.6497 
  191400    295.85804   -1152.9848    6386.4495    11554.018    1885.6943 
  191500    303.01182    -1155.658    6317.9332    11635.658    1908.6964 
  191600    296.66567   -1152.1042    6400.5888    11586.292    1934.2603 
  191700    301.25743   -1153.4178    6480.3318    11762.817    1953.5728 
  191800    301.57609   -1149.6826    6446.8242    11739.852    1936.3915 
  191900     296.6566   -1150.9226    6379.6278    11566.318    1919.4259 
  192000    302.91806    -1149.856    6436.7766      11758.3    1927.8265 
  192100    294.02954   -1156.5849    6331.5383    11456.443    1840.8671 
  192200    299.46155   -1157.0018    6382.6795    11623.214    1868.3613 
  192300    296.58316   -1151.1573    6432.7788    11617.666    1867.0265 
  192400    303.80855   -1159.7249    6380.1329    11710.812    1860.2777 
  192500    294.91929   -1158.6005    6529.4638    11671.361    1916.5892 
  192600    300.66014   -1156.3071    6409.2077    11676.043    1845.1317 
  192700    298.14915   -1159.2613    6496.4257    11706.664    1945.3251 
  192800    298.64814   -1152.8915    6413.4877    11640.756     1891.144 
  192900    301.22848   -1151.4884    6331.5863    11615.382    1876.8449 
  193000    299.81951    -1161.774    6424.0224    11667.432    1948.9007 
  193100    296.38551   -1153.3403    6466.8752    11645.357    1904.4427 
  193200    302.22807   -1156.4709    6483.4389    11783.607     1852.132 
  193300    293.85499   -1158.5939    6442.6296    11561.797    1880.0036 
  193400    301.16038   -1156.2991    6386.0779    11663.608    1892.6835 
  193500    301.26658   -1158.6368    6364.1809    11641.642     1880.787 
  193600    294.94628    -1156.961    6445.3342    11589.448    1891.7757 
  193700    306.14737   -1155.0929    6559.2945     11944.57    1987.4373 
  193800    296.93411    -1151.399    6385.1086    11577.251    1832.6587 
  193900    294.27274   -1151.6379     6377.746    11512.794    1842.2053 
  194000    302.31693   -1152.3179    6398.7779    11704.997    1847.5278 
  194100    301.07377   -1155.1731    6397.3386    11674.145     1808.848 
  194200    302.80551   -1151.4514    6414.2402    11731.764    1778.7332 
  194300    297.64667   -1157.0643    6470.5752    11672.275    1865.9332 
  194400    300.88242   -1155.7155    6390.7358    11662.911    1837.6998 
  194500    299.60711   -1152.7451    6399.3386     11647.24    1845.3614 
  194600    295.18448   -1155.9118    6517.6366    11667.888    1904.5883 
  194700    302.70096   -1149.0844    6434.2451    11751.902    1882.0248 
  194800    298.50932   -1154.1705    6269.3249    11492.348    1819.0548 
  194900    300.04923   -1150.6639    6456.0593    11715.487    1920.3334 
  195000    297.37624    -1148.239    6473.0527    11677.801     1902.625 
  195100    302.93997   -1151.7921    6438.1597    11758.215    1926.2086 
  195200    299.34824   -1154.1803    6352.6848     11593.62    1906.8919 
  195300     298.1739   -1159.1824    6338.9388    11549.784    1848.3334 
  195400    304.45012   -1157.2326    6540.2062    11887.083    1886.5479 
  195500    296.89752   -1164.0322    6532.9849    11711.713    1845.8113 
  195600    302.70316    -1158.893    6390.1605    11698.056    1837.0761 
  195700     301.1213   -1160.6839     6357.555    11629.866     1847.544 
  195800    301.44876   -1159.7245    6447.0226    11727.288    1863.8292 
  195900    303.23855    -1159.077    6545.4908     11864.64    1886.9834 
  196000    298.41663   -1157.7454    6451.9287    11669.397    1895.3004 
  196100    298.32952   -1155.5288    6330.7095    11548.533    1853.9663 
  196200    303.02463   -1155.0724    6426.8075    11745.391    1860.8617 
  196300    295.93049   -1154.7453    6365.9352    11533.291    1809.9231 
  196400    302.25592   -1155.1334    6342.5545    11644.655    1853.2733 
  196500    293.26697    -1159.224    6358.1557    11464.131    1840.9399 
  196600    301.29249   -1156.2979    6393.6115    11673.965    1886.8605 
  196700    301.98354   -1155.6209    6381.7228    11677.517    1889.6906 
  196800    298.43077   -1151.0283    6487.6451    11712.132    1842.0634 
  196900    298.62645   -1153.9102    6385.2113    11610.997    1904.9608 
  197000    302.09548    -1153.093    6346.8816    11647.595    1920.4404 
  197100     299.7664    -1150.848    6505.7031    11758.904    1920.8437 
  197200    294.89948   -1147.4867    6407.1832    11559.771    1904.1491 
  197300    302.64682   -1154.2193    6424.9686    11736.334    1905.5869 
  197400    298.59508   -1153.0205    6486.7099    11712.715    1849.8618 
  197500    298.81011   -1153.5527    6454.6634     11684.73    1829.5848 
  197600    301.81983   -1150.8821    6401.3269    11698.362    1836.1081 
  197700    303.91728   -1151.2791     6427.763     11769.21    1834.6367 
  197800    300.91173   -1148.9965    6378.3719    11657.893    1762.0547 
  197900    303.64903   -1149.6225    6439.1283    11776.501    1873.4236 
  198000    295.68161   -1144.5159    6403.8217     11576.09    1803.2344 
  198100    302.91632   -1146.2333    6493.6838    11818.793    1876.2852 
  198200    299.40106   -1146.6131    6374.8129    11624.444     1902.988 
  198300    297.83916   -1150.9554    6421.5408    11633.462    1914.7484 
  198400    296.54285   -1147.8257     6409.559    11596.916    1880.5377 
  198500    300.94358   -1152.7166    6393.9585     11670.44    1844.5048 
  198600    298.47133   -1153.4638    6347.0849    11570.003     1806.123 
  198700    297.77901   -1155.6181    6499.8773    11705.851    1910.5054 
  198800    301.86509   -1152.9676    6411.0689    11706.986    1872.7651 
  198900    298.11707   -1155.7868     6405.704    11618.731    1879.7155 
  199000    299.16397    -1148.703    6384.3932     11626.87    1860.2087 
  199100    297.61008   -1149.0862     6545.911    11754.808    1943.6578 
  199200    301.37767   -1147.7981    6318.6661    11609.339    1894.3726 
  199300    298.23971   -1149.4727    6304.1309    11526.092      1899.17 
  199400    298.03585   -1154.0257    6455.9399    11668.993      1945.61 
  199500    303.10969   -1152.4511    6418.9598    11741.982    1925.9702 
  199600    298.42622   -1155.1444    6499.5696    11719.843    1917.0191 
  199700    299.17226    -1159.933    6289.1438    11520.567    1831.4636 
  199800     300.2582   -1161.0249    6344.9165    11598.447    1899.4116 
  199900    303.57835   -1150.4214    6396.2221    11731.286    1929.3966 
  200000    296.23321   -1152.9151    6433.1008    11608.754    1854.5918 
  200100    303.14589   -1151.2932    6496.6049    11821.559    1863.9862 
  200200    298.49541   -1154.3714    6410.4041    11632.929    1903.4597 
  200300    296.77726   -1147.5895    6394.7319    11587.333    1845.6758 
  200400    300.00315   -1148.1891    6497.6659    11758.584    1886.9587 
  200500    302.11833   -1153.8812    6321.2312    11621.644    1920.5258 
  200600    296.62968    -1151.583    6452.4317    11637.887    1931.4062 
  200700    295.05359   -1150.7964    6361.5426    11514.113     1766.778 
  200800    304.06857   -1152.4489     6475.419    11818.929    1846.2119 
  200900    294.40515   -1154.8418    6492.2404    11626.913    1864.6898 
  201000    301.43054   -1151.5797    6438.5119    11726.533    1870.0654 
  201100    300.25972   -1149.3086    6438.7594    11704.039    1894.7831 
  201200    296.71292    -1144.313    6269.5485    11464.052    1821.1449 
  201300     302.1814   -1142.0989    6522.6386    11836.182    1910.7785 
  201400    300.59227   -1145.4414    6550.3907    11826.642    1909.2882 
  201500    300.71772   -1146.4283    6413.6036    11691.548    1860.1287 
  201600    302.20947    -1150.668    6385.9509    11691.525    1918.2141 
  201700    296.90784   -1153.3425    6465.4767    11655.115    1970.4409 
  201800    303.84797   -1157.6376    6302.1991    11635.807    1863.7724 
  201900     295.4396   -1146.9942    6516.9077    11681.527     1914.788 
  202000    300.17463   -1150.9702    6423.7529    11685.553    1886.6233 
  202100    295.28817    -1148.902    6367.6639     11527.14    1918.4985 
  202200    304.75864   -1151.4994    6400.0348    11759.236    1953.0644 
  202300    297.01627   -1149.8183    6473.1112     11668.59     1959.491 
  202400    306.08229   -1146.0401    6430.8313     11823.77    1940.4415 
  202500    294.28584   -1148.6033    6328.7065    11467.069    1898.0585 
  202600    300.46482   -1147.9971    6470.4188    11741.391    1953.6249 
  202700    295.08787   -1157.8055    6368.8321    11515.126    1899.6499 
  202800     299.9123   -1160.3319    6375.5971    11622.431    1924.9542 
  202900    300.21962    -1155.685    6471.2673    11729.314    1901.6214 
  203000    296.36337   -1157.4959     6522.469    11696.322    1958.8075 
  203100    303.64129    -1157.649    6363.6747    11692.856    1862.9324 
  203200    291.59145   -1154.5617     6343.904    11418.746    1856.8368 
  203300    303.01262   -1157.1073    6406.3736    11722.666    1886.2421 
  203400    302.97222   -1156.7489    6450.3249    11766.113    1935.4407 
  203500    299.95868   -1154.7411     6352.067    11605.483     1836.671 
  203600    302.67733   -1154.8244    6437.4049    11748.817    1858.1879 
  203700    298.94931   -1158.6529    6394.4313    11622.372    1897.1889 
  203800    298.62414   -1150.9559    6410.4709    11639.162    1893.5044 
  203900    304.73536   -1155.4537    6427.8937    11782.643    1915.7403 
  204000    301.19287   -1157.4404     6465.011    11742.094    1964.1531 
  204100    298.08129   -1149.6698     6368.563    11586.943    1942.1086 
  204200    304.10353   -1156.3879    6394.4078    11734.725    1885.0401 
  204300    299.56098   -1149.4495    6471.1514    11721.363    1824.5828 
  204400    298.15973   -1152.9545    6518.2182    11734.989    1850.6392 
  204500     305.4915   -1155.2665    6217.5419    11588.633     1754.981 
  204600    298.40332   -1150.7498    6435.0766    11659.256    1869.3732 
  204700    298.35586   -1151.2493    6390.1161    11612.782    1888.0393 
  204800    299.76457    -1151.021     6369.906    11622.895    1850.5956 
  204900    307.80211   -1151.3627    6477.0039    11901.361     1890.519 
  205000    300.67768    -1151.832    6476.4707    11748.156     1902.187 
  205100    295.17484   -1156.6466    6396.0458    11545.357    1847.8897 
  205200    303.37387   -1152.2648    6423.8411    11752.694    1893.1137 
  205300     293.8852    -1157.468       6430.4    11551.338    1882.0585 
  205400    301.65989   -1153.7907    6421.0381    11711.748    1913.6892 
  205500    300.74421   -1154.7599    6460.4004    11730.579    1926.1249 
  205600    298.92444   -1156.4072    6402.8475    11632.502    1924.1077 
  205700    293.69391   -1150.6838    6332.7417    11456.378    1914.0235 
  205800    303.85617   -1151.9176    6444.9628    11784.466     1939.663 
  205900    296.65705   -1154.7668    6488.5841     11671.44    1962.9563 
  206000    300.12441    -1157.341    6422.6116    11676.968    1924.4915 
  206100    300.94573   -1157.6276    6382.7853    11654.401    1903.4648 
  206200    299.18381   -1162.0034    6354.7112    11584.311    1819.3427 
  206300    307.58523   -1166.1744    6386.4354    11791.348    1871.3872 
  206400    296.73252   -1161.6571    6419.7214    11597.299    1886.7453 
  206500    302.63667   -1160.6877    6352.3856    11657.066    1843.5326 
  206600    300.26921   -1153.1359    6491.5839    11753.239    1893.5685 
  206700    300.97936   -1153.6385    6393.4445    11669.768    1898.7567 
  206800    295.54007   -1158.7964    6227.7569    11382.721    1851.8445 
  206900    296.38097   -1155.9494    6316.8113    11492.587    1923.1913 
  207000    299.36655   -1159.1537    6425.9183    11662.272    1918.4343 
  207100    294.53146   -1159.8008    6546.2323    11678.644    1928.2759 
  207200    302.35871   -1158.0047    6474.8157    11776.241    1967.0791 
  207300    297.28058   -1158.2872    6408.1833     11600.84    1963.0692 
  207400     297.5215   -1160.2383    6314.6567    11510.509    1901.1346 
  207500    303.44853   -1159.5056     6459.662    11782.869    1992.6952 
  207600    295.23571   -1148.5986    6480.5122    11639.172    1954.8362 
  207700    295.33777   -1153.0711    6423.6395    11580.007     1943.086 
  207800    298.07746   -1155.0869    6357.9625    11570.843    1944.4262 
  207900    304.76824   -1153.7926    6472.1105    11829.224    1960.2431 
  208000    296.61883   -1156.0557    6441.4383    11622.189    1884.8905 
  208100    302.21177   -1157.7113    6505.2308     11803.81    1939.9264 
  208200    298.45569   -1153.4351    6451.7385    11674.351    1900.9157 
  208300    301.74583   -1154.2679    6449.4998    11741.569    1887.0708 
  208400    297.75911   -1153.4614    6415.7266    11623.432    1877.6608 
  208500    301.95297   -1155.7946    6422.7522     11717.72    1969.6682 
  208600    301.07652   -1153.5706    6429.3092    11707.777    1970.2879 
  208700    298.72187   -1151.9471    6439.6449    11669.432    1911.0074 
  208800    301.03718   -1153.1449    6462.9925    11741.045    1953.4227 
  208900     302.9026    -1154.772     6343.805    11660.082    1896.3893 
  209000    302.51059   -1152.3561    6406.7952    11717.114    1929.8258 
  209100    297.65254   -1157.5654    6263.1296    11464.454    1880.6012 
  209200    300.14983   -1155.7103    6416.4099     11672.94    1908.2602 
  209300    300.05453   -1160.2565    6499.4139    11749.362    1869.1895 
  209400    301.94462   -1161.2556    6431.6262    11720.954     1881.147 
  209500    299.37708   -1157.9147    6348.4053    11586.223    1876.1448 
  209600    302.49073   -1162.3441    6428.0369    11727.943    1959.2659 
  209700    300.33502   -1154.1436    6348.3691    11610.422    1896.4665 
  209800     303.7352   -1150.3326    6330.1308    11668.635    1920.4175 
  209900    301.03103   -1154.5958    6418.4183    11694.889    1980.7648 
  210000    303.03574   -1158.0311    6363.9392    11679.802    1900.9875 
  210100    294.20799   -1154.6797    6389.5228    11520.145    1911.5209 
  210200    298.74563   -1156.4177    6382.2915    11608.116    1867.7039 
  210300    303.50087   -1160.8074     6520.277      11843.3     1880.015 
  210400    296.58627   -1158.4829    6346.0418    11523.669    1817.8866 
  210500    291.19482   -1159.3458     6466.629    11528.214    1928.3722 
  210600    302.09582   -1155.7058    6393.4846    11691.593    1890.1168 
  210700    302.52257   -1150.6326    6383.6767    11695.975    1929.9804 
  210800    298.99411   -1150.9123    6324.3993    11561.037    1966.5209 
  210900    298.53527   -1154.8536    6422.7388    11645.633    1919.5344 
  211000    304.92344   -1150.0919    6452.8824    11817.012    1931.1896 
  211100    299.45324   -1153.0402    6512.4663    11756.785    1939.3042 
  211200    300.35479   -1153.0665    6418.2025    11681.755    1867.1545 
  211300    302.27654   -1152.0936    6378.8202    11684.401    1909.2422 
  211400    298.91905   -1152.3609    6520.3493    11753.935    1916.3796 
  211500    299.57695   -1154.5764    6401.1768    11646.602    1797.4199 
  211600    299.80764   -1151.5632    6380.3987    11633.766    1845.2463 
  211700    299.35372   -1150.1069    6458.1923    11703.318    2010.3239 
  211800    300.01407   -1155.0539     6366.784     11621.07    1884.4838 
  211900    299.71361   -1150.8305    6404.7195     11656.81    1859.7788 
  212000    295.20896   -1151.6865    6347.0392    11502.039    1849.3653 
  212100    300.27932   -1160.2371    6511.3304      11766.1    1933.4418 
  212200    299.60562     -1151.33    6367.0804    11616.365    1847.6973 
  212300    298.25083   -1155.2453    6335.7894    11552.215    1881.3526 
  212400    296.29531   -1159.4863     6427.644    11598.052    1914.0935 
  212500    307.94625   -1150.1345    6506.3686    11935.033    1880.6264 
  212600    299.89003   -1151.5744    6465.6433    11720.759    1892.8186 
  212700    298.73076   -1158.7459    6338.0131    11561.192    1856.5362 
  212800    299.51733   -1158.3832     6391.682    11632.027    1908.9257 
  212900    303.83532   -1157.8172    6504.4244    11837.583    1924.3371 
  213000     298.1931   -1158.8733     6466.229    11677.794    1889.9499 
  213100    301.12404   -1158.2788    6389.9181    11664.693    1879.6773 
  213200    296.72185   -1156.8459     6396.133    11578.294    1911.8323 
  213300    300.54535   -1158.2591    6424.0925    11686.523    1970.5151 
  213400    302.16116   -1157.5804    6379.0455    11676.675    1905.2944 
  213500    296.75938   -1154.9559    6494.8394    11679.692    1945.7617 
  213600     303.8854    -1157.254     6393.962    11728.753    1893.5445 
  213700    296.99071   -1156.6027    6381.9282    11570.076    1805.8577 
  213800    301.90208   -1155.0132    6495.9963    11790.658    1825.6263 
  213900    292.44975   -1152.3116    6439.3737    11534.802    1891.9853 
  214000    302.99577   -1149.4643    6324.8311    11648.406     1831.566 
  214100     298.5764   -1149.2439    6452.2371     11681.62    1885.2052 
  214200    296.63365   -1151.6826    6594.3221    11779.762    1953.2866 
  214300    304.64938   -1151.1081    6384.1262    11741.385    1886.4785 
  214400    296.56587   -1151.8001    6313.2928    11497.168    1843.8248 
  214500    295.56504   -1153.9984    6441.5375    11601.833    1911.6543 
  214600    300.68644   -1155.0486    6487.4116    11756.068    1937.1072 
  214700    302.13475   -1150.8051    6409.4288    11713.269    1867.0416 
  214800    305.73628   -1151.3827    6432.2489    11812.453    1931.7856 
  214900     298.0818   -1154.2282     6392.867    11606.699    1887.8198 
  215000     305.7084   -1151.7425    6426.1942    11805.443    1871.9078 
  215100    301.40033   -1149.5903    6346.1897    11635.555    1854.1017 
  215200    300.70376   -1155.0935    6334.9346    11603.916    1949.1479 
  215300    306.23577   -1155.8761    6358.6188        11745    1933.5511 
  215400    293.03584   -1151.2474    6449.9226    11558.936    1894.5428 
  215500    303.66634   -1159.0928    6473.8776     11802.15    1930.3974 
  215600    303.25287   -1158.4642    6335.2471    11655.315    1931.7128 
  215700    297.34308   -1163.2418    6369.5361    11558.573    1971.5098 
  215800    301.04976   -1159.6306     6436.849    11708.685    1954.1208 
  215900    304.48811   -1154.1616      6441.28     11792.04    1959.7651 
  216000    295.84152   -1158.7817    6429.9112     11591.33    1983.8311 
  216100    303.63698   -1160.2907    6345.1894    11671.637    1921.2554 
  216200    300.13831   -1155.5652    6456.0076    11712.437    1944.8888 
  216300    298.41066   -1146.9984    6432.6514    11660.739    1924.9243 
  216400    305.36775   -1159.7018    6344.6232    11708.635    1915.2949 
  216500    298.80003   -1156.9253    6377.4155    11603.894    1924.6651 
  216600     296.6538   -1162.6167    6517.1673    11692.104     1968.352 
  216700    299.97999   -1160.5164    6311.0801    11559.176    1872.3888 
  216800    295.74282   -1155.7567     6426.536    11588.871    1921.3721 
  216900     301.3861   -1154.9639    6491.9956    11775.683    1927.8722 
  217000    298.93974    -1153.595    6472.6255    11705.419    1887.3473 
  217100    304.83112   -1152.6019    6355.7356    11715.383    1872.6429 
  217200    295.55788   -1153.8012    6466.0471    11626.386    1940.7587 
  217300    303.92136   -1147.2391    6441.7444    11787.319    1941.5242 
  217400    301.07098     -1151.29    6443.3631    11723.993    1891.2403 
  217500    298.47075   -1148.0391    6399.8797     11628.21    1874.8526 
  217600    299.73626   -1147.6425     6481.004    11736.767    1947.6836 
  217700    300.60562   -1154.4366    6411.2978    11678.839     1886.156 
  217800    296.91753   -1154.7841    6423.4309    11611.834    1879.4274 
  217900    301.62746   -1154.9314    6312.9734     11601.85    1861.1947 
  218000    298.22079   -1152.3409    6465.0056    11683.694    1882.2027 
  218100    300.38926   -1153.4351    6495.7631    11759.684    1880.7745 
  218200    301.19768   -1152.2968     6342.622    11624.952    1889.0567 
  218300    301.81784   -1148.9015    6355.1368     11654.11    1951.4764 
  218400    294.21235   -1143.9235    6500.1184     11641.59    1912.0211 
  218500    300.44637   -1153.8192    6474.6844    11739.441    1932.3253 
  218600    297.45746   -1155.0471    6408.8511    11608.526    1943.2429 
  218700    305.41978    -1154.931    6492.9782    11862.872    1912.9746 
  218800    302.22828   -1158.5978    6443.9763    11742.022     1846.881 
  218900    300.94454    -1159.788    6432.9546    11702.385    1891.5977 
  219000    299.86023   -1161.7498    6384.5126    11628.816     1828.011 
  219100    298.99251   -1156.6107    6480.2771    11711.182    1849.0164 
  219200    297.81953   -1158.7083    6499.3039    11703.053    1965.2473 
  219300    300.97912   -1152.5276    6412.1563    11689.586     1975.054 
  219400    295.65659   -1158.3287    6196.7611    11354.682    1861.4994 
  219500    299.86297     -1156.83    6429.3401    11678.622    1968.5618 
  219600    301.23493   -1158.7359    6511.2087    11787.895    1910.8025 
  219700    297.31753   -1161.8421    6365.9175    11555.808    1870.9044 
  219800    298.52033   -1159.1822    6366.1848    11584.431    1884.5537 
  219900    299.73301   -1160.5218    6478.1819    11720.996    1888.0973 
  220000    297.95175   -1160.6367    6461.4288    11666.074    1901.4976 
  220100    301.38271   -1154.3263    6399.9987    11684.252    1864.1108 
  220200    300.82799   -1154.3399    6467.8737    11740.262    1932.2104 
  220300    300.02984   -1149.5712    6351.6607    11611.767    1863.2576 
  220400    299.69683   -1151.5599    6473.3717    11724.375    1871.2392 
  220500    303.85791   -1150.6078    6459.6804    11800.531    1926.7613 
  220600    299.64939     -1158.95    6324.3443    11566.944    1884.3638 
  220700    296.21086   -1152.5854    6406.5082    11582.013    1890.4931 
  220800    301.60981   -1153.3606    6488.1623    11778.233    1932.0903 
  220900    300.67554   -1154.5493    6444.3594    11713.282     1939.637 
  221000    299.89481   -1151.0163    6387.6106    11643.387    1896.0998 
  221100     296.9235   -1152.2394     6370.886    11561.962    1887.7798 
  221200    304.80876   -1152.5625    6361.1011     11720.31    1879.9697 
  221300    296.71655    -1146.256     6493.052     11685.69    1887.9238 
  221400    304.17223   -1142.6118    6447.1983    11802.759    1928.7188 
  221500    294.34615   -1151.8914    6278.4911    11414.854    1852.5882 
  221600    306.28626   -1153.6211    6359.6483    11749.363    1943.2831 
  221700    298.06301   -1153.3078    6427.3799    11641.731    1906.3137 
  221800    298.17743   -1154.7249    6410.4562    11625.835      1876.98 
  221900     301.3677    -1156.832     6465.584     11747.01    1873.2185 
  222000    296.06624   -1160.2931    6443.1393    11607.847    1837.3743 
  222100    299.36024   -1152.4061    6429.0695    11672.036    1868.0621 
  222200    299.36977   -1159.0909    6364.1161    11600.601    1837.0768 
  222300     299.3363   -1156.1528    6415.8598    11654.568    1849.9615 
  222400    303.12532   -1153.4554    6436.3495    11758.701    1889.0684 
  222500    299.88453   -1152.2548    6394.7018     11649.02    1855.9317 
  222600    298.66763   -1151.3357    6340.5529    11569.793    1882.3571 
  222700      302.964   -1151.0757    6430.5845     11751.87    1929.8685 
  222800    300.09848   -1152.6682    6388.3689    11646.844    1925.4379 
  222900    298.25849   -1159.1217    6335.1227    11547.836    1904.2017 
  223000    299.87051   -1166.0734    6464.1513    11704.351    1913.3594 
  223100    302.74716    -1159.394    6540.4641    11848.799    1963.3431 
  223200    306.86389   -1162.6665    6436.2357    11829.245    1897.5231 
  223300    302.50504    -1156.483    6441.4229    11747.496    1901.2089 
  223400    293.88723   -1153.6949    6356.7456      11481.5    1891.1696 
  223500    300.99741    -1153.179    6428.7098    11705.879    1887.6801 
  223600    297.04189    -1151.043    6453.3315    11648.133    1927.0561 
  223700    300.19783   -1151.0656     6435.139    11697.339    1906.4273 
  223800    304.11593   -1148.7101    6341.4867    11689.747    1936.0157 
  223900    296.69375   -1151.7683    6392.2712     11578.91    1940.4036 
  224000    297.42201   -1159.9946    6404.0648    11598.035      1883.78 
  224100    299.47958   -1160.3488    6462.5935    11700.167    1882.1466 
  224200    300.09438   -1156.5784    6426.2959    11680.774     1894.452 
  224300    299.35206   -1159.1606    6409.9555    11645.992    1883.5298 
  224400     299.6493   -1152.1457    6419.9937    11669.396    1900.9738 
  224500    303.44306   -1156.3342    6421.3862    11747.647    1942.4063 
  224600    299.30712   -1153.9523    6373.7257    11614.011    1924.0661 
  224700    304.03959   -1148.4882    6448.0519    11794.903    1926.4528 
  224800    298.87826   -1153.7869    6446.7892    11678.078    1979.6493 
  224900    302.16575   -1156.9418    6326.6937    11625.059    1956.6387 
  225000    301.10445   -1157.1364    6449.5257    11725.024    1922.1642 
  225100    299.07372   -1154.2593    6552.8543    11787.846    1903.2934 
  225200    301.41583   -1159.8157      6462.81    11742.281     1913.082 
  225300    299.04313   -1162.4417    6384.8599    11611.016    1857.7853 
  225400     301.0717   -1163.7066    6364.1958    11632.424    1863.1556 
  225500    300.00293   -1158.3465    6409.5555    11660.311    1910.2032 
  225600    300.74189   -1158.1853    6350.8349    11617.539    1881.9139 
  225700    296.82453   -1155.8288    6502.2539    11687.626    1916.0115 
  225800    303.13753   -1150.7745    6472.5131    11797.807    1968.6802 
  225900    297.22255   -1154.3556    6364.4014    11559.749    1918.3827 
  226000    303.60932   -1158.0484     6338.724    11666.823    1906.8015 
  226100    299.30484   -1157.6622    6400.6434     11637.17    1905.2116 
  226200    303.83486   -1154.9627     6502.962    11838.965    1958.0474 
  226300    294.51005   -1159.1688    6383.6088    11516.195    1847.5043 
  226400    301.26696   -1163.4925    6354.5861      11627.2    1858.9217 
  226500    299.11218   -1155.2632    6494.3724    11729.182    1904.1747 
  226600    299.72856   -1147.7963    6431.8475    11687.292    1887.5811 
  226700    305.34943   -1151.1732    6398.5371    11770.686    1900.6295 
  226800    292.19749   -1153.0232    6433.0611    11522.389    1927.3945 
  226900    303.94084   -1150.7446    6446.3489    11788.834    1911.6687 
  227000    298.17128   -1150.1934    6414.1381    11633.916    1928.4874 
  227100    302.43107   -1147.2527    6370.0219    11683.745    1935.4749 
  227200    295.21837    -1155.684    6462.9275    11614.131    1897.5733 
  227300    305.91872   -1152.5734    6492.1628    11875.073    1949.9424 
  227400    295.68666   -1153.3961    6376.3629    11539.859    1941.2128 
  227500    301.80817   -1152.1426    6397.0308    11692.557    1953.4915 
  227600    295.66055   -1155.6499    6440.0404    11600.724    1905.3086 
  227700    297.67383   -1157.1988    6372.3909    11574.537    1900.6615 
  227800     302.2059   -1160.9675    6416.1191    11711.317    1930.5592 
  227900    297.74059   -1153.6639    6477.3849    11684.492    1915.7613 
  228000    301.99602   -1156.4123    6399.8716    11695.141    1952.3154 
  228100    304.53588   -1156.4643    6330.3511    11679.829    1918.2285 
  228200    299.42961   -1154.8609    6425.5216    11667.515    1901.4671 
  228300    298.75725   -1160.0287    6346.3338    11568.795    1894.6376 
  228400    299.77726   -1160.9489    6515.9505    11759.283    1947.5801 
  228500    301.91768   -1161.3607    6435.8489    11724.496    1851.2058 
  228600     301.8345   -1166.4769    6321.1121    11602.866    1858.4166 
  228700    297.05182   -1162.7844    6449.0181     11632.29    1904.1516 
  228800    297.92453   -1164.7235    6475.3873    11675.364    1879.9157 
  228900    296.82427   -1160.0157    6485.0869    11666.266    1908.3865 
  229000    301.00919   -1163.8523    6453.7825     11720.53    2009.8582 
  229100    301.45833   -1165.9014    6355.1763     11629.47    1925.2193 
  229200    296.72474   -1159.9168    6429.8799    11609.032    1896.8484 
  229300    297.55758   -1163.9386    6452.6458    11645.568    1978.1092 
  229400     302.6155   -1161.4342    6382.6486     11686.13    1891.6682 
  229500    295.91619   -1156.8245    6453.2897    11618.261    1847.6539 
  229600    303.28587   -1157.8481    6492.6822    11814.071    1939.8014 
  229700    299.53817   -1160.7419    6454.6623    11693.094    1914.4831 
  229800    301.33857    -1156.681    6408.9659    11689.921     1932.952 
  229900    298.99559   -1158.3354     6320.175    11549.422    1928.3382 
  230000    298.55763   -1158.9857    6437.8409    11657.081     1968.377 
  230100    296.70611   -1151.8127    6443.1887    11630.047     1881.416 
  230200    301.31431    -1150.527    6467.3724    11753.963    1902.0608 
  230300    302.48345   -1156.2408    6478.0856    11783.939    1995.9487 
  230400    294.99019   -1150.8472    6373.1814    11524.347    1849.1253 
  230500    292.65931   -1147.4213    6352.6826    11457.478    1852.6372 
  230600    305.22443   -1154.8629     6389.057    11754.846    1921.9689 
  230700    297.83319    -1149.694    6505.8406    11718.896    1856.1783 
  230800    302.22987   -1152.6513    6372.6978    11676.724    1849.1257 
  230900    300.17495   -1150.8917    6434.3026    11696.188    1949.7176 
  231000    295.45771   -1147.2503    6543.8388    11708.589    1927.2917 
  231100     303.0636   -1153.3072    6379.8308    11701.012    1852.5787 
  231200    297.38328   -1154.2622    6420.1402    11619.016     1873.852 
  231300    305.66062   -1154.1266    6428.1814    11804.025    1899.3214 
  231400    305.22911   -1156.4892    6405.6562    11769.919    1869.6174 
  231500    297.86175   -1155.4835    6494.3041     11702.18    1901.1155 
  231600    300.34548   -1157.1415    6377.4428    11636.722    1912.1901 
  231700    302.73919   -1156.0746    6439.9822    11751.466     1954.754 
  231800    302.59327   -1156.4057    6416.7923    11724.828    1942.5508 
  231900     301.6782   -1152.6768    6393.2734    11685.488    1920.9542 
  232000    292.33967   -1154.2124     6457.285    11548.461    1860.5963 
  232100    302.85654   -1156.2308    6476.2992    11790.134    1910.3083 
  232200    298.86288   -1157.9261    6306.4249    11533.246    1868.3331 
  232300    302.75212   -1161.0669    6426.6801    11733.448     1988.126 
  232400    300.78853   -1158.2169    6363.9761    11631.645    1834.9493 
  232500    298.86583   -1160.4483    6468.8596    11693.221    1841.1502 
  232600     299.4698   -1163.3092    6591.6467     11826.05    1920.1713 
  232700    300.47429   -1162.8829    6419.1666    11675.456    1921.1377 
  232800    306.77567   -1161.6887    6218.8691    11610.972    1888.2193 
  232900    297.39942   -1160.7312    6511.4682    11704.219    1991.5429 
  233000    300.73193   -1152.4925    6427.5955    11699.779    1863.7717 
  233100    303.59563   -1156.5269    6417.9035    11747.231    1836.0273 
  233200    302.47105   -1157.0741     6539.588    11844.344    1921.1506 
  233300    295.12862   -1152.6259    6423.9285    11576.273    1890.4211 
  233400    297.12959    -1150.974    6451.9382    11648.682    1913.6292 
  233500    298.15905   -1154.5789     6299.831    11514.963    1849.6683 
  233600    300.78771    -1156.849    6458.3147    11727.334     1911.491 
  233700    298.09481   -1149.1445    6443.0437    11662.238    1929.8309 
  233800    299.74934   -1154.0344    6443.7502    11693.401    1918.9111 
  233900    302.46692   -1157.1148    6403.8584    11708.485    1908.9751 
  234000    295.20499   -1150.3171    6428.3828    11584.667    1880.6208 
  234100    307.05966   -1151.9704    6439.3413    11847.229    1847.9095 
  234200     297.0961   -1152.6786    6427.1698    11621.494    1839.6977 
  234300    301.04334   -1150.5278    6445.2983      11726.1    1918.6896 
  234400    302.80732   -1148.4008    6478.4981    11799.111    1945.1504 
  234500    303.98826   -1152.9992    6387.7104    11728.954    1890.2935 
  234600    301.39587   -1153.0659    6413.6187    11699.413    1833.4548 
  234700    295.67872   -1156.0083    6506.1219    11666.836    1917.9264 
  234800    297.11138   -1149.3873    6505.8982     11703.84    1942.5187 
  234900    298.17235   -1158.6685    6426.5943    11637.921    1881.9902 
  235000    301.71191   -1160.7584    6463.0633    11747.917    1880.4859 
  235100     298.9622   -1157.3565    6490.4073     11719.92    1902.1867 
  235200    299.32828   -1156.2814    6354.6332    11593.041    1830.7412 
  235300      300.672   -1162.4897    6450.5113    11711.417     1885.875 
  235400    296.85429   -1156.0818     6496.437    11682.192     1891.877 
  235500    300.18737    -1158.208    6372.2196    11627.054    1853.2012 
  235600    296.95663   -1156.0091     6393.367    11581.381     1851.613 
  235700    299.20829   -1159.7923    6465.3033    11697.637    1912.1339 
  235800    299.83486   -1158.1782    6335.2446    11582.578    1838.9035 
  235900    298.80993    -1155.266    6464.9239    11693.274    1935.3328 
  236000    300.30215   -1162.2282    6363.2417    11616.508    1936.9145 
  236100    298.06831   -1161.3591    6344.9712    11551.384    1867.8309 
  236200    301.27642   -1160.6159    6429.3479     11705.04    1892.6267 
  236300    298.19496   -1159.6465    6497.7007    11708.532    1963.9039 
  236400    305.42136   -1156.8995    6353.6435    11721.603    1872.9937 
  236500    295.99947   -1156.1145    6424.2265    11591.687    1881.2469 
  236600    298.24696   -1155.0608    6448.3822     11664.91    1878.8111 
  236700    300.82449   -1152.6818    6421.0086    11694.981    1856.8719 
  236800    293.39234   -1156.2561    6404.7362    11516.357    1859.4557 
  236900    303.90694   -1160.6447    6492.5356    11824.396    1935.0419 
  237000    299.79819   -1151.0614     6472.509    11726.176       1941.8 
  237100    297.61803   -1155.5281    6421.8404    11624.465    1896.3222 
  237200    301.87113   -1150.7052    6464.9375    11763.246    1906.1066 
  237300      308.321   -1150.1178    6422.7074    11859.395    1932.2575 
  237400    296.59798    -1151.322    6466.8689    11651.908    1924.4631 
  237500    303.81938   -1154.7046    6435.6936    11771.624    1884.3839 
  237600    302.06618   -1153.2572    6421.6885    11721.612    1871.0092 
  237700     299.9294   -1153.2425    6492.4692    11746.758    1898.6196 
  237800    298.75297    -1148.583    6348.0446     11581.86    1899.3907 
  237900    297.49567   -1149.5667    6438.3748    11644.347    1897.0187 
  238000    299.01719   -1153.5922    6516.3153    11750.767    1886.8861 
  238100    301.22598   -1161.1066    6414.6974    11688.822     1904.305 
  238200    298.47751   -1157.2333     6344.089     11563.37    1865.6895 
  238300    303.56237   -1156.9684    6495.4442     11823.62    1999.9996 
  238400    297.67171   -1157.0873     6328.179    11530.391    1914.4615 
  238500    301.86174   -1153.4288     6470.544    11765.928    1985.8875 
  238600    303.70482   -1149.4173     6490.963    11829.733    1959.9937 
  238700     297.2507   -1152.0016    6433.9647    11632.268    1948.5773 
  238800    302.75447   -1156.9727    6358.6008    11669.513     1930.731 
  238900    298.70289   -1158.7354    6462.3817    11684.975     1853.755 
  239000     298.2853   -1157.3718    6357.2547    11572.291     1887.589 
  239100    295.02875   -1159.4787    6504.8313    11648.189    1889.0366 
  239200     295.5217   -1157.6905    6467.1835    11622.861    1805.4426 
  239300    303.87185   -1153.5958    6387.0403      11725.2    1888.8331 
  239400    297.94746   -1157.5507     6475.756    11683.396    1924.5142 
  239500    301.87867   -1153.7124    6304.4929    11599.955    1863.0542 
  239600    299.07355   -1156.6841    6367.2084    11599.772    1912.8894 
  239700    297.68341    -1150.564    6648.8095    11857.795    1916.6998 
  239800    296.22509   -1156.9358     6458.202    11629.661     1761.405 
  239900    301.77556   -1157.1873    6337.5087    11627.293    1883.1863 
  240000    304.59705   -1147.0174    6372.4998    11732.731    1921.0088 
  240100    300.58714   -1150.7105     6438.835    11709.708    1908.0553 
  240200    296.69512   -1152.1944    6376.1036    11562.345    1899.3187 
  240300    301.20033   -1153.3113    6436.2444    11717.616    1942.8022 
  240400    301.69804   -1152.7199    6486.8125    11779.408    1916.4621 
  240500      295.905   -1149.0642    6417.1934    11589.685    1901.5391 
  240600    301.91791   -1152.9326    6466.1318    11763.212    1967.6349 
  240700    303.98889   -1151.5426    6401.5246    11744.238    1927.2004 
  240800    296.54558   -1150.5912    6330.7703     11515.42    1918.9013 
  240900    300.36147   -1157.1487    6409.4077    11669.021    1932.5098 
  241000    301.39959   -1153.8135    6456.5673    11741.694    1855.7398 
  241100    297.84008   -1154.1783    6402.3977    11611.116    1851.6466 
  241200    298.88239    -1157.467    6416.9539    11644.651    1906.0319 
  241300     300.6848   -1151.3634    6424.7822    11697.088    1916.6699 
  241400    300.79523   -1158.6152    6413.3399    11680.753    1852.9353 
  241500    295.27616    -1156.396    6393.9945    11545.721    1857.0711 
  241600    299.13055    -1161.774    6327.8615    11556.553    1881.6162 
  241700    297.26307   -1154.2192    6454.8024    11651.153     1890.367 
  241800    305.79309   -1160.2799    6565.0597     11937.58    1911.7742 
  241900    295.30116   -1160.1415    6424.1815    11572.696    1840.4229 
  242000    301.08797   -1161.2045    6302.1438    11573.222    1837.9276 
  242100    300.56567    -1157.695    6431.5699    11694.999     1947.789 
  242200    297.86514   -1161.7269    6409.6037    11611.308    1886.6122 
  242300    302.71725   -1153.6181    6499.0472    11812.519    1933.8293 
  242400    299.73791   -1157.8885    6434.2052    11679.757    1865.0045 
  242500      298.334   -1152.8368    6355.4455    11576.057    1840.9083 
  242600    301.53994   -1157.6667    6382.2319    11666.503    1881.4218 
  242700     304.6366   -1163.0079    6348.5686    11693.654    1943.1795 
  242800    295.03443   -1158.8264    6365.1715    11509.303    1892.4815 
  242900    302.38244   -1158.1423     6456.134    11757.928    1918.1898 
  243000    298.95478   -1156.0042    6536.6346     11767.34    1932.0566 
  243100    297.89258   -1158.0099    6451.4644    11657.472    1918.3028 
  243200    300.24405   -1154.2362    6293.1152    11553.132    1847.5433 
  243300     296.4306   -1150.8332    6454.2085     11636.16    1920.3568 
  243400    301.42027   -1155.1876    6425.9598    11710.154    1899.3828 
  243500    297.50453   -1149.3032    6419.2054     11625.63    1852.3006 
  243600    304.12514   -1150.7869    6410.7148    11757.095    1914.1009 
  243700    300.44958   -1157.9032    6418.7913    11679.532    1868.0238 
  243800    296.67728     -1151.82    6466.4079    11652.643    1941.2224 
  243900    299.63978   -1153.9406    6434.9845    11682.388    1920.6543 
  244000    302.24203    -1151.248    6464.1581    11769.847    1927.8072 
  244100    297.30779   -1150.6281    6477.2412    11678.138    1913.1002 
  244200    302.71251   -1159.0637    6382.6065    11690.531    1887.9631 
  244300    302.77589   -1157.9268    6320.9106    11631.326    1858.7697 
  244400    298.02614   -1154.2312    6522.2769    11734.917    1896.9129 
  244500    299.14752   -1155.9934    6474.5226    11709.357    1864.9499 
  244600    302.41815    -1155.463    6342.9265    11648.163    1909.9577 
  244700    301.52994   -1154.6126    6374.1342    11661.246    1900.2592 
  244800    296.63607   -1150.4347    6425.1335    11611.873    1863.1174 
  244900    305.08238   -1155.4124    6416.4777    11778.682    1861.9496 
  245000    299.06771   -1150.6027    6461.9166    11700.437    1844.2419 
  245100    300.02946   -1157.0921    6438.7081    11691.285    1850.2142 
  245200    297.40581   -1154.5183    6400.4689    11599.569    1811.6943 
  245300      301.294   -1158.8698    6468.5204    11746.335    1879.6605 
  245400    293.63613   -1155.9957    6473.5879    11590.678     1856.499 
  245500    303.10569   -1152.7136    6311.4123    11634.087    1840.2877 
  245600    293.67555   -1157.2254    6448.9198    11565.622    1901.0555 
  245700    301.81319   -1154.2166    6394.2383    11687.797    1823.8632 
  245800    302.92978   -1152.6061    6408.6259     11727.65    1872.9523 
  245900    295.89557   -1157.4319    6328.7778    11492.701    1870.9928 
  246000    306.57887   -1153.8842    6418.5956    11814.299    1895.6458 
  246100    297.36991   -1152.5431    6438.4167    11638.726    1870.2694 
  246200    302.04515   -1151.0966    6473.0722    11774.707    1878.6971 
  246300      296.314   -1149.8074    6381.0152    11561.502    1826.4602 
  246400    298.20646   -1153.5643    6375.8949    11593.054    1897.3959 
  246500    305.51393   -1155.4653    6345.4101    11716.781     1920.893 
  246600    300.82461   -1157.6081    6503.5926    11772.641    1896.2935 
  246700    303.47224    -1156.486     6439.185    11765.918    1832.2155 
  246800    296.94488   -1157.8384    6400.5303    11586.464    1871.4307 
  246900    304.70592   -1151.8131     6410.266    11768.027    1899.3422 
  247000    296.27817   -1151.0886    6391.6792    11570.119    1906.9237 
  247100    301.55829   -1153.3848    6399.3378    11688.283    1976.0395 
  247200    297.06165   -1154.3297     6431.994    11623.931    1875.1255 
  247300    296.14305    -1153.149    6465.2242    11638.717    1859.8516 
  247400    301.58539   -1154.0131    6396.5161    11685.412     1899.082 
  247500    298.46334   -1155.0039    6427.8181    11649.026    1940.5313 
  247600    300.42613   -1161.1767    6399.6995    11656.666     1869.902 
  247700    300.54487   -1160.0499    6412.0135    11672.644     1936.271 
  247800    301.66213   -1157.5981    6430.7724    11717.723    1877.2389 
  247900     295.3472    -1156.816    6503.4926    11656.316    1873.5851 
  248000    302.22577   -1151.3698    6447.3663    11752.586     1911.137 
  248100    298.95822   -1156.3615    6359.7083     11590.13    1909.7339 
  248200    299.56811   -1156.7049    6407.9488    11651.057    1926.4546 
  248300    297.72393   -1154.9122    6355.5393    11561.042     1879.323 
  248400     304.0119   -1158.4147    6426.4348    11762.768    1935.7941 
  248500    298.10546   -1158.2732    6549.7009    11759.993    1966.5664 
  248600     300.9193   -1159.8283    6341.3774    11610.228    1855.1508 
  248700    297.76434   -1159.0688    6437.6042    11639.814    1877.6794 
  248800     304.7975   -1156.9547    6422.4156    11776.992    1926.3537 
  248900    297.74329    -1149.284    6479.0707    11690.615    1956.3991 
  249000    301.69622   -1151.1408    6454.8051    11748.941    1961.8881 
  249100    301.82782   -1159.8065    6454.6947    11742.976    1985.7067 
  249200    300.66521   -1163.0413    6242.1797    11502.389    1855.0168 
  249300    302.24319   -1160.4964     6474.806    11771.272     1945.441 
  249400    300.72944   -1158.0791    6619.9403    11886.484    2015.7476 
  249500    294.32089   -1159.1288    6302.0598    11430.645    1798.7303 
  249600    303.37249   -1153.3103    6464.9276    11792.705    1952.8441 
  249700    295.78946   -1153.5856    6344.5965    11510.099    1900.9006 
  249800     299.1081   -1149.7046    6414.0133    11654.294    1956.9817 
  249900    296.71498   -1149.9572    6519.5845    11708.488    1861.4129 
  250000    300.64869   -1153.8117    6519.5819    11788.668    1859.8701 
  250100    298.33301   -1159.8251    6337.2139    11550.816    1876.3205 
  250200    303.17247   -1163.8363    6367.4257    11680.404    1874.2237 
  250300    302.48326   -1156.7677    6436.3314    11741.654     1891.828 
  250400    301.55963   -1154.3733    6458.1707    11746.156    1917.2525 
  250500    300.16507   -1160.6077    6376.1613     11628.12    1881.5341 
  250600    299.96435   -1148.9434    6339.4408    11598.776    1874.2748 
  250700    301.12594   -1156.2467     6471.308    11748.155    1923.6348 
  250800    295.86663   -1152.4139    6485.2875     11653.61    1912.7224 
  250900    304.79148   -1147.9267    6294.3476    11657.823    1872.6056 
  251000    296.10013   -1157.1824    6373.7806    11542.323    1909.3764 
  251100    300.91402   -1160.7856    6392.7104    11660.491    1881.1814 
  251200    303.42575   -1160.9193    6449.3102    11770.616    1847.6115 
  251300    296.25245    -1159.306    6393.5115    11563.185    1823.0685 
  251400    304.76947   -1161.7297    6473.2704    11822.473     1941.712 
  251500    301.01805   -1160.9423    6484.2722    11754.119    1928.6894 
  251600    298.04964   -1155.1518    6382.9752    11595.197     1891.824 
  251700    298.48094   -1154.5432    6381.8471    11603.891     1907.865 
  251800    300.42766   -1153.3234    6378.2795    11643.132    1860.3022 
  251900    295.30006   -1149.0236     6434.007    11593.616    1850.6044 
  252000    298.89509   -1156.2987    6401.4046    11630.541     1871.731 
  252100    296.85004   -1160.4869    6441.3817    11622.641    1915.2955 
  252200    299.72248   -1161.6827     6394.091    11635.519    1849.9104 
  252300    296.62702   -1158.8423    6436.0515     11614.19    1817.8571 
  252400    297.95572   -1157.6959    6534.2609    11741.932    1884.9157 
  252500    298.08632   -1157.5369    6401.9677    11612.588    1866.4155 
  252600    297.41258   -1155.3307    6300.5831    11499.016    1869.7816 
  252700    303.55981   -1155.1233     6344.644     11674.61    1890.9803 
  252800    297.57811   -1153.6381    6531.3954    11735.057    1927.2185 
  252900    297.40531   -1152.4714    6518.5715    11719.708    1970.9509 
  253000    302.89681   -1156.4139    6365.3415    11679.853    1932.7212 
  253100    299.12153   -1156.3517    6404.8194     11638.74    1970.9129 
  253200    303.23544   -1154.8718    6447.8049    11771.093    1957.5266 
  253300    298.03389   -1160.1347     6378.425    11585.327    1896.1122 
  253400    302.26438   -1157.6604    6387.9954     11687.75    1920.9221 
  253500    297.05277   -1156.9914    6461.3922    11650.478    1884.8522 
  253600    298.81261   -1156.7218    6385.0797    11612.031    1825.4429 
  253700    304.40591   -1161.9284    6469.1762    11810.413    1911.2869 
  253800    305.96506   -1162.0794    6493.8473    11868.242    1948.2354 
  253900    301.72116   -1160.8925    6346.4417    11631.359    1871.2382 
  254000    301.51633   -1155.8372    6433.9478    11719.544    1920.8229 
  254100     298.8425   -1156.9883    6519.3377    11746.661    2001.6565 
  254200    300.98008   -1155.8187    6377.4523    11651.611    1872.5849 
  254300    302.59952   -1155.0643    6456.7308    11766.241    1927.9523 
  254400    305.11255   -1159.3522    6346.5882    11705.498    1934.3075 
  254500    296.75206   -1161.6278    6391.3429    11569.368    1897.1754 
  254600    300.68609    -1158.943    6500.0948    11764.849    1947.4148 
  254700    296.71351   -1159.6291    6437.3677    11616.567     1945.501 
  254800    304.30498   -1161.0838    6410.1477    11750.073    1919.3354 
  254900    299.62511   -1155.1536    6478.1682    11724.045    1943.1999 
  255000    302.28875   -1157.7975    6388.4927     11688.63    1902.6327 
  255100    298.76192   -1154.7954    6388.7531    11616.548    1886.1198 
  255200    302.70577   -1153.2285    6439.5559    11753.172    1973.6664 
  255300    298.28643   -1153.2042     6390.391    11609.619    1907.3751 
  255400    301.89065   -1156.4083    6428.9853    11722.007    1949.9957 
  255500    294.95549    -1156.705    6399.8457    11544.412    1912.0392 
  255600    301.15638   -1153.9287    6471.3631    11751.179    1936.7215 
  255700    298.72037   -1152.5712     6453.563    11682.694    1844.0435 
  255800    300.98267   -1153.4015    6387.6031    11664.234    1856.3781 
  255900    298.96105   -1157.6471    6513.8143    11743.011    1911.2597 
  256000    300.58553   -1151.5535    6533.9308    11803.926    1897.7529 
  256100    299.15322   -1149.1233    6331.9357    11573.762    1842.4453 
  256200    299.29373   -1153.2942     6328.618    11569.275    1817.9113 
  256300    300.82483   -1152.5101    6524.2298    11798.381    1873.6533 
  256400    297.22126   -1153.9474    6449.6498    11645.379    1797.6666 
  256500    300.82729   -1151.9168    6408.6113    11683.408      1887.73 
  256600    302.25146   -1152.5277    6310.2932    11614.904    1871.1682 
  256700    299.04029   -1156.1033    6435.9411    11668.375    1918.5673 
  256800    296.80823   -1157.9487    6470.9728    11653.877    1900.1269 
  256900    299.87121    -1149.873    6455.7369    11712.152    1973.6936 
  257000     301.9138   -1151.3716     6366.962    11665.516    1914.5185 
  257100    299.77909    -1160.055    6321.4594    11565.725    1867.3069 
  257200    297.51436    -1152.955    6588.1058    11791.088    2029.4491 
  257300    299.39278   -1148.8725    6457.8525    11705.047    1968.4228 
  257400    300.12933   -1161.6219    6336.4297     11586.61     1877.015 
  257500    299.20628   -1164.5109     6382.796    11610.368    1978.7548 
  257600    298.07186   -1153.7414    6399.5903    11613.697    1955.3301 
  257700    300.90307   -1163.4521     6473.201    11738.081    1939.6033 
  257800    298.14152   -1165.9251    6520.0416    11723.453     1973.324 
  257900    299.76917   -1159.4394    6323.1159    11567.785    1845.7801 
  258000    301.72665   -1157.8564    6398.8086    11686.879    1859.4415 
  258100    301.56585   -1147.8659    6521.2574    11815.883    1939.9538 
  258200    295.92281   -1154.9687    6466.4858    11633.454    1834.2044 
  258300    293.80342    -1155.579    6407.5817    11528.662    1854.9129 
  258400     302.1086   -1155.5737    6335.0321    11633.545    1926.9689 
  258500    296.93552   -1156.1912     6543.978    11731.359    1934.8273 
  258600     300.8174   -1157.1725    6391.0695    11660.399    1769.6295 
  258700    291.85652    -1156.579    6486.4536    11564.941    1913.9955 
  258800    301.32641   -1158.2881    6376.5577    11655.646    1886.6674 
  258900    305.44776   -1151.5631    6521.6211    11895.481    1901.8207 
  259000    297.05257   -1150.0983    6390.6916    11586.666    1882.2852 
  259100     305.3403   -1150.0115    6436.6316    11809.747    1882.7333 
  259200    298.41002   -1146.8418    6402.7216    11630.952    1774.0129 
  259300    300.45185   -1153.8963    6435.5638     11700.36    1903.6534 
  259400      302.628   -1149.9436    6358.5853    11673.824    1980.6492 
  259500    300.23326   -1152.9171    6432.3208    11693.427    1870.5318 
  259600    297.39484    -1150.649    6501.9507    11704.686    1904.1209 
  259700    293.42688   -1154.5598    6325.1023    11439.158    1903.1156 
  259800    300.88728   -1157.6777    6306.2099    11576.527    1828.1607 
  259900    304.88951   -1151.8959    6504.6689     11866.27    1837.1499 
  260000    303.13468   -1147.3435    6550.0767     11878.74     1968.603 
  260100    300.52647   -1152.1353    6351.1652    11619.317    1827.9292 
  260200    295.60867   -1154.8631    6401.9005    11562.263    1885.7132 
  260300    299.43017   -1156.4152    6370.5663    11611.017    1907.5903 
  260400    302.89571   -1154.8781    6447.9497    11763.974    1926.3374 
  260500     297.7724   -1158.1275    6507.5046    11710.828    1920.6429 
  260600    294.38014   -1152.6493      6316.13    11452.461    1844.7227 
  260700    302.96665    -1160.967    6420.3421    11731.793    1913.6002 
  260800    298.05119   -1162.0508    6445.3838    11650.739     1765.913 
  260900    300.18258   -1160.6392    6480.2595    11732.561    1901.6574 
  261000    301.10855   -1162.8967     6382.511    11652.336    1960.5001 
  261100    301.72008   -1164.6376     6361.314    11642.463    1911.7773 
  261200    299.87082   -1156.0227    6556.0905    11806.348    1957.5509 
  261300    307.49712    -1154.039    6442.1338    11857.299    1936.6054 
  261400    298.54617   -1152.2637     6444.249    11669.966    1896.1689 
  261500    299.54058   -1158.3388    6411.4704    11652.357    1878.5077 
  261600    302.22785   -1160.4226    6423.4958    11719.707      1936.57 
  261700     296.9984   -1156.7046    6349.9053    11538.116    1857.4519 
  261800     301.5097   -1162.1932    6398.3438    11677.443    1888.7545 
  261900    294.13543   -1157.9557    6493.1383    11618.935    1962.1827 
  262000     294.9514   -1162.1527    6440.9093    11579.941    1945.3564 
  262100    302.82788   -1158.4364    6375.9219    11686.939    1851.6249 
  262200    299.24356   -1152.4649    6373.1295    11613.544    1913.0723 
  262300    297.88747   -1156.0787    6374.8136    11582.643    1862.2308 
  262400    303.01196   -1156.7322    6557.2441    11873.897    1954.5603 
  262500    301.48959   -1153.9142    6385.7869    11672.735    1888.8797 
  262600    297.89702   -1157.3317    6457.2397    11664.021    1957.7548 
  262700     298.0122   -1159.6477    6390.9885    11597.914    1872.5427 
  262800    300.85445   -1158.9028    6413.9719    11682.363    1876.7237 
  262900    298.87979   -1160.1941     6431.532    11656.446     1863.639 
  263000    297.21606   -1155.8855    6471.4961    11665.176    1883.4601 
  263100    298.29059   -1156.6659    6354.4906    11570.345    1867.0594 
  263200    300.95446   -1157.7017    6520.8296    11792.558    1995.2385 
  263300    301.89625    -1154.548    6419.8961    11714.898    1923.4828 
  263400    301.29088   -1152.1915     6468.105    11752.531    1912.4832 
  263500     300.6696   -1153.3307    6464.2798    11734.294    1945.8711 
  263600    301.14262   -1158.2017    6437.2365    11712.485    1880.5516 
  263700    297.94369   -1158.3289    6460.2159    11666.997    1812.1258 
  263800    305.07702      -1157.4    6585.0147    11945.117    1963.3053 
  263900    298.88702   -1160.6387    6481.1415    11705.765    1975.3172 
  264000    306.20137   -1158.8601    6382.0001    11764.662    1889.7033 
  264100    300.59466   -1155.3203    6431.1657    11697.589    1940.8821 
  264200    299.02275   -1149.8986    6393.3356    11631.599    1940.6531 
  264300    296.78403   -1152.1467    6461.9631    11650.152    1899.6356 
  264400    298.09587   -1157.5753    6371.8535    11582.639    1874.8097 
  264500    302.94506   -1158.4572    6503.2852    11816.784    2014.6588 
  264600    298.57125   -1157.0501    6350.6148    11572.081    1859.7706 
  264700    304.27101   -1162.4435    6388.9788    11726.819     1926.594 
  264800    299.71322    -1162.157    6444.5387    11685.295     1989.417 
  264900    301.16545    -1163.099    6390.2572    11661.096    1838.5739 
  265000    299.65414   -1155.5841    6447.6242    11693.691    1804.8411 
  265100    298.16511   -1160.7128    6484.9446    11694.072    1919.8086 
  265200    297.67303   -1157.6463    6332.4734    11534.155    1898.6613 
  265300    300.82014   -1160.4488    6395.6834    11661.795    1860.7717 
  265400    294.84745   -1154.5288    6603.6987    11748.133    1957.3229 
  265500    303.62246   -1162.5641    6345.8235    11669.687    1953.6907 
  265600    295.89398   -1159.9977    6382.0721    11543.395    1858.6393 
  265700    302.32527   -1160.9587    6440.5362    11738.293    1914.1175 
  265800    300.54402   -1163.7756     6440.277    11697.163    1869.0859 
  265900    294.77283   -1165.6305    6490.1636    11621.902    1768.5463 
  266000    305.52712   -1166.1137    6331.6257     11692.63    1809.4534 
  266100    300.43967   -1163.5465    6381.6101    11636.496    2011.6637 
  266200    301.68807   -1154.4268    6384.0727    11674.749    1921.3133 
  266300    297.59987   -1153.4018    6458.3831    11662.746    1939.4092 
  266400    305.63783   -1161.0539    6458.2845    11826.714    2012.3621 
  266500    299.84638   -1162.4234    6497.1491    11740.484    1932.4484 
  266600    297.54988   -1165.4672    6326.4789    11517.708    1845.0285 
  266700    301.82469   -1168.3708    6290.9759    11570.626    1908.2066 
  266800    299.60864   -1164.0633    6478.4699    11715.085    1910.1557 
  266900     292.6077   -1161.9176     6484.693     11573.89    1831.8979 
  267000    304.23037    -1161.513     6414.076    11751.978     1913.591 
  267100    299.83495    -1164.042    6359.6487     11601.12    1867.4142 
  267200     298.9131   -1158.8845    6396.8358    11623.771    1852.1519 
  267300    297.91254   -1152.9645    6367.9318    11579.412     1931.553 
  267400    299.54938   -1154.3988     6485.125    11730.139    1999.0878 
  267500    298.48633   -1159.6093    6369.8355    11586.929    1867.4326 
  267600    302.50978   -1164.2175    6468.7374    11767.177    1858.3945 
  267700    295.60173   -1164.4447    6385.3774     11536.01    1845.8095 
  267800    303.27541   -1161.1607    6459.8569     11777.71    1855.8473 
  267900    303.05262   -1165.3851    6505.3114    11814.181     1849.005 
  268000    298.85524   -1163.5219    6478.5426    11699.604    1901.0353 
  268100    304.76233   -1155.1184    6351.5723    11707.233    1896.0127 
  268200    296.32145    -1153.472    6476.1315    11653.112    1843.2338 
  268300    302.18607   -1151.4636    6397.7907    11702.069    1878.4125 
  268400    298.57218   -1150.8328    6338.2105    11565.914    1879.9237 
  268500     296.1685   -1153.3493    6408.7474    11582.584    1795.0027 
  268600    305.12477   -1159.8959    6634.8654    11993.492    1974.5564 
  268700    298.78867   -1157.8691    6313.7578     11539.05    1865.5621 
  268800    298.31639   -1159.3317    6453.9592    11667.699    1851.3589 
  268900     304.0971   -1150.4487     6472.499    11818.618    1884.7839 
  269000     297.9072   -1158.5322     6500.898    11706.696    1986.7548 
  269100    301.71998   -1157.6488    6532.0769    11820.212    2010.6985 
  269200    296.69463   -1156.2981     6371.801    11553.928    1896.4201 
  269300    300.07565   -1155.5294    6405.8044    11660.931    1983.2848 
  269400    295.22526   -1153.9248    6346.9833    11500.093     1893.446 
  269500      301.147   -1155.9878    6330.3678    11607.924    1861.3352 
  269600    295.65888   -1154.5503     6559.355    11721.103    1980.5191 
  269700    304.86411   -1165.9798    6471.4707    11818.445     1964.113 
  269800    292.93467   -1167.1385    6328.0844    11419.046    1797.2296 
  269900    299.34598   -1162.4727    6565.5581    11798.153    1907.5686 
  270000     304.3987    -1164.564    6317.3505    11655.798    1836.2196 
  270100    297.36263   -1162.6459    6401.9682    11592.019    1935.4693 
  270200     298.3305   -1164.1572    6350.5779    11559.794    1858.4121 
  270300    301.37458   -1157.9937    6546.7159    11827.128      1937.27 
  270400    297.41722    -1167.021    6380.4442    11567.286    1887.9286 
  270500     300.9643   -1168.9818    6321.4513     11582.11      1878.83 
  270600    299.84757   -1170.6804    6445.7031    11680.806    1926.8661 
  270700    300.40713   -1168.1475    6420.9315    11670.521    1884.5957 
  270800     298.6639   -1165.8896     6460.314     11674.92    1889.9103 
  270900    299.65269   -1169.0903    6275.2691    11507.799    1855.2647 
  271000    301.06393   -1163.9537    6554.6967    11822.512     1982.076 
  271100    303.10203   -1159.2098    6358.2163    11674.316    1892.8802 
  271200    302.73486   -1162.9835    6339.9081     11644.39    1928.3122 
  271300    298.61712   -1162.8076    6459.0405     11675.73    1901.5751 
  271400    304.53545   -1160.0254     6457.182    11803.089    1864.0054 
  271500    303.40199   -1164.0911    6463.5264    11781.153    1923.2523 
  271600    298.74344   -1160.9786    6390.1619    11611.378      1900.85 
  271700    303.16876   -1160.5004    6353.7049     11669.94    1873.7461 
  271800    298.40857   -1161.8562    6445.1008    11658.286    1908.1682 
  271900     301.3916   -1156.5901    6476.7991    11758.978    1956.1848 
  272000     301.2895   -1155.6482    6515.1335    11796.073    1954.1715 
  272100    299.90566    -1152.936      6392.96    11647.048     1871.266 
  272200    302.62566   -1154.2453     6403.454    11714.341    1949.8157 
  272300    296.48816   -1158.8376    6383.4476    11558.625    1924.3776 
  272400    300.04154   -1151.2611    6450.8877    11709.554     1923.125 
  272500    300.39026   -1151.7707     6433.313    11698.919    1868.3327 
  272600    294.35629   -1152.1491    6499.0652    11635.387    1845.3004 
  272700    306.42358   -1154.9524     6459.944    11851.261    1846.0234 
  272800    295.68548    -1158.874    6369.8748    11527.867    1879.6753 
  272900    299.72706   -1155.2417     6354.893     11602.86    1897.4364 
  273000    294.89186   -1155.5587    6540.0982    11684.452    1904.6821 
  273100    302.50664   -1152.4754    6292.4091    11602.524    1835.3841 
  273200    304.42555   -1158.5318    6455.0478    11800.101    1948.5435 
  273300    296.70856   -1158.8636    6449.5181    11629.378    1886.5084 
  273400    303.35599   -1163.4081    6391.6995    11709.027    1889.4542 
  273500    299.57818   -1162.9344    6420.8448    11657.939     1980.637 
  273600    301.68038   -1166.0175    6490.9782    11769.899    1911.1077 
  273700    299.40594   -1169.3825    6519.3644     11746.33    1823.8473 
  273800    301.96443    -1163.791    6443.2045     11730.42    1918.9443 
  273900     297.1197   -1168.8029    6342.4928    11521.196    1872.4671 
  274000    301.96773   -1167.8475    6469.7328    11752.963    1903.0676 
  274100    298.44578   -1165.2058    6396.3957    11607.026    1944.4017 
  274200    300.48091   -1161.0187    6329.0487    11587.344    1855.8476 
  274300    301.53735   -1163.1081    6430.9939    11709.769    1841.0107 
  274400    300.68801   -1164.8122    6400.7598    11659.686    1908.2093 
  274500    299.72795   -1168.8566    6410.2544    11644.625    1876.0939 
  274600    300.61079   -1169.5782    6407.6542    11660.164     1818.819 
  274700    297.06683   -1162.2933      6366.95    11551.034     1873.051 
  274800    299.75342   -1158.9469    6396.4781    11641.303    1918.1119 
  274900    295.24982   -1159.9573    6456.1319    11603.734    1825.7439 
  275000    300.46125   -1164.0957    6424.5605    11679.358    1879.2637 
  275100    300.29039   -1163.5856    6362.1363    11613.794    1871.6955 
  275200      295.253   -1161.2284    6429.0844    11575.483    1829.0627 
  275300    303.92167   -1156.2824    6515.0425     11851.58     1929.188 
  275400    303.78726   -1157.0156    6469.8074    11802.741    2055.9423 
  275500    298.77105   -1161.1306    6342.3357     11563.99    1937.5415 
  275600     302.9695   -1152.7194    6381.5585    11701.318    1955.1987 
  275700    301.74807   -1156.7513    6503.2408    11792.874    1962.4815 
  275800    295.33203   -1159.6097    6498.1889    11647.895    1887.5742 
  275900    297.21976   -1156.7485    6432.5081    11625.404    1862.6207 
  276000    303.86874   -1155.4347    6382.2463    11718.501    1912.1486 
  276100    303.07308   -1154.6848    6453.9083    11773.915      1916.76 
  276200    297.15586   -1158.1117     6420.876    11611.043    1889.0616 
  276300    303.14765   -1153.2692    6481.2374    11804.253    1921.6701 
  276400    302.67337   -1156.9726     6483.277    11792.457    1914.1607 
  276500    298.25166    -1162.468    6422.9375    11632.158    1891.6017 
  276600     297.0841    -1161.174    6302.7948    11488.367    1869.8397 
  276700     305.9392   -1161.6561    6388.9786    11763.244     1887.166 
  276800    302.99805   -1162.9272    6551.1405    11861.302    1928.5868 
  276900    300.01909   -1166.7363    6427.6022    11670.313    1876.1383 
  277000    296.98843   -1165.8126    6419.1469    11598.036    1903.0713 
  277100    302.59082   -1168.8385    6426.6545    11722.205    1932.9254 
  277200    303.08834    -1158.638    6411.0809     11727.46    1931.7183 
  277300    297.25318   -1169.1052    6445.1262    11626.379    1932.5093 
  277400    305.99921   -1169.4532    6409.9489    11777.699    1945.4556 
  277500    297.13207   -1169.9739    6427.6679    11605.465    1942.7389 
  277600     304.0578   -1167.6576    6474.4053    11802.476    1964.5127 
  277700    299.24185   -1165.3155    6388.8844    11616.412    1931.1893 
  277800    299.60088   -1169.8566    6452.0531     11682.71     1959.951 
  277900    302.22783     -1168.67    6431.5973    11719.561    1863.7134 
  278000    299.98808   -1173.1808    6448.4901    11684.094    1843.3056 
  278100    302.92313   -1169.6969    6403.5388     11705.33    1903.0911 
  278200    301.39329   -1167.9443    6462.8262    11733.687    1851.2333 
  278300    299.99216   -1160.3784    6505.7807    11754.275    1910.2689 
  278400    303.76847   -1167.4192    6369.6468    11691.775     1931.545 
  278500    301.07368   -1166.7065      6416.01    11681.281    1929.4031 
  278600    300.69772   -1160.1011    6409.0414    11672.886    1860.9584 
  278700     305.7357   -1160.6661    6380.8444    11751.752    1924.9474 
  278800    297.26438   -1163.4426    6479.3376    11666.492    1970.0047 
  278900    300.38058   -1166.5204     6416.199    11666.849     1864.026 
  279000    302.08724   -1162.2968    6408.0625    11699.396    1888.2886 
  279100    297.37391   -1162.5483    6471.0636    11661.453    1907.0194 
  279200    300.85336   -1158.4124    6460.1584    11729.016      1869.88 
  279300    297.13054   -1158.0031    6385.1139    11574.849    1904.2433 
  279400    297.32952   -1158.6302    6393.7018    11587.061    1906.7237 
  279500    303.29285   -1154.8275    6444.0569    11768.616    1904.0596 
  279600    301.32449   -1158.0035    6318.9827    11598.315    1872.0834 
  279700    304.55779    -1152.688    6437.2138    11790.936    1841.1376 
  279800    297.07394   -1164.2101    6569.2834    11751.602    1927.1141 
  279900    301.29847   -1165.9688    6464.0612    11734.872    1934.6551 
  280000    295.75285   -1166.4199    6325.2148    11477.101     1860.618 
  280100    300.75363   -1165.6217    6463.5094    11723.028    1874.9919 
  280200    295.78948   -1167.4356    6454.0614    11605.714    1904.7002 
  280300    299.85298   -1159.3121     6400.688    11647.275    1895.3676 
  280400    302.88985   -1156.6476    6424.9021    11739.031    1915.4228 
  280500      297.172   -1162.0815    6478.4403    11664.983    1908.6947 
  280600    307.89019   -1153.9519     6345.789    11769.439    1882.7518 
  280700    298.64084   -1162.6443    6430.3385    11647.697    1896.9884 
  280800    300.11389   -1157.8271    6459.2551    11712.901    1932.5847 
  280900    298.48862   -1164.9376    6305.2782    11517.092    1822.0205 
  281000    301.06788   -1167.0337    6520.2625    11785.082     1859.036 
  281100     301.1216   -1168.0443    6536.3248    11801.281     1929.195 
  281200     303.0959   -1164.4779    6298.3968    11609.098    1833.3763 
  281300    302.13384   -1164.6949    6427.7486     11717.68     1890.305 
  281400    298.69469   -1153.5679    6483.1471    11710.733    1870.3368 
  281500    301.83582   -1158.4263      6437.31    11727.143    1925.4247 
  281600    296.93524   -1163.3337    6392.1602    11572.392    1918.4962 
  281700    297.15041   -1166.5089    6472.9958     11654.65    1943.9915 
  281800    301.01255    -1161.768    6359.6701    11628.573    1871.3016 
  281900    297.22589   -1163.4927    6424.7947    11611.077    1882.5391 
  282000    300.90452   -1167.3237    6376.4563    11637.496     1859.912 
  282100    303.17248   -1165.5919     6448.573    11759.796    1908.2894 
  282200    296.02567   -1161.6411    6515.7412    11678.234    1891.1566 
  282300    298.10343   -1161.2848    6431.7033    11638.941      1866.14 
  282400    300.00405   -1157.8349    6313.9036    11565.195    1873.4519 
  282500    296.44988   -1156.0566    6410.3034    11587.444    1919.7406 
  282600    301.13299   -1155.4501    6462.0738    11739.868    1862.7645 
  282700    292.06442   -1156.4462    6463.4445    11546.507    1865.3992 
  282800    303.35891   -1154.8598    6402.3505    11728.288    1876.7541 
  282900    299.16296   -1160.4972    6351.3817    11582.042    1765.1753 
  283000    302.39961   -1154.9583    6475.7669    11781.112    1882.4958 
  283100    305.14346   -1158.3541    6405.8336    11766.401    1834.8445 
  283200    298.37498   -1159.8738    6419.6255    11634.075    1877.7329 
  283300    301.30243   -1159.8799    6410.8923    11687.877    1876.6583 
  283400    309.77542   -1160.3715    6425.9816    11883.487    1908.3556 
  283500    296.53404   -1162.2135    6434.3285     11607.11    1869.8152 
  283600    304.11074   -1157.7208    6409.0538    11748.192    1852.7628 
  283700    296.58559   -1159.8213    6463.1752     11639.45     1837.591 
  283800    298.22298   -1161.1666     6368.233    11578.143    1775.7802 
  283900    306.16942   -1162.4915    6406.8854    11785.234    1848.5795 
  284000     295.2969   -1157.7071     6433.611    11584.469    1857.3251 
  284100     296.1662   -1165.6607     6364.867    11526.343    1858.6171 
  284200    299.70926   -1167.6122    6458.5736     11693.79    1901.3617 
  284300    301.98957   -1161.0727    6518.2196    11808.691    1849.1037 
  284400    294.92837   -1165.3963    6410.4712    11545.767    1824.5946 
  284500    302.03294   -1162.1011    6296.6815    11587.051    1822.7152 
  284600    295.61039   -1164.3592    6472.2122    11623.116    1831.6717 
  284700    297.31672   -1161.0345    6488.6115    11679.292    1795.1994 
  284800    297.70916   -1163.1076     6317.893    11514.885    1849.1291 
  284900    297.06282    -1163.565    6426.4434     11609.17    1889.7399 
  285000    302.94436   -1165.9867    6399.6055     11705.56    1867.8954 
  285100    296.53768   -1162.7669    6327.8228    11500.129    1892.1042 
  285200    301.45105   -1162.9944    6408.8239    11685.869    1911.6952 
  285300     297.0437   -1161.7445    6478.9018     11663.04     1896.977 
  285400    304.88765   -1165.2552    6354.6067    11702.808    1938.8002 
  285500    301.94963   -1167.0535    6399.4892    11683.126    1936.3251 
  285600    299.31754   -1164.0375    6444.7191    11675.142    1868.7497 
  285700    300.13295   -1162.2244    6464.4569    11714.112    1918.2907 
  285800    298.34206     -1167.22    6324.3543    11530.755    1847.4996 
  285900    298.55623   -1167.5518    6463.9875    11674.632    1873.9274 
  286000    298.82101   -1157.3382    6420.8366    11647.351    1843.6145 
  286100    303.77815   -1162.4372    6412.2904    11739.607    1865.5621 
  286200    295.60651   -1164.2997    6345.9125    11496.792    1803.8267 
  286300    301.11924   -1157.9678    6412.8679    11687.851    1853.6933 
  286400    294.88022   -1158.5076    6612.8073    11753.963     1981.042 
  286500    299.90575   -1160.3453     6390.567    11637.248    1888.7938 
  286600    304.78885   -1164.1793    6365.4573    11712.624    1898.8774 
  286700    296.18908   -1158.0357    6387.1218    11556.711    1835.4756 
  286800    301.28091   -1158.8939    6485.0143    11762.525    1901.1056 
  286900    306.30568   -1164.9214    6411.2919    11790.121    1876.0069 
  287000    299.54101   -1160.4112    6494.2571     11733.08    1906.6071 
  287100     299.5961   -1155.6035    6486.8188    11731.626    1884.0037 
  287200     301.4117   -1159.1107    6450.1393    11730.227     1870.757 
  287300    294.84459   -1158.7043    6380.4004    11520.598    1895.5515 
  287400    301.44176   -1155.9267    6394.6925    11678.606     1930.261 
  287500    296.72601   -1159.0868    6438.4021    11618.411    1867.5391 
  287600    301.99615   -1161.7808    6481.0048    11770.908    1837.9191 
  287700    298.08586   -1164.9145    6512.4915    11715.724    1982.0226 
  287800    301.72441   -1161.8082    6311.8095     11595.88    1902.1051 
  287900    298.96379   -1162.4408    6417.3283     11641.79    1888.5807 
  288000      301.675   -1164.3058     6516.411    11796.929    1886.2572 
  288100    296.20624   -1162.1249    6392.9885    11558.856    1919.5833 
  288200    302.79393   -1167.2979    6389.9472    11691.377     1934.318 
  288300    300.24715    -1162.972    6408.4133    11659.761    1967.8915 
  288400    293.56499   -1160.8923    6441.3353    11552.009    1896.6575 
  288500     301.7306   -1163.7687    6406.2036    11688.446    1898.4038 
  288600    299.04887   -1161.0124     6443.489    11671.197    1940.4572 
  288700    302.12478   -1160.8864    6417.4427    11710.989    1950.6689 
  288800    296.95619   -1166.6448    6386.2009    11563.569    1865.5759 
  288900     305.0955    -1163.931    6394.3071    11748.274    1853.3415 
  289000    298.80546   -1169.7374    6475.9558    11689.739    1875.5856 
  289100    298.13596    -1165.466    6459.0045    11662.756    1915.7226 
  289200    298.51795   -1162.9126    6325.5535    11540.019    1857.1645 
  289300    299.72573   -1159.6766    6413.2563     11656.76    1909.9166 
  289400    298.93534   -1160.1149    6441.3802     11667.56    1946.1059 
  289500    298.13467   -1158.7063    6494.8956    11705.379     1912.221 
  289600    301.88506   -1161.9109    6438.0137    11725.414    1906.4825 
  289700    298.85786   -1167.4915    6334.0753    11551.223    1899.8744 
  289800    290.68414    -1163.006    6376.9237    11423.938    1832.4498 
  289900    300.51592   -1167.2385    6521.1493    11773.972    1819.7543 
  290000    299.91956    -1166.667    6409.2202    11649.874    1834.9266 
  290100    301.62016   -1158.3583     6413.728    11699.022    1838.0539 
  290200    296.65361   -1159.7655    6479.8162      11657.6    1877.6131 
  290300     304.1732   -1157.7618    6316.7454    11657.177     1886.672 
  290400    296.86255   -1158.0735    6383.9629    11567.902    1894.6969 
  290500    304.16571   -1158.3482    6462.0403    11801.726    1874.3322 
  290600    303.79966   -1157.2525     6373.849     11706.81    1906.7498 
  290700    301.10012   -1164.1563    6466.8492    11735.235     1967.178 
  290800    298.85195   -1164.0154    6489.0962    11709.594    1892.2256 
  290900    307.16764   -1159.0288    6434.5852    11837.722    1875.3048 
  291000    298.63482   -1155.1825    6385.8208    11610.513    1900.6065 
  291100     299.2711   -1157.6615    6383.9198    11619.726    1855.2672 
  291200    296.99057   -1161.0175    6512.8893     11696.62    1831.2298 
  291300    298.53259   -1159.8508    6499.7538    11717.594    1904.3982 
  291400    301.99851    -1163.665    6469.4876    11757.557    1897.8866 
  291500    300.91023   -1160.1669    6334.5186    11602.837    1813.0398 
  291600    299.47072   -1166.5645    6488.8391    11720.007    1900.2649 
  291700    299.92604   -1161.3752     6495.699    11741.783    1933.3185 
  291800    303.39236   -1162.8649    6354.6962    11673.344    1866.0072 
  291900    302.00993   -1161.9891    6351.1358    11641.125    1889.6197 
  292000     298.3821   -1162.8661    6516.0817    11727.691    1951.7296 
  292100    298.83502   -1160.7334    6451.0815      11674.5    1902.7908 
  292200     303.0611   -1156.8323    6357.0206    11674.624    1907.4508 
  292300    301.80438   -1163.9346    6342.3238    11625.977     1894.574 
  292400    300.51089    -1165.265    6531.3095    11785.998    1946.9889 
  292500    305.17152   -1163.5901    6342.4757    11698.407    1897.4658 
  292600    302.07033   -1162.4189    6397.1628    11688.013     1919.666 
  292700    297.65332   -1164.5669    6365.0463    11559.386    1803.8748 
  292800    298.87851   -1164.9661    6425.8727    11645.987    1864.8686 
  292900    302.48814   -1162.1343    6487.2619    11787.323    1865.8523 
  293000    296.06372   -1160.1908    6399.0499    11563.806    1869.2352 
  293100    300.56814   -1164.0469    6343.3908    11600.521    1853.9815 
  293200    300.77945   -1157.7715    6360.8234    11628.743    1854.8511 
  293300    295.51191   -1160.8326    6470.0019    11622.328    1893.8032 
  293400    303.44715   -1161.5854    6413.7176    11734.815    1878.5958 
  293500    298.43444   -1162.9794     6401.283    11613.898    1893.6376 
  293600    301.11281   -1161.3484    6420.0745    11691.539    1956.3188 
  293700    296.85503   -1164.4929    6405.4695    11582.829    1933.4027 
  293800    302.24359   -1155.9305    6461.4353    11762.475    1904.0605 
  293900    297.72986   -1157.3991    6375.7693    11578.912    1851.5342 
  294000    301.67144   -1161.7409    6329.1677    11612.174    1883.3882 
  294100    299.72557   -1160.0376    6405.1362    11648.276    1857.5919 
  294200    299.45321   -1160.1354     6389.462    11626.685    1852.1123 
  294300    302.50452   -1165.0547    6473.2324    11770.723    1890.6465 
  294400    300.28893   -1161.3766    6433.1501    11686.986    1847.1048 
  294500    298.31895   -1167.5573    6506.2433    11711.813    1919.3943 
  294600    300.19259   -1162.8874    6380.0603    11630.327    1909.7935 
  294700    297.32553   -1162.1236     6383.303    11573.083     1972.118 
  294800    301.66812   -1159.6777    6293.3345    11578.333    1928.2627 
  294900    299.52001   -1160.7884    6422.1513    11660.148    1930.1944 
  295000    302.43145   -1161.6227    6565.7247    11865.086    1954.7966 
  295100    296.18483   -1163.5794    6414.4511    11578.406    1892.5192 
  295200    303.55328   -1170.5163    6365.3853    11679.819    1918.1377 
  295300    298.31505   -1167.0551    6448.0376    11654.026    1945.6675 
  295400    299.37706   -1156.9393    6457.7814    11696.574    1925.5848 
  295500    302.32676   -1164.0313    6370.6352    11665.351    1885.3344 
  295600    295.25017   -1170.6675    6424.1988    11561.098    1902.3331 
  295700    302.73946   -1168.9478    6514.5649    11813.181    1851.1166 
  295800    293.58023   -1166.1928    6425.5513     11531.25     1793.078 
  295900    303.09899   -1167.0241    6430.5663    11738.787    1968.7711 
  296000    299.43639   -1166.1402    6313.6299    11544.489    1886.3687 
  296100    298.61879   -1168.9049    6468.8103    11679.438    1866.2005 
  296200     300.4565   -1161.7166    6453.2218    11710.297    1880.1988 
  296300    302.62673   -1164.6826    6368.6788    11669.152    1869.0501 
  296400    295.52688   -1165.9272    6336.9482    11484.499    1876.7914 
  296500    302.55582   -1169.0605     6370.165    11664.745    1931.8652 
  296600    298.07526   -1165.6448    6383.5828    11585.859     1829.289 
  296700    297.53184   -1164.7022     6503.707    11695.316    1904.6415 
  296800      298.982   -1160.1186    6432.9394    11660.113    1870.1799 
  296900    300.59642   -1164.7042    6404.2237    11661.301    1906.4553 
  297000    301.79765   -1164.4852    6419.3606    11702.319    1932.6603 
  297100    296.25386   -1165.8631     6336.181    11499.327    1874.9445 
  297200    298.44623   -1156.1908    6399.1483    11618.803    1777.9627 
  297300    300.73035   -1166.3048    6476.7531    11735.091    1856.0763 
  297400    298.66429   -1160.0077    6402.9483    11623.445    1859.2258 
  297500    302.30525   -1165.4528    6364.7769    11657.612    1819.5983 
  297600    294.14448    -1160.997    6423.2742    11546.223    1863.0079 
  297700    301.72262   -1154.6801    6379.7765    11670.937    1896.5124 
  297800    301.86561   -1159.8131    6346.6362    11635.719    1879.6206 
  297900    300.74225    -1159.091    6500.9191    11766.725    1913.0254 
  298000    295.75226   -1158.5738    6437.2546    11596.974    1856.5318 
  298100    302.59618   -1161.8358    6450.8568    11753.524    1902.6003 
  298200    297.94032   -1161.8262    6419.8044    11623.016    1888.0557 
  298300    300.69408   -1160.5987    6473.4682    11736.737    1857.3962 
  298400    296.95841   -1157.9644    6506.7417    11692.838    1878.4944 
  298500    303.17861   -1160.4217    6371.1313    11687.655    1818.5406 
  298600     301.4771   -1160.9165    6372.3479    11652.027    1828.6467 
  298700    295.78182   -1158.8865    6440.4841    11600.522    1879.0872 
  298800    303.20103   -1154.2871     6407.519    11730.657    1824.0593 
  298900    298.19639   -1156.0681    6427.3872    11641.827    1847.3078 
  299000    303.06632    -1149.393    6401.5085    11726.662    1892.3314 
  299100    298.02546   -1159.6852    6388.7094    11595.881    1858.6186 
  299200    299.13856   -1160.9691    6396.3594    11626.027    1874.0471 
  299300    295.20046   -1161.6225    6415.2392    11560.122     1889.171 
  299400    299.77558   -1164.6634    6414.4634    11654.045    1862.4604 
  299500    299.89278      -1169.5    6494.0689    11731.318    1862.7443 
  299600    301.09664   -1163.5721     6466.803    11735.699    1912.6585 
  299700    297.55714   -1163.4327    6363.9494    11557.368    1898.6729 
  299800    299.26263   -1154.5061    6431.1978    11669.979    1922.6627 
  299900    304.86143    -1158.166    6377.7141    11732.445    1931.7028 
  300000    296.78314   -1160.5066    6423.5528    11603.363    1958.7598 
Loop time of 282.714 on 8 procs for 300000 steps with 7168 atoms

Pair  time (%) = 137.023 (48.4672)
Bond  time (%) = 80.9097 (28.6189)
Neigh time (%) = 19.5238 (6.90586)
Comm  time (%) = 30.5553 (10.8079)
Outpt time (%) = 0.466982 (0.165178)
Other time (%) = 14.2347 (5.03501)

Nlocal:    896 ave 899 max 891 min
Histogram: 1 0 1 0 0 2 0 0 2 2
Nghost:    2840 ave 2847 max 2833 min
Histogram: 2 0 0 0 1 3 0 0 0 2
Neighs:    23630.9 ave 23934 max 23250 min
Histogram: 1 0 1 2 0 0 0 1 2 1

Total # of neighbors = 189047
Ave neighs/atom = 26.3737
Ave special neighs/atom = 157.056
Neighbor list builds = 3049
Dangerous builds = 0
unfix           NVT
# −−−−−−−−−−−−−−− Equilibration in nve −−−−−−−−−−−−−−−−−
fix             NVE all nve
run             300000
Memory usage per processor = 11.5453 Mbytes
Step Temp E_pair E_mol TotEng Press 
  300000    296.78314   -1160.5066    6423.5528    11603.363    1958.7598 
  300100    300.24773   -1154.7255    6343.8907    11603.497    1868.3127 
  300200    298.40786   -1160.5024    6389.0089    11603.533    1849.3019 
  300300    300.17316   -1172.7879    6363.6651    11603.616    1880.7275 
  300400    297.63556   -1168.9543    6414.1623    11603.735    1917.2766 
  300500    299.78122   -1170.9842    6370.2022    11603.584     1883.022 
  300600    295.94207   -1172.3912    6453.6918    11603.649    1898.4825 
  300700    297.46496   -1169.6385      6418.34    11603.584    1883.7342 
  300800    300.46811   -1161.1841    6345.6439      11603.5    1861.4862 
  300900    295.67537    -1162.857    6449.7365     11603.53    1955.1318 
  301000    303.51459   -1165.0072    6284.3441    11603.461    1894.4978 
  301100    296.52112   -1159.8129    6428.5784    11603.484    1878.2399 
  301200    299.10459   -1167.2882    6380.8891    11603.512    1875.6561 
  301300    302.58086   -1173.0588    6312.4122    11603.529    1869.5104 
  301400    298.54333    -1175.633    6401.3218    11603.609    1820.4598 
  301500     297.0808   -1173.6366    6430.5651    11603.604     1863.162 
  301600    300.76594   -1169.5089    6347.6694    11603.563    1925.2747 
  301700    295.28622   -1159.3808    6454.5679    11603.524    1906.2331 
  301800    299.94091   -1158.0383    6353.7179    11603.457     1839.557 
  301900    300.46659   -1158.6884    6343.1267    11603.446    1956.9394 
  302000    297.96109    -1158.223    6396.2427    11603.501    1997.9068 
  302100     299.1729   -1156.7372    6368.6848    11603.318    1942.7559 
  302200     301.2763   -1164.9035    6331.9568    11603.359    1918.5807 
  302300    295.42034   -1165.5819    6457.8746    11603.495    1931.2763 
  302400    299.66391   -1165.2323    6366.7979    11603.425    1866.7338 
  302500    299.12267   -1164.4299    6377.5731     11603.44    1852.0591 
  302600    298.98896   -1158.1452    6374.1071    11603.402    1929.7658 
  302700    297.60807   -1151.7611    6397.1241    11603.303    1861.3107 
  302800    297.64672   -1155.7519    6400.2943    11603.308    1807.6467 
  302900    298.25919   -1156.7371    6388.2953    11603.408    1842.6074 
  303000    298.51743   -1158.1403    6384.1769    11603.404    1956.8486 
  303100     298.2916   -1160.7705    6391.5875    11603.359    1896.4784 
  303200    297.41645   -1165.4982    6415.0227     11603.37    1863.7659 
  303300     300.5515   -1167.0101    6349.5631    11603.375    1879.0973 
  303400    296.04083   -1159.6613    6438.6154    11603.412    1889.6991 
  303500    298.00867   -1164.7734    6401.7431    11603.468     1928.073 
  303600    298.96652   -1163.8365    6380.2607    11603.385    1889.6328 
  303700    299.07327   -1162.3939    6376.6073    11603.455    1873.2561 
  303800    299.93101   -1163.9342    6359.8877    11603.519    1816.6305 
  303900    298.28285   -1171.1524    6402.2629    11603.466    1871.5933 
  304000    299.69805   -1166.0523    6367.0122    11603.549    1869.1914 
  304100    301.69276   -1166.0342    6324.4057    11603.574    1858.8111 
  304200    296.82215   -1167.2237    6429.6419    11603.568    1891.3103 
  304300    299.98615   -1166.8016    6361.6463    11603.588    1842.4825 
  304400    297.89029   -1172.6192    6412.3606     11603.71    1896.0934 
  304500    296.14576   -1171.3924    6448.3754    11603.683    1864.4799 
  304600    302.34662   -1167.5441    6311.9803    11603.608    1846.3124 
  304700    296.69456   -1164.7103    6429.9624    11603.676    1895.6859 
  304800    299.13817   -1164.2784    6377.2948    11603.645    1859.3144 
  304900    296.98549   -1166.4048    6425.4467    11603.681    1928.1023 
  305000    298.67963   -1164.1518    6386.8908    11603.571     1955.333 
  305100    298.69406   -1160.1644    6382.5191    11603.495    1931.2255 
  305200    298.48362   -1160.4154    6387.2609     11603.49    1860.7703 
  305300    299.12665   -1166.8363    6379.8201    11603.366    1864.0905 
  305400    299.75655   -1166.1089     6365.697    11603.427    1836.0061 
  305500    298.40151   -1165.6787    6394.1558    11603.367    1900.7628 
  305600    300.17076   -1165.4896    6356.1585    11603.356    1934.9277 
  305700    300.52043   -1161.8313    6345.0534     11603.38    1871.7532 
  305800    297.27736   -1160.2862    6412.7283    11603.317    1855.9484 
  305900    295.66771   -1158.1587    6445.0018     11603.33    1860.2665 
  306000    297.90799    -1156.913    6395.9101    11603.344    1912.7815 
  306100    297.57605   -1155.8651    6401.9459    11603.336    1942.0512 
  306200    297.95162   -1158.2701    6396.3021    11603.311    1908.8591 
  306300    297.22629   -1163.9863    6417.5675    11603.365     1893.512 
  306400    299.14853   -1159.7546    6372.3017    11603.396    1921.2323 
  306500    295.61223   -1167.7718    6455.7942    11603.324    1981.1649 
  306600    298.27374   -1165.6671    6396.9456    11603.439    1913.2509 
  306700     297.7592   -1166.6517    6408.8715    11603.388    1937.3361 
  306800    298.48003   -1166.5457    6393.4451    11603.467    1962.4029 
  306900    301.25325   -1162.0066    6329.6762    11603.483    1923.0214 
  307000    295.75445   -1161.8036    6447.0147    11603.551    1888.2211 
  307100    298.93862   -1165.9299    6383.1798    11603.615    1918.5681 
  307200     296.8654   -1163.3873     6424.897    11603.584     1944.395 
  307300     301.3615   -1169.9933    6335.5051    11603.638    1854.4574 
  307400    297.43449   -1167.1037    6416.5545    11603.682    1902.7103 
  307500    296.63611   -1173.0897    6439.6701    11603.756    1881.9281 
  307600    298.01772   -1173.0558    6410.0886    11603.724    1868.2756 
  307700    299.80175   -1172.1703    6371.0243    11603.658    1865.8984 
  307800    300.61494   -1171.5141    6352.9917    11603.655    1930.4083 
  307900    300.01386   -1165.9606    6360.1768    11603.552    1903.1296 
  308000    292.55151   -1164.2623    6517.8953    11603.547    1930.6233 
  308100    301.51231   -1166.2012    6328.4084    11603.555    1947.3956 
  308200    299.19329   -1162.4792    6374.2678    11603.594    1942.0437 
  308300    298.59467   -1163.6165    6388.1889    11603.589    1871.9482 
  308400    298.40938   -1164.6315    6393.1478    11603.575    1962.6855 
  308500    297.57519   -1167.6824    6413.9809    11603.536    1913.2074 
  308600    300.33402   -1165.6375    6352.9855    11603.524    1913.8111 
  308700    298.16708   -1158.1156    6391.6696    11603.436    1946.3658 
  308800    299.18176   -1155.0408    6366.8031    11603.322    1883.0243 
  308900    297.95227   -1152.9065    6390.8976    11603.284      1895.69 
  309000    297.32246   -1154.9616     6406.467    11603.344     1926.526 
  309100    296.57378   -1151.8394    6419.2881    11603.292    1892.4678 
  309200    298.23204   -1156.4442    6388.4059    11603.232    1903.0089 
  309300    302.46131   -1158.6135    6300.2492    11603.258    1878.6598 
  309400    298.16447   -1162.7422     6396.241    11603.325    1897.8063 
  309500    296.43013   -1160.0445    6430.5147    11603.245     1916.352 
  309600    298.70737   -1158.5219    6380.3246    11603.227    1845.2755 
  309700    297.48609   -1157.6827    6405.7262    11603.377    1867.4174 
  309800     301.3283    -1159.437    6325.3487    11603.328    1871.6391 
  309900    297.62967   -1154.1877    6399.1738    11603.387    1875.7396 
  310000    300.22047   -1161.6414    6351.2371    11603.345    1811.4742 
  310100    299.74894   -1167.8534    6367.6351    11603.458    1827.8632 
  310200    297.37266   -1165.0071    6415.6269     11603.53    1822.7345 
  310300    297.28862   -1156.1652     6408.571    11603.521    1859.6441 
  310400    303.23457    -1164.867    6290.2939    11603.568    1943.7572 
  310500    297.47578   -1164.9575    6413.4236     11603.58    1886.7451 
  310600    296.88051   -1166.0664    6427.2851    11603.615    1891.3271 
  310700    298.20837   -1174.1857     6406.925    11603.504    1943.8228 
  310800    298.28596   -1172.1159    6403.3252    11603.631    1925.3515 
  310900    300.35593   -1171.4765    6358.4419    11603.609    1850.0963 
  311000    300.33327   -1169.7341     6357.165     11603.59    1883.1567 
  311100    300.03541   -1161.9873     6355.758    11603.567    1828.3456 
  311200     297.9845   -1169.7386    6407.3905    11603.633     1799.228 
  311300    298.10644   -1171.2411    6406.2199    11603.565    1879.8635 
  311400    299.28728   -1172.7421    6382.5088     11603.58    1875.5469 
  311500    299.49474   -1171.0592    6376.3616    11603.548    1901.4947 
  311600    298.84279   -1170.5632    6389.8255     11603.58    1919.3467 
  311700    298.68156    -1168.771    6391.4075     11603.51    1952.4244 
  311800    297.18064   -1158.3718    6413.0466    11603.483     1869.286 
  311900    294.78609    -1165.452    6471.2422    11603.443    1907.3686 
  312000    303.00267   -1171.0591    6301.2108    11603.339    1878.1737 
  312100    295.28225   -1164.0642    6459.2217     11603.41    1887.9615 
  312200    297.68531   -1158.8306    6402.5697    11603.329     1878.527 
  312300    300.77444   -1162.9243    6340.6457    11603.306    1880.3078 
  312400    297.99828   -1165.6952    6402.8591     11603.44     1884.888 
  312500    296.42053   -1162.8595    6433.6358    11603.346    1917.1946 
  312600     298.4093   -1157.8499    6386.1705    11603.377    1917.2189 
  312700    297.42886   -1159.1818    6408.4513    11603.381    1911.6201 
  312800    301.73413   -1160.2911    6317.6224    11603.418    1846.6631 
  312900    299.25121   -1161.8127     6372.243    11603.473    1892.0243 
  313000    295.91789    -1157.814    6439.3606    11603.378    1924.4386 
  313100     296.9437   -1163.0132    6422.6809    11603.414    1934.1608 
  313200    302.05064   -1164.6167    6315.2264    11603.458    1848.7017 
  313300    296.31048   -1158.8541    6432.1339    11603.498    1887.8006 
  313400    298.93343   -1162.6831    6379.9455    11603.517    1891.3658 
  313500    300.22291   -1161.9382    6351.6177    11603.481    1855.9928 
  313600    292.84795   -1166.1822    6513.4673    11603.532    1911.9892 
  313700    301.07576   -1161.0271    6332.5987    11603.593    1858.0232 
  313800    299.36115   -1171.3242    6379.5768    11603.644     1899.785 
  313900    298.67958   -1167.6868    6390.4901    11603.634    1841.8773 
  314000     294.8363   -1172.0465    6476.9637    11603.643    1894.3208 
  314100    299.79052   -1173.4102    6372.5386    11603.693    1882.1512 
  314200    298.26564   -1167.4389    6399.0441    11603.593    1860.6669 
  314300    298.75472   -1171.5634     6392.691    11603.564     1872.484 
  314400    297.51088   -1176.5056    6424.3256    11603.683    1924.3152 
  314500    300.86573   -1167.3313    6343.4062     11603.61    1875.5685 
  314600    299.43817   -1167.9912    6374.5508    11603.597    1918.1146 
  314700    298.45066   -1162.6651    6390.2987    11603.574    1888.9356 
  314800    300.52387   -1164.3371     6347.793    11603.687     1856.358 
  314900    299.27712   -1165.4335    6375.3584    11603.521    1970.0494 
  315000     296.2512   -1161.0629    6435.5779    11603.467    1965.6654 
  315100    296.97797   -1164.5255    6423.5846    11603.538    1909.8104 
  315200    301.06969    -1164.732    6336.3892    11603.549    1911.6153 
  315300    297.54131   -1165.8012    6412.7251    11603.437    1912.6338 
  315400    298.79184   -1162.2503    6382.4515     11603.43    1898.6973 
  315500    299.59205   -1161.9937    6364.9713    11603.302    1876.0939 
  315600    298.27296   -1162.7187    6393.9956    11603.421    1890.6347 
  315700    295.10747   -1157.8815    6456.7461    11603.383    1900.7173 
  315800    298.63561   -1154.1832    6377.5208    11603.229    1891.4982 
  315900    297.54795   -1159.9145    6406.5226    11603.263    1951.1569 
  316000    294.53344   -1159.7357     6470.795    11603.314    1883.0345 
  316100    299.57994   -1159.2354    6362.4567    11603.287    1859.1753 
  316200    297.88546   -1162.4459    6401.9672    11603.387    1872.2166 
  316300    301.16442   -1160.9081    6330.3879    11603.396    1756.0954 
  316400     295.4882   -1160.6931     6451.503    11603.462    1817.0719 
  316500    298.28436    -1163.467    6394.5112    11603.432    1798.2125 
  316600    298.13277   -1161.1679      6395.37    11603.351    1842.1672 
  316700    301.75031   -1161.8974    6318.8858    11603.421    1921.5751 
  316800    296.44406    -1160.027    6430.4342     11603.48    1897.1735 
  316900    300.83816   -1160.3651     6336.835    11603.416    1891.4565 
  317000    299.27006    -1161.484    6371.5251    11603.487    1923.2536 
  317100    297.45692   -1170.1566    6419.0753    11603.629    1886.5161 
  317200    296.17252    -1174.087    6450.4432    11603.628    1874.3077 
  317300    301.31498   -1165.8506    6332.3088     11603.59    1870.5645 
  317400    301.50965   -1171.6384    6333.9691    11603.622    1917.1985 
  317500    297.05345   -1168.2289    6425.7603    11603.623    1891.1341 
  317600    299.01993   -1159.2588    6374.8337    11603.677    1826.1013 
  317700    301.81346   -1164.2868    6320.0716    11603.566    1876.4329 
  317800    300.86028   -1171.1621    6347.3291    11603.585    1904.2934 
  317900    296.23713   -1174.1088    6449.1238    11603.667    1885.9724 
  318000    299.66892   -1172.4089    6374.0461    11603.604    1909.0278 
  318100    299.75733   -1169.2281    6368.9885    11603.616    1897.4779 
  318200    297.28142   -1172.1356    6424.7891    11603.615    1932.2139 
  318300    301.79973   -1174.3815    6330.4552    11603.562    1927.6741 
  318400    299.81469   -1166.0046    6364.5327    11603.609    1887.6347 
  318500    295.23108    -1167.248    6463.6028    11603.514    1869.1904 
  318600    297.61183   -1168.7509    6414.1942    11603.463     1880.296 
  318700    299.09839   -1166.6515    6380.3929     11603.52     1949.339 
  318800    300.90102   -1161.4092    6336.6241    11603.504    1892.2856 
  318900     298.3317   -1163.3747    6393.4012    11603.426     1856.233 
  319000    298.54628   -1168.6306    6394.0931    11603.446    1921.1435 
  319100    299.33889   -1165.5478     6374.104    11603.472    1859.9629 
  319200    294.24212   -1164.0151    6481.4059    11603.422    1882.3526 
  319300    298.54899   -1160.3492    6385.7861    11603.478    1954.5078 
  319400    297.27976    -1160.634    6413.1201    11603.412    1976.7873 
  319500    297.01469   -1164.2138    6422.4097    11603.459    1887.6859 
  319600    300.24645    -1157.757    6346.8733    11603.421    1876.8839 
  319700    293.49776   -1160.7216    6494.0431    11603.451    1938.2891 
  319800    302.74763   -1162.0643    6297.7361     11603.41    1849.8153 
  319900    297.82819   -1162.1969    6403.0252    11603.471    1864.2903 
  320000    297.69123    -1163.658    6407.4677    11603.526    1875.3867 
  320100    299.20804   -1168.5971     6380.012    11603.536    1869.3236 
  320200    300.07395   -1162.9591    6355.8406    11603.501    1862.8997 
  320300    300.18027   -1162.7812    6353.4193    11603.529    1933.6053 
  320400    297.73507   -1161.4426    6404.3049    11603.515    1929.2932 
  320500    296.36415   -1161.0873    6433.1167    11603.395    1839.7663 
  320600    298.80304   -1165.1523    6385.2167    11603.533    1884.3504 
  320700    299.52869   -1166.1573    6370.8076    11603.621     1957.473 
  320800    299.38776    -1166.749    6374.2878    11603.499    1841.3468 
  320900    294.29855   -1164.0641    6480.3986    11603.571    1889.0269 
  321000    299.31103   -1166.1378    6375.3676    11603.551    1918.8571 
  321100    300.58699   -1168.7361    6350.7123    11603.556    1867.1895 
  321200    300.64154   -1167.3804     6348.195     11603.56     1856.874 
  321300    297.83009   -1166.9983    6407.8965    11603.581     1986.909 
  321400    297.08606   -1168.2717    6425.0525    11603.569    1955.1857 
  321500    301.47589   -1162.7102    6325.7924    11603.652     1815.927 
  321600    298.84876   -1168.4398    6387.5741    11603.579    1916.7056 
  321700    297.14264    -1164.399    6419.9316    11603.529    1922.1222 
  321800    301.15913   -1168.5874    6338.2597    11603.475    1901.5924 
  321900    295.58378   -1163.3762    6452.2548    11603.573    1894.1608 
  322000    297.58976   -1161.7556    6407.8042    11603.597    1918.0713 
  322100    296.63965   -1165.2772    6431.5465     11603.52    1862.3926 
  322200    299.48432    -1161.586    6367.0418    11603.479    1822.1552 
  322300    300.70398   -1166.7878     6346.213    11603.504    1873.9782 
  322400    297.37302   -1165.2218    6415.6628    11603.359    1831.4034 
  322500    296.37736   -1159.7435    6431.4767    11603.381    1847.6336 
  322600      299.335   -1161.7519    6370.3793     11603.46    1952.1825 
  322700    299.10209   -1157.4954    6371.0249    11603.387    1871.6875 
  322800    295.58773   -1158.6574      6447.32    11603.441    1871.1971 
  322900    303.88975   -1162.5423     6273.804      11603.4    1836.6498 
  323000    296.30696   -1158.3154    6431.6157    11603.444     1868.285 
  323100    297.63148   -1159.1116    6404.1155    11603.444    1854.7402 
  323200    301.50656   -1161.9034    6324.1386     11603.46    1899.9149 
  323300    293.83542    -1157.544    6483.6784    11603.477    1965.7453 
  323400    298.89513   -1161.4457    6379.4786    11603.469     1903.524 
  323500    299.54336   -1154.0971    6358.2659    11603.453    1863.8371 
  323600    300.93412   -1160.2416     6334.698    11603.452    1957.7106 
  323700    297.45974   -1162.1139    6410.8257    11603.483    1919.8415 
  323800    294.22459   -1161.5534    6479.3742    11603.478    1927.1738 
  323900    299.46475   -1162.9253    6368.8676    11603.547    1900.3078 
  324000    299.27803   -1158.5232    6368.3895    11603.482    1895.0852 
  324100    298.47944   -1161.6662    6388.6217    11603.511    1880.1809 
  324200    300.53378   -1165.4524    6348.6068    11603.598    1887.5329 
  324300    297.51363   -1164.4413    6411.9392     11603.42    1926.7169 
  324400    299.69377    -1164.454     6365.421    11603.465      1885.13 
  324500    301.24657   -1163.0101      6330.88    11603.541    1841.5729 
  324600     299.9753   -1169.2807    6364.3755    11603.607     1827.577 
  324700    296.11883   -1170.0455    6447.5093    11603.588    1908.2969 
  324800    299.63789   -1169.7907     6372.045    11603.558    1887.4154 
  324900    299.28634   -1171.9185    6381.6915    11603.567    1890.0922 
  325000    296.29988   -1163.3474    6436.8816    11603.526    1923.2306 
  325100    300.65316   -1163.6622    6344.1637    11603.495     1888.923 
  325200     295.3772   -1162.5092    6455.7753    11603.547    1951.5245 
  325300     301.8014   -1167.3845    6323.3455    11603.485     1930.829 
  325400    298.47607   -1165.0849    6392.1484    11603.547    1855.1963 
  325500    299.38758   -1167.6663    6375.2385    11603.528     1902.761 
  325600     297.7779   -1168.3361     6410.307    11603.539    1979.8421 
  325700    299.03501   -1172.4941    6387.5716    11603.502    1889.3585 
  325800    300.14136   -1173.2982    6364.7548    11603.516    1851.3593 
  325900    298.69792   -1167.5784    6389.9085    11603.553    1936.6868 
  326000    298.62908   -1169.1055    6392.9248    11603.571     1953.745 
  326100    296.51136   -1158.3309    6427.2603     11603.44    1884.4437 
  326200    298.74908    -1156.954    6378.1697    11603.531    1900.0343 
  326300    294.64959   -1168.2766    6476.9991    11603.459    1953.0893 
  326400    301.75957   -1164.1681    6321.0434    11603.506    1824.5057 
  326500    299.57273   -1165.8152    6369.4256    11603.522     1806.872 
  326600    296.57536   -1167.0018    6434.6375    11603.513    1923.5274 
  326700    299.15838   -1168.4543    6380.8297    11603.435    1781.4258 
  326800     299.1159   -1169.1155     6382.373     11603.41    1809.0113 
  326900    296.24042   -1159.3982    6434.1467    11603.471    1857.2361 
  327000    300.44755   -1161.6056    6346.4589    11603.454    1863.2665 
  327100    301.73951   -1162.2988    6319.4746    11603.377    1884.7563 
  327200    297.08012   -1155.7732    6412.6038    11603.491    1962.0724 
  327300    296.98443   -1160.0742    6418.9514    11603.494    1984.6959 
  327400     302.0734   -1159.3086    6309.3758    11603.402    1883.8834 
  327500    298.56503   -1162.0723    6387.2214    11603.533    1989.5525 
  327600    297.61354   -1163.6448    6409.0644    11603.476    1954.9418 
  327700    298.85101   -1162.1036    6381.0651    11603.455    1859.1454 
  327800     295.5708   -1160.8891    6449.9466    11603.474    1900.7884 
  327900    299.59148   -1163.0081    6366.1585    11603.463    1910.3949 
  328000    295.08363    -1165.725    6465.2922    11603.576    1961.8055 
  328100    299.82445   -1162.1964    6360.3509    11603.444    1884.6359 
  328200    297.60791   -1161.8169    6407.3592    11603.479    1935.9194 
  328300    296.44567   -1164.5114    6434.9263    11603.522    1897.5234 
  328400    296.73679   -1163.1472    6427.3351    11603.514    1922.9162 
  328500    301.57646   -1164.8672     6325.745    11603.596    1908.8797 
  328600     296.8134   -1164.6805    6427.2704    11603.553    1941.6643 
  328700    296.84199   -1166.4881    6428.5097    11603.595     1833.351 
  328800     300.1332   -1164.7237    6356.3666    11603.528    1802.7508 
  328900    298.99738   -1174.3911    6390.3678    11603.597    1843.6019 
  329000    297.77081   -1168.2039    6410.3405    11603.553     1834.529 
  329100    298.91091   -1170.2474    6388.0264    11603.552    1812.9531 
  329200     297.7904   -1168.7772    6410.5531    11603.611    1860.3545 
  329300    297.90509    -1163.363    6402.6356    11603.558    1884.3077 
  329400     301.2894   -1162.6855    6329.6089    11603.509    1880.8037 
  329500     295.5698   -1166.7146    6455.9195      11603.6    1933.8782 
  329600    299.63029   -1166.5255    6368.9586    11603.575    1940.7784 
  329700    300.66092   -1162.8067    6343.0824    11603.435    1838.2097 
  329800     296.9303   -1159.8765    6419.9033    11603.487    1823.2094 
  329900    297.24222   -1167.3218    6420.7624    11603.565     1859.525 
  330000    297.48164   -1169.2294    6417.5778    11603.587    1907.6215 
  330100    295.30033   -1163.4248    6458.3542    11603.568    1845.7382 
  330200    298.48914    -1165.209    6391.9086    11603.462    1917.9449 
  330300    299.01925   -1166.5478    6381.8872    11603.427    1882.0189 
  330400    296.69184   -1162.9284    6428.0634    11603.501     1897.016 
  330500    299.68165   -1158.2454    6359.4835    11603.477    1876.1981 
  330600    296.11458   -1167.0733     6444.507    11603.467    1908.7294 
  330700    300.44411   -1162.9815    6347.8456    11603.391    1787.2019 
  330800    296.59211   -1161.6104    6428.8246     11603.45    1886.2825 
  330900    295.49038    -1164.814    6455.4975    11603.382    1941.1801 
  331000    297.54512   -1165.8848    6412.7364    11603.447    1820.0218 
  331100    296.68116   -1161.8261    6427.2176    11603.529    1809.7527 
  331200    298.40223   -1166.0765    6394.7146    11603.544    1813.4191 
  331300    298.95116   -1168.0801    6384.8393    11603.392    1852.8883 
  331400    300.08286   -1161.2982      6353.89    11603.402    1887.9744 
  331500    298.95215    -1170.555    6387.4605    11603.559    1968.1119 
  331600    298.77278   -1166.0309    6386.6459    11603.437    1921.1284 
  331700    302.84455   -1166.7229    6300.2906    11603.377    1797.7839 
  331800    294.74818   -1162.8933    6469.5928    11603.542    1975.2058 
  331900     301.2983   -1171.1359    6337.9031    11603.543    1925.5979 
  332000    296.23224   -1164.8993    6439.8768    11603.525     1892.391 
  332100    299.15713   -1169.8745    6382.2756    11603.434    1863.5788 
  332200    298.79411   -1170.2127    6390.4834    11603.548    1833.3104 
  332300    296.57116   -1171.8606     6439.617    11603.544    1816.8951 
  332400    300.22583   -1170.0462    6359.6215     11603.44    1891.1153 
  332500    300.05834   -1171.7424    6364.9263     11603.47    1940.0504 
  332600    298.66101   -1171.9679    6395.0019    11603.468    1881.6373 
  332700    296.35363   -1168.7335    6441.0485    11603.456    1862.2315 
  332800    296.73733   -1156.6353    6420.7334    11603.436    1907.0951 
  332900    300.29848   -1172.6027    6360.6738    11603.487    1851.6846 
  333000    298.45153   -1168.0262    6395.5225    11603.455    1802.8584 
  333100    297.61437   -1167.5359    6412.9365    11603.475    1866.0476 
  333200    298.82621   -1162.3248    6381.8166    11603.455    1802.8636 
  333300    299.47566   -1165.7342    6371.3907    11603.494    1825.9968 
  333400    297.78687     -1171.55     6413.287    11603.497    1913.8004 
  333500    300.59924   -1165.0294    6346.6031    11603.415    1931.5963 
  333600    297.53764    -1161.802    6408.8441    11603.477    1887.8703 
  333700    296.58672   -1162.3565    6429.6546    11603.418    1899.2648 
  333800    297.37434   -1158.8028    6409.2634    11603.407    1929.0507 
  333900    298.26651    -1163.787    6395.2005     11603.42    1953.0876 
  334000    301.03217   -1161.7892    6334.0792     11603.38    1908.3276 
  334100    295.61941   -1168.5029    6456.4634    11603.416    1954.3445 
  334200    299.18123   -1163.6757    6375.4461    11603.318     1861.538 
  334300    300.92548   -1165.9974    6340.5882    11603.402    1885.9881 
  334400    297.25083    -1165.981    6419.1528     11603.48    1899.5812 
  334500    299.87362    -1162.268     6359.359    11603.431    1953.3072 
  334600    295.60813   -1166.9782     6455.184     11603.42    1991.1368 
  334700    299.77353   -1168.6436    6367.9045    11603.462    1980.6892 
  334800    300.04519   -1163.6889    6357.1664    11603.482    1927.3211 
  334900    299.80665   -1169.2118    6367.8821    11603.579    1867.0746 
  335000    297.01028   -1161.8028    6420.2066    11603.573    1930.7166 
  335100    297.02047   -1167.9354    6426.1246    11603.576    1974.9967 
  335200    299.76487   -1171.1801    6370.7613    11603.598    1889.4073 
  335300     295.8801   -1171.3329    6453.8852    11603.577    1936.2965 
  335400    299.08228   -1171.9628    6386.0462    11603.517    1955.5045 
  335500    298.75436   -1171.6014    6392.7489    11603.576    1906.9405 
  335600    298.35677   -1171.5093    6401.1738    11603.599    1905.8438 
  335700    300.85975   -1166.7468    6342.8984    11603.559    1956.6145 
  335800    294.61193   -1159.2504    6468.8266    11603.508    1952.6811 
  335900    304.49036   -1167.3077     6265.923    11603.585    1849.5641 
  336000    297.65092   -1165.6722     6410.468    11603.651    1945.6301 
  336100    299.99325    -1167.467    6362.1719      11603.6    1942.4835 
  336200    297.82216   -1158.9367    6399.9046    11603.481    1940.2874 
  336300    297.54335   -1167.0621    6414.0966    11603.592    1946.5525 
  336400    300.22464   -1168.0105    6357.7174    11603.546    1923.9928 
  336500    296.57675   -1167.2667    6434.8296     11603.47    1956.1399 
  336600    299.20415   -1162.6159    6374.0239    11603.446     1943.035 
  336700    294.85751    -1158.612    6462.7992    11603.365    1911.6496 
  336800    298.74937   -1163.2975    6384.3924    11603.417    1823.7633 
  336900    301.14358   -1157.8921    6327.8009    11603.379    1826.7474 
  337000    299.58198   -1160.6006    6363.8694    11603.378     1844.766 
  337100    297.79387   -1163.7751     6405.244    11603.378     1847.522 
  337200     298.1695   -1157.5171    6391.0204    11603.437    1839.9798 
  337300    297.53913   -1159.5012    6406.4261    11603.392    1900.3195 
  337400    300.17456   -1162.5294    6353.1167    11603.356    1817.5808 
  337500    296.98996   -1161.7671    6420.4977    11603.465    1815.8888 
  337600    294.79488   -1160.8779    6466.4606    11603.423     1846.209 
  337700    295.44663   -1165.3532    6456.9178    11603.328    1883.7051 
  337800    298.84729   -1159.4678    6378.4452    11603.391    1914.3485 
  337900    296.23572   -1156.6537    6431.4246    11603.393     1903.441 
  338000    299.64129   -1161.4961    6363.5492     11603.43    1918.4783 
  338100    296.03476   -1160.1104    6439.2363    11603.454    1889.4949 
  338200    297.50626   -1167.2912    6415.0084    11603.482    1899.5869 
  338300    298.83586   -1165.2737    6384.5993    11603.495    1896.5163 
  338400    302.28976   -1168.1238    6313.6801    11603.513    1858.5232 
  338500    295.99646   -1160.4986    6440.5091    11603.521    1895.9859 
  338600    299.56889   -1165.9993    6369.7397     11603.57      1884.03 
  338700    297.13206   -1162.1149    6417.9136    11603.569    1875.2007 
  338800    299.42031   -1167.6018    6374.5338    11603.588    1889.6211 
  338900    301.56758   -1161.3405    6322.3282    11603.516    1885.5648 
  339000    297.72722   -1165.8403    6408.8253     11603.47    1905.9371 
  339100    300.46841   -1171.2018    6355.7104    11603.555    1942.0268 
  339200    296.31095   -1170.0525    6443.4779    11603.654    1952.2372 
  339300    298.71996   -1168.9552    6390.8402    11603.579    1908.1963 
  339400    299.87557   -1167.8181    6365.0311    11603.595    1901.6783 
  339500     295.8518   -1168.5114    6451.7745    11603.683    1851.6133 
  339600    301.54901   -1166.0524    6327.4818    11603.561    1881.7975 
  339700    295.26161   -1159.9531    6455.6892    11603.547    1900.4315 
  339800    300.47399   -1163.5153     6347.898    11603.548     1886.538 
  339900    299.59834   -1166.5627    6369.6609    11603.557    1927.9233 
  340000     299.4203   -1164.3193     6371.206    11603.542     1883.259 
  340100    296.47014   -1167.6872    6437.5869    11603.529    1947.3091 
  340200    297.52118   -1158.5752    6406.0763    11603.585    1943.7293 
  340300    298.69856    -1163.818    6386.0878    11603.506    1932.7135 
  340400     300.9305   -1165.2009    6339.6953    11603.413    1915.7865 
  340500    295.81819   -1166.7193    6450.4816    11603.464    1880.7527 
  340600    294.50746   -1159.6945    6471.4514    11603.457    1924.1515 
  340700    302.15344   -1166.6887    6315.0838     11603.44    1868.6921 
  340800     295.3747   -1165.6896    6458.8599    11603.397     1942.214 
  340900    298.35057   -1165.8494    6395.3604    11603.313    1890.5978 
  341000    297.98203   -1162.1287    6399.6198     11603.42    1948.8464 
  341100    299.16362   -1166.3106     6378.539      11603.4    1933.7571 
  341200    301.02661   -1166.5701    6339.0606    11603.462    1882.9745 
  341300    293.83567   -1165.3049     6491.473    11603.516    1860.6536 
  341400    301.37338   -1165.8821    6331.0049    11603.503    1795.0194 
  341500    296.28354   -1166.9751    6440.7742    11603.442    1906.9464 
  341600    299.93967   -1165.9863    6361.7339    11603.499    1928.1653 
  341700    297.36561   -1172.3307    6423.1211     11603.55    1922.7047 
  341800    300.06754   -1163.2613    6356.2998    11603.521    1917.3621 
  341900    299.36899   -1165.9202    6373.9114     11603.55    1933.4108 
  342000    299.14397   -1165.5947     6378.422    11603.579    1941.9185 
  342100    298.75206   -1165.6027    6386.8456    11603.622    1900.5345 
  342200    298.97932   -1162.0245    6378.3003     11603.51    1855.9085 
  342300    299.85963   -1167.0334    6364.5307    11603.538    1898.0071 
  342400    296.69809   -1170.0065    6435.1198    11603.613    1939.9071 
  342500    299.16183   -1167.2646    6379.7519    11603.621    1932.4406 
  342600     296.8253    -1169.459    6431.7215     11603.48    1928.5894 
  342700    297.94605   -1168.9006    6407.2819    11603.541     1924.203 
  342800    297.87861   -1165.2098    6405.0533    11603.563    1887.5522 
  342900    299.69469   -1165.3578    6366.2727    11603.432    1870.2892 
  343000    296.27668   -1164.2416    6438.2237    11603.479    1949.5844 
  343100     301.5083   -1157.0137    6319.1749    11603.423    1893.7009 
  343200    293.55175   -1162.0304    6494.2099    11603.462    1949.1114 
  343300    300.95725   -1163.6114    6337.6141    11603.493    1896.8223 
  343400    296.86204   -1163.3218    6424.7447    11603.425    1850.3636 
  343500    298.71724   -1162.5942    6384.5041    11603.545    1867.8805 
  343600    299.75173   -1171.5123    6371.2128    11603.436    1874.1375 
  343700    292.94878   -1162.9464    6508.0275    11603.482    1883.0691 
  343800    299.36716   -1162.6357    6370.6108    11603.495    1809.1329 
  343900    299.53241    -1161.542    6365.9177    11603.426    1800.1598 
  344000    294.65796   -1161.9716    6470.4391    11603.383    1903.2234 
  344100    300.70465     -1157.16    6336.4267     11603.36    1917.4763 
  344200    300.66143   -1156.0765    6336.2535    11603.347    1911.0632 
  344300    299.73807   -1157.6719    6357.6189    11603.391    1851.3341 
  344400    297.80962    -1163.739    6405.0679    11603.574    1898.2227 
  344500    297.44195   -1164.2514    6413.4234    11603.563     1879.602 
  344600    296.57377   -1171.7117    6439.4752    11603.607    1869.9068 
  344700    301.45694   -1176.3802     6339.734    11603.519    1855.5226 
  344800    296.52598    -1168.094     6436.838    11603.567    1903.4201 
  344900    295.39676   -1165.1839    6458.0601    11603.575    1888.6802 
  345000    298.29736   -1165.4421    6396.3194    11603.543    1925.4235 
  345100    297.62822   -1160.5727    6405.6979    11603.495    1932.3185 
  345200    296.94785   -1162.6768    6422.3414      11603.5    1967.6734 
  345300    300.04665    -1162.463    6355.9481    11603.521    1910.7745 
  345400    299.48927   -1161.0709    6366.5528    11603.611    1884.1689 
  345500    297.86254   -1169.8581    6410.0388    11603.557    1926.9096 
  345600    299.31765   -1167.4234    6376.5901    11603.629    1896.9283 
  345700    300.01975   -1169.1609    6363.3219    11603.623    1868.3256 
  345800    295.01675   -1163.1838    6464.1721    11603.569    1942.6318 
  345900    295.33245   -1161.1348    6455.3617    11603.551    1909.8422 
  346000    301.37795   -1166.2799    6331.2929     11603.49      1857.14 
  346100    298.18972   -1160.2864    6393.3249    11603.404    1873.0188 
  346200    296.49206   -1162.6904    6431.9561    11603.364    1903.4622 
  346300    296.87433   -1161.0733    6422.3207    11603.512    1891.2351 
  346400    299.55615   -1163.7129    6367.5963    11603.441    1892.1278 
  346500    299.22905    -1160.022    6370.9087    11603.456    1908.8365 
  346600     295.0708   -1164.0651    6463.7951    11603.465    1858.1975 
  346700    299.32474   -1168.7315    6377.5769    11603.459    1880.2791 
  346800    297.67378   -1165.0947    6409.2125    11603.461    1886.6312 
  346900    296.00667   -1167.1159    6446.7837    11603.396    1845.8901 
  347000    299.33553   -1160.7709    6369.3289    11603.402     1855.164 
  347100    300.97159   -1160.6328    6334.1151    11603.279    1834.1457 
  347200    295.94252   -1156.6344    6437.6415    11603.365    1831.7616 
  347300    298.94126   -1157.3547    6374.2046    11603.271      1924.74 
  347400    301.02686   -1164.6739    6337.1434    11603.446    1949.4698 
  347500    301.65692   -1166.3792    6325.3331    11603.391    1913.7324 
  347600    299.03587   -1168.9017    6383.9251    11603.466    1897.1388 
  347700    296.82076   -1170.0374      6432.39    11603.473    1859.7568 
  347800    300.36343    -1176.438    6363.2753    11603.641    1884.1846 
  347900    302.11664   -1167.4879    6316.8202    11603.591     1889.545 
  348000    296.41828   -1167.0115    6437.9934    11603.504    1897.9633 
  348100     298.0316   -1161.6445    6398.1639    11603.507     1858.733 
  348200    299.91232   -1161.3707    6357.7734    11603.569    1848.3486 
  348300    300.05313   -1163.0422    6356.3697    11603.502    1887.7812 
  348400    298.05666   -1160.4407    6396.4947    11603.577    1881.0177 
  348500    294.56359   -1169.8677    6480.6634    11603.695    1915.5407 
  348600    298.88179   -1176.3362     6394.926    11603.741    1827.3037 
  348700    300.46612   -1175.4285    6360.0757    11603.645     1788.617 
  348800     293.6593    -1172.676     6502.698    11603.602    1864.8362 
  348900    301.83098      -1167.6     6323.053    11603.609    1870.6079 
  349000    301.23014    -1159.982     6328.154    11603.492    1845.7168 
  349100    301.35015   -1166.0481    6331.5671    11603.403    1859.9018 
  349200    300.18109   -1161.1418    6351.5987    11603.365    1871.3916 
  349300    299.49832    -1160.976    6366.0686    11603.415    1895.4134 
  349400    296.76368    -1160.449    6423.9662    11603.418    1860.6097 
  349500     299.3908    -1166.498    6373.9757    11603.503    1834.7696 
  349600    297.82375   -1166.0275    6406.9176    11603.438    1841.2182 
  349700    300.05229   -1171.1245    6364.5212    11603.554    1857.6191 
  349800    296.09902   -1165.5092    6443.2282     11603.42    1901.4109 
  349900    298.11615   -1164.5839    6399.2036    11603.414    1796.1033 
  350000    299.34992   -1166.4839    6374.7416    11603.409     1853.956 
  350100    296.46624    -1152.029    6421.9116    11603.429    1942.8146 
  350200    297.81077   -1158.7459    6399.7802    11603.304    1932.5596 
  350300    299.51818   -1161.5332    6366.1916    11603.405    1924.2218 
  350400    300.01347   -1159.9232    6353.9967    11603.401    1894.4377 
  350500    297.51551    -1163.992    6411.4998     11603.47    1880.0478 
  350600    299.56887   -1159.1816    6362.8302    11603.478    1859.8738 
  350700    300.00314   -1164.7068    6359.1682    11603.568    1871.0826 
  350800    298.69724   -1167.7962    6390.1167    11603.529    1897.2301 
  350900    300.00055   -1168.3373    6362.8133    11603.527    1878.4512 
  351000    298.92839   -1167.7218    6385.0551     11603.48    1925.8572 
  351100    297.47984   -1168.7236    6417.1071    11603.584      1911.89 
  351200    298.78394    -1159.108    6379.5839    11603.536    1856.3709 
  351300    299.47902   -1165.6859    6371.3589    11603.583    1956.9757 
  351400    298.77558   -1165.9252    6386.7152    11603.672    1962.4649 
  351500    298.44079   -1169.9324    6397.7875    11603.585     1917.364 
  351600    298.55113   -1166.4975    6391.9824    11603.572    1882.9723 
  351700    296.60093   -1164.2601    6431.4284    11603.592    1904.1404 
  351800    299.04809   -1172.0439    6386.9511    11603.611     1892.471 
  351900     299.8511   -1166.8883    6364.5574    11603.528    1838.8577 
  352000    298.93584   -1166.2142    6383.4216    11603.513    1868.1658 
  352100    297.67591   -1166.2073    6410.4291    11603.611    1975.5699 
  352200    299.42479   -1162.1616    6368.9501     11603.54    1956.6862 
  352300    298.21531    -1157.836    6390.3855    11603.462    1950.6651 
  352400    298.56588    -1166.765    6391.9293    11603.566    1939.9068 
  352500    297.49387   -1167.7486    6415.8899    11603.641    1926.4036 
  352600    297.62944   -1160.1905    6405.3419    11603.548    1892.7198 
  352700    298.73912   -1163.8012    6385.0577    11603.359    1832.9852 
  352800    297.63302   -1165.0395    6409.9445    11603.378    1905.2324 
  352900     296.9663    -1161.239     6420.513    11603.504    1887.5015 
  353000    301.30751   -1163.7184    6330.1447    11603.399    1844.2125 
  353100    297.43045   -1161.9862    6411.2102    11603.369    1890.5998 
  353200    302.05803   -1163.2767    6313.7665    11603.496    1855.6303 
  353300    298.02999   -1159.6331    6396.0968    11603.417    1887.3832 
  353400    296.24533    -1157.528    6432.1181    11603.417    1933.1825 
  353500    300.17923   -1160.4765    6351.0194    11603.412    1915.4938 
  353600    295.38851    -1168.014    6460.9786    11603.487    1920.1698 
  353700    297.87016   -1170.5622    6410.5119    11603.489    1921.4534 
  353800    299.86111   -1166.8601    6364.2754    11603.488     1968.328 
  353900    299.52986   -1165.2965    6369.8455    11603.545    1958.5732 
  354000    298.05787   -1166.3203    6402.3049    11603.534    1911.5208 
  354100    299.00755   -1167.5647    6383.3025    11603.575      1939.14 
  354200    298.81224   -1164.3149    6384.3037    11603.654    1965.2121 
  354300    298.01402   -1167.0643    6404.0716     11603.62    1863.4042 
  354400    298.94305    -1165.398    6382.5677    11603.629    1968.6674 
  354500    298.84124   -1165.8715    6385.1653    11603.578    1959.1238 
  354600    301.14405   -1171.4535    6341.6115    11603.639    1847.6793 
  354700    296.80755   -1172.4706    6435.3478    11603.715    1909.7415 
  354800    296.95347    -1176.606    6436.3619    11603.711    1910.9168 
  354900     299.6614   -1171.6408    6373.4551     11603.62     1913.963 
  355000    300.32809   -1165.2071     6352.779    11603.621    1933.3837 
  355100    299.94484   -1171.4207    6367.2042    11603.645    1935.2603 
  355200    295.43017   -1165.0432    6457.1898    11603.559    1922.4284 
  355300    298.05451   -1169.8961    6405.9336    11603.515    1930.3607 
  355400    303.21897     -1170.23    6295.8738    11603.452    1911.1419 
  355500    294.12481    -1168.061     6488.019    11603.483     1935.534 
  355600    298.58734   -1162.5935    6387.1979    11603.465    1874.3233 
  355700    296.81518   -1168.7884    6431.3224    11603.535     1933.706 
  355800    299.21636   -1166.1019    6377.2736     11603.47    1913.3717 
  355900    299.96369   -1164.3438    6359.5418    11603.462    1944.3465 
  356000    298.39176   -1162.0869    6390.8976    11603.493    1929.7932 
  356100    296.93821   -1159.0792    6418.8991    11603.449    1944.5841 
  356200    301.30401   -1159.7867    6326.2395    11603.351    1894.9132 
  356300    298.20669   -1157.0456    6389.7618    11603.445    1915.6096 
  356400    293.76414   -1160.1631    6487.7286    11603.386    1937.8486 
  356500     299.4202   -1160.2421    6366.9893      11603.4    1915.2697 
  356600    299.97848   -1159.4797    6354.2539    11603.354    1938.7199 
  356700    297.80714   -1162.6854    6403.8732     11603.38    1930.5122 
  356800    295.63677   -1163.7367    6451.3188    11603.408    1894.4092 
  356900      297.833   -1167.6865    6408.3644    11603.423    1870.1785 
  357000    303.22687   -1162.5774    6288.0996    11603.499    1878.3391 
  357100    293.77962   -1161.3345    6488.5486    11603.365    1933.7419 
  357200    296.42201   -1166.4663    6437.2334    11603.368    1928.0002 
  357300    297.11743   -1159.7671    6415.7295     11603.42    1959.5404 
  357400    299.53073   -1162.6013    6367.0788    11603.492     1966.929 
  357500    302.87993   -1164.6031    6297.5601    11603.522    1878.2966 
  357600    297.87669     -1163.86    6403.7076    11603.526     1925.107 
  357700    298.70019   -1163.8073    6386.0584    11603.522    1892.8873 
  357800    296.02758   -1169.6326    6449.0402    11603.583    1881.5043 
  357900    297.46258   -1171.2586    6420.0475    11603.621    1906.4144 
  358000    298.75649   -1172.0209    6393.1625    11603.616    1938.6028 
  358100    295.41047   -1170.7036    6463.3791    11603.667    1951.4568 
  358200    299.30553   -1171.7247    6381.2061    11603.685    1878.6937 
  358300    296.31741   -1168.0018    6441.3391    11603.704    1929.1863 
  358400    299.48392   -1170.4385    6375.9963    11603.572     1920.875 
  358500    299.95578   -1162.9641    6358.3591     11603.49    1876.3954 
  358600    300.19738   -1161.0827    6351.4972    11603.671    1845.4383 
  358700    298.00479   -1159.2957    6396.4338    11603.553    1843.8847 
  358800    299.81618   -1168.0425    6366.4742    11603.544    1852.0461 
  358900    300.55339   -1165.2658    6347.9733    11603.569    1886.1264 
  359000    297.10783   -1165.2906    6421.6061    11603.569    1807.2841 
  359100    294.90679   -1171.3611    6474.6051    11603.475    1849.3138 
  359200    299.90546   -1163.2729    6359.8105    11603.558    1893.8376 
  359300    298.50595   -1165.4835    6391.8137    11603.452     1954.366 
  359400    298.69118   -1160.2308    6382.5364    11603.384    1940.6919 
  359500    295.21139    -1159.927    6456.5961    11603.407    1950.0731 
  359600    298.47947   -1158.2825    6385.1511    11603.424    1919.6949 
  359700    297.67304   -1159.1403    6403.1965    11603.384    1967.8283 
  359800    298.13968   -1159.7272    6393.7911    11603.361    1935.7699 
  359900      296.894    -1160.634    6421.3705    11603.421    1887.0748 
  360000    299.60881     -1158.62    6361.3186    11603.381    1862.5534 
  360100    299.21489   -1159.9427     6370.985    11603.309    1852.6413 
  360200     297.5566   -1161.0589    6407.6055    11603.387     1883.701 
  360300    297.48896   -1158.6574    6406.6693    11603.407    1838.5227 
  360400    298.18232    -1157.068    6390.3293    11603.469    1890.7181 
  360500    298.70514   -1162.2814    6384.4027    11603.498    1942.7765 
  360600    297.99594    -1162.155    6399.3304    11603.401    1917.0499 
  360700    301.09647   -1164.5633    6335.5777    11603.479    1928.5267 
  360800    301.26968   -1167.5164    6334.8242    11603.472    1845.1813 
  360900     292.4718   -1162.0009    6517.3727    11603.583    1825.0412 
  361000    299.82088   -1164.6629    6362.9309    11603.481    1879.2257 
  361100    302.35191   -1167.9285     6312.118    11603.474    1896.7799 
  361200    296.60063   -1164.4297    6431.4528     11603.44    1907.8087 
  361300    299.01111   -1167.8932    6383.5186    11603.539    1895.0644 
  361400    296.80211   -1161.3421     6424.165    11603.545    1898.4566 
  361500    297.24833    -1162.482    6415.7568    11603.529    1879.2371 
  361600    297.82837   -1168.8174    6409.7246    11603.553    1913.4547 
  361700    298.88047   -1175.2713    6393.7633    11603.615    1893.1994 
  361800    300.84832   -1173.8093    6350.1821    11603.536    1915.6717 
  361900    297.99092   -1167.7921    6405.2704    11603.597     1884.593 
  362000    297.35087   -1167.0541    6418.2149    11603.606    1891.5865 
  362100     299.8862   -1162.2315    6359.1387    11603.516    1955.3561 
  362200    297.04713   -1164.6544    6422.1725    11603.474    1968.9368 
  362300    299.95055    -1162.597    6358.1231    11603.509    1950.2761 
  362400    299.57755    -1162.443    6365.9268    11603.499    1906.2217 
  362500    296.91134   -1169.6818    6430.1304    11603.504    1923.4492 
  362600    295.25225    -1156.431    6452.3221    11603.502    1990.8281 
  362700    300.18106   -1162.5378    6353.0548    11603.425    1953.1895 
  362800    297.01837   -1169.2028    6427.3004    11603.439    1922.8441 
  362900    298.44834   -1166.1294    6393.6712    11603.433    1912.7463 
  363000      299.556   -1159.2047    6362.9683    11603.318    1863.1579 
  363100    295.17998   -1161.6018    6458.9327    11603.398    1897.0125 
  363200     297.1386   -1162.7827    6418.1896    11603.317    1862.8149 
  363300    296.93583   -1161.1595    6420.9221    11603.341    1883.6981 
  363400    299.67967   -1161.4394    6362.5523    11603.309    1838.7157 
  363500    296.60968   -1161.6121     6428.383    11603.382    1849.0338 
  363600    296.65028   -1167.1359    6433.0172    11603.359    1939.4589 
  363700    301.64018   -1167.0375    6326.3746    11603.417    1893.6551 
  363800    295.31253    -1160.704    6455.1942    11603.389    1911.1437 
  363900    299.81354   -1163.0312     6361.352    11603.377    1916.9818 
  364000    299.74527   -1166.7111    6366.5798    11603.466     1934.426 
  364100    299.23312   -1166.1824    6377.0329    11603.507    1880.7447 
  364200    299.92732   -1164.9625    6360.9373    11603.462    1839.1315 
  364300    299.77529   -1161.7479    6361.0412    11603.532    1878.3428 
  364400     300.5415   -1166.9388     6349.921     11603.59    1914.7039 
  364500    298.09288   -1169.4306    6404.7849    11603.651    1955.1123 
  364600     302.0587   -1168.8461      6319.47    11603.644    1891.6276 
  364700    297.14917   -1165.5483    6421.0504    11603.638     1889.448 
  364800    299.88081   -1164.6875    6361.8711    11603.677    1838.1398 
  364900    298.75517   -1167.2932    6388.4965    11603.649    1865.3789 
  365000    298.41805   -1168.5411    6396.8891    11603.592    1903.7112 
  365100    301.05327    -1166.138    6338.1996    11603.603    1890.9529 
  365200    297.09281   -1166.6755    6423.3216    11603.578    1897.9006 
  365300     300.4606   -1169.9866    6354.6037    11603.497     1847.535 
  365400     296.9829   -1163.6787    6422.5873    11603.493     1899.187 
  365500    298.16676   -1171.0469    6404.6936    11603.522    1826.4752 
  365600    297.70465    -1166.843    6410.4141    11603.574    1814.1341 
  365700    300.56734   -1164.8692    6347.1967    11603.487    1893.7646 
  365800       298.07   -1166.1029    6401.6541    11603.359     1863.059 
  365900    298.83268   -1161.9226    6381.2045    11603.384    1861.0225 
  366000    297.31505   -1157.4074    6409.1731    11603.445    1949.8747 
  366100     296.4586    -1158.643    6428.6111    11603.351    1958.7511 
  366200    300.68028   -1156.1838    6335.9692    11603.358    1946.2972 
  366300    297.95636   -1164.5782      6402.56    11603.362    1953.4019 
  366400    296.42936   -1165.3663    6436.0627    11603.455    1895.2547 
  366500    294.91181   -1165.2651    6468.3737    11603.447    1822.4315 
  366600     298.9815   -1164.9956    6381.1096    11603.395    1863.4614 
  366700     298.0692   -1165.4117    6400.9592    11603.339    1873.6719 
  366800    298.15576   -1161.0576    6394.8294    11603.412    1878.7573 
  366900    300.61202   -1155.8276    6337.1731     11603.46    1832.4466 
  367000    297.44583   -1159.4472    6408.4285    11603.455    1816.3736 
  367100    300.43407   -1161.9502    6347.1753    11603.538    1872.0223 
  367200    296.71706    -1163.806    6428.4175    11603.516    1903.1638 
  367300    299.54199   -1162.9315    6367.1999    11603.523    1866.2954 
  367400       296.47    -1163.634    6433.5876     11603.58     1835.753 
  367500    296.71249   -1162.2525    6427.0155     11603.57    1868.1058 
  367600    301.24124   -1165.7294    6333.7745    11603.602    1879.9222 
  367700    298.33348   -1165.7609    6395.8295    11603.506    1882.8687 
  367800    295.89739   -1170.1469     6452.306    11603.553    1942.5201 
  367900    299.93576   -1173.5967    6369.4912    11603.562    1911.1912 
  368000    299.09693   -1165.7277    6379.5921    11603.611    1938.2987 
  368100    298.23855   -1170.5709    6402.6573    11603.495    1953.4637 
  368200    300.01084   -1168.0999    6362.4202    11603.591    1900.8585 
  368300    296.64887    -1165.819    6431.9843    11603.613    1913.3444 
  368400    297.67677   -1167.3683    6411.5689    11603.608    1939.1152 
  368500    302.71406   -1162.4171     6298.921    11603.525    1912.7319 
  368600    296.74327   -1169.6166    6433.7296    11603.578    1928.5154 
  368700    299.88131     -1158.61    6355.7055      11603.6    1889.3409 
  368800    298.77883   -1168.1623    6388.7164    11603.505    1891.1408 
  368900    299.05658   -1163.4695     6378.092    11603.507    1851.9134 
  369000    298.82023   -1165.9765    6385.6611     11603.52    1867.2818 
  369100    297.91616   -1163.5014    6402.4387    11603.459    1912.2963 
  369200    301.21715   -1167.1718    6335.5675    11603.438    1847.6135 
  369300    301.23553   -1167.0943    6335.0861    11603.427    1809.4511 
  369400    294.50958   -1162.2313     6474.001    11603.515    1935.6647 
  369500    297.76138   -1163.6837     6405.856    11603.387    1906.1618 
  369600    299.49996   -1157.6401    6362.6573    11603.374     1841.367 
  369700    298.46618   -1160.7735    6387.9799    11603.478    1896.3001 
  369800    295.36042   -1161.0931    6454.6387    11603.468    1932.7217 
  369900    301.96962   -1160.5155    6312.8886    11603.491    1857.3195 
  370000    297.93892   -1154.8713    6393.3426    11603.479    1883.5671 
  370100    297.08871    -1162.035    6418.7013    11603.511    1862.4716 
  370200    297.85593   -1158.6617    6398.8266      11603.4    1871.9863 
  370300    296.26653    -1164.754    6438.9081    11603.434    1898.7641 
  370400    299.38399   -1161.5764    6369.2171     11603.52    1885.9895 
  370500    294.28347   -1164.6746    6481.2815    11603.522    1969.1574 
  370600    299.76555   -1163.3587    6362.8742    11603.547    1932.0623 
  370700    297.88448   -1160.6829     6400.416    11603.578    1953.1712 
  370800    300.13566   -1167.9518    6359.5805    11603.567    1990.4644 
  370900    296.06887   -1166.0893    6444.6101    11603.578    1945.7166 
  371000    298.75954   -1163.3434    6384.3812    11603.577    1913.8711 
  371100      298.396   -1169.0231    6397.7711    11603.521    1943.1438 
  371200    298.50129   -1167.2215    6393.7892     11603.59    1893.7468 
  371300    298.11247   -1162.9608    6397.8799    11603.635    1889.3659 
  371400    299.46183   -1168.1851    6374.1329     11603.49    1826.8077 
  371500    296.88126   -1168.6694    6429.8419    11603.585    1847.9057 
  371600     300.5751   -1171.1921    6353.3577    11603.491     1893.356 
  371700    298.22488   -1171.2807    6403.7018    11603.538    1961.7822 
  371800     298.2357   -1166.5156    6398.8098    11603.642    1922.6046 
  371900    296.53286   -1167.6937    6436.3101    11603.586    1937.7804 
  372000    301.71578   -1167.4075    6325.2894    11603.577    1951.0958 
  372100    297.71949    -1166.782    6409.9892    11603.527    1881.8242 
  372200    299.97152    -1164.193    6359.3228    11603.561    1836.2567 
  372300    300.70934   -1165.3394    6344.6759     11603.53    1838.5787 
  372400    297.75174   -1168.7412     6411.274    11603.542    1891.5252 
  372500    296.14591   -1166.1806    6443.0103    11603.533    1880.0755 
  372600    299.32212   -1167.5662    6376.5104    11603.502    1875.9568 
  372700    302.84608   -1162.2024    6295.9064    11603.546    1902.1745 
  372800    295.99861   -1165.6656    6445.6126    11603.503    1914.0427 
  372900    299.55476   -1169.3231      6373.25    11603.455    1898.7889 
  373000     296.4201   -1164.8665    6435.7149    11603.409    1898.6385 
  373100     299.0739   -1157.0098    6371.2018    11603.447    1836.3566 
  373200    299.75357   -1161.5023    6361.0577    11603.331    1832.9324 
  373300    296.24399   -1159.1417     6433.866    11603.523    1848.2386 
  373400    297.78518   -1165.2069    6406.9566    11603.473    1900.0663 
  373500    298.73873    -1159.866    6381.1594    11603.388    1915.5378 
  373600    299.27553   -1163.2373    6373.0984    11603.424    1896.1893 
  373700    294.39778      -1165.2    6479.3145    11603.472    1862.6363 
  373800    299.86479   -1165.0597     6362.331    11603.422    1888.2123 
  373900      300.169   -1164.1654    6354.9547    11603.439    1905.7702 
  374000    298.27638   -1155.9582    6387.0996    11603.359    1876.8663 
  374100    298.97014   -1159.3049    6375.6744    11603.408    1870.4166 
  374200    298.47838   -1157.1953    6384.0335    11603.371    1909.9507 
  374300    295.89926   -1164.3809    6446.2803    11603.333    1887.3702 
  374400    295.33101   -1166.3013    6460.4862    11603.479    1861.8052 
  374500    298.73011   -1166.0777    6387.7132    11603.546    1852.8681 
  374600    300.97106   -1168.7419    6342.4423    11603.485    1886.9558 
  374700    297.98918   -1165.0526    6402.4977    11603.527    1915.2602 
  374800    295.97293   -1167.0418    6447.5455    11603.511    1998.5454 
  374900    303.56838   -1163.3945    6281.5992    11603.477    1899.3411 
  375000    294.61267   -1158.5857    6468.1868    11603.549    1941.7524 
  375100    298.02695   -1154.2593    6390.8567    11603.486    1879.6725 
  375200    297.15783   -1164.4819    6419.7079    11603.547    1892.4842 
  375300    300.06983   -1168.0345    6361.0561    11603.553    1844.7872 
  375400    299.17034   -1169.6639    6381.9021    11603.554    1879.8261 
  375500    297.85913   -1167.1402    6407.3734    11603.536    1888.1696 
  375600    295.65438   -1165.1573    6452.5337    11603.579    1878.0031 
  375700    302.37726   -1163.9243      6307.63    11603.532    1806.8336 
  375800    296.12494   -1163.8195    6441.1045     11603.54    1894.2479 
  375900    302.03403   -1155.0311    6305.9953    11603.458    1897.4054 
  376000    300.49027   -1161.9797    6345.9212    11603.455    1910.8024 
  376100    299.20961   -1160.2988    6371.5818    11603.437     1917.684 
  376200    298.56872   -1161.3228    6386.3117    11603.452    1896.5875 
  376300    295.17534   -1164.6033    6462.0439    11603.409    1839.6278 
  376400     298.0757   -1169.1515    6404.7574    11603.536    1853.1027 
  376500    298.99705   -1169.1306    6384.9202    11603.403    1899.3984 
  376600    300.28297   -1163.4708    6351.8694    11603.483    1875.3482 
  376700    298.09778   -1159.0994    6394.0898    11603.392     1830.209 
  376800    296.95978   -1161.2718    6420.5988    11603.417    1915.4203 
  376900    297.89803   -1160.4024    6399.6017    11603.334     1910.674 
  377000    302.31546   -1160.2041    6305.0685     11603.37    1888.4302 
  377100    297.51354   -1160.2208     6407.661    11603.361    1974.8659 
  377200    295.54938   -1161.5951    6450.9911    11603.355    1939.5643 
  377300    302.17766    -1164.288    6311.9922    11603.266    1878.2398 
  377400    299.70309   -1169.6996    6370.4615    11603.459    1885.3765 
  377500    297.93515   -1163.0513    6401.5869    11603.463    1881.2606 
  377600    301.45507   -1167.3965    6330.6628    11603.391     1827.359 
  377700    298.76236   -1163.1066    6383.9392    11603.432     1928.597 
  377800    298.52083   -1160.1606    6386.1532    11603.432    1888.6143 
  377900    297.14371   -1163.9376    6419.3453    11603.427    1892.6039 
  378000    301.45918   -1161.9826     6325.147    11603.377    1924.7798 
  378100     299.6459   -1161.6849    6363.7099      11603.5     1937.415 
  378200    297.11883   -1166.2407    6422.1699    11603.417    1897.3557 
  378300    298.90019    -1165.548    6383.4377    11603.434    1879.3619 
  378400    299.81341   -1164.4259    6362.8727      11603.5    1866.0633 
  378500    295.71194   -1166.4089    6452.4926    11603.516    1901.1976 
  378600    299.67443   -1168.5255    6369.9151    11603.474    1915.5364 
  378700     299.0972   -1160.1773    6373.9555    11603.531    1962.8908 
  378800    298.35258    -1157.943    6387.5624    11603.465    1897.1829 
  378900     298.9413   -1162.6328    6379.6476    11603.437    1903.1896 
  379000    296.85214    -1158.123    6419.7552    11603.423    1933.8545 
  379100    300.26394   -1163.7923    6352.5176    11603.404    1972.2316 
  379200    298.98566   -1163.7328    6379.8184    11603.455    1984.1937 
  379300    298.00268   -1167.9169    6405.0957    11603.549    1925.2988 
  379400    295.52252   -1164.4675    6454.5182    11603.436    1908.5344 
  379500    298.29063    -1166.855    6397.8212    11603.488    1951.1823 
  379600    300.65805   -1162.4935    6342.8399    11603.444     1903.755 
  379700    298.50179   -1157.0064    6383.4045    11603.431    1853.5893 
  379800    298.95568   -1160.5131    6377.2469    11603.463    1896.5968 
  379900      298.415   -1157.4013    6385.5986    11603.376    1884.6223 
  380000    300.03839   -1163.4898    6357.0709    11603.441    1911.6445 
  380100    299.02294   -1166.9127    6382.1637    11603.417    1985.4561 
  380200    297.96626   -1166.0974    6403.9635    11603.458    1966.0097 
  380300    296.98214   -1169.3712    6428.3096    11603.506    1953.6628 
  380400    297.40385   -1170.0343    6419.9576      11603.5    1959.9897 
  380500    297.21343    -1169.245    6423.2099    11603.474    1967.5631 
  380600    299.24613   -1162.0217    6372.4933    11603.406    1907.5352 
  380700    293.98528   -1159.6132    6482.5799    11603.511    1959.6799 
  380800    298.18584   -1160.3301    6393.5515    11603.504     1905.354 
  380900    302.24789    -1166.624    6313.0156    11603.454      1887.52 
  381000    298.89395   -1163.8726    6381.9426    11603.481    1948.7735 
  381100    298.86663   -1167.1189    6385.8185    11603.526    1907.1584 
  381200    299.73444   -1170.3855     6370.578    11603.559     1900.907 
  381300    299.25694   -1165.6073     6376.006    11603.564    1890.1377 
  381400     295.0974   -1168.3685    6467.6989    11603.634    1897.1464 
  381500    299.33055   -1163.7001    6372.5032    11603.541    1892.1831 
  381600    302.35449    -1163.264    6307.4229    11603.499      1911.67 
  381700    295.07832   -1167.9799    6467.6042     11603.52    1978.1643 
  381800    299.52716   -1166.6607    6371.2598    11603.537    1981.8209 
  381900    297.46168   -1160.4228    6409.1365    11603.526    1978.8725 
  382000    301.49411   -1165.6038    6328.0934    11603.449    1916.4581 
  382100    296.47396   -1162.2675    6431.9988    11603.443    1945.8382 
  382200    298.59636   -1164.8881     6389.227    11603.392    1922.6265 
  382300    298.06324   -1165.1274    6400.8953    11603.432     1913.884 
  382400    299.74891   -1166.7396    6366.5864    11603.522    1918.6518 
  382500     296.3907   -1169.6753     6441.197    11603.454    1882.1311 
  382600    296.73926   -1169.3663    6433.3924    11603.405    1897.3731 
  382700    297.21083   -1160.1086    6414.0855     11603.43    1936.1733 
  382800    299.96409   -1161.5352    6356.6807    11603.418      1894.66 
  382900    299.21492    -1159.976    6371.2029    11603.495    1931.3091 
  383000    301.06045   -1159.7105    6331.4953    11603.479    1940.4811 
  383100    299.07294   -1161.7298    6375.9295    11603.434    1904.5201 
  383200    297.26947   -1162.7298    6415.4186    11603.395    1931.2226 
  383300    300.73722   -1159.9845    6338.7027    11603.507    1930.2246 
  383400    298.90468   -1161.2514     6379.073    11603.462    1885.1736 
  383500    296.99305   -1165.0993    6423.8022    11603.504    1886.1886 
  383600    296.15137    -1170.052    6446.8122     11603.58    1896.8184 
  383700    297.34347   -1164.7348    6415.9517    11603.504    1894.6241 
  383800     300.3326   -1163.4528    6350.7333    11603.426    1896.7255 
  383900    297.75675   -1157.0847    6399.3176    11603.349    1885.2346 
  384000    294.51817   -1159.5293    6470.9868    11603.386    1888.7455 
  384100    299.30316    -1157.578     6366.846    11603.421    1889.1197 
  384200    300.07204   -1159.2941    6352.2119    11603.496    1955.8065 
  384300    300.45736   -1167.3975    6352.1175    11603.531    1899.7906 
  384400    293.36505    -1165.234    6501.4628    11603.523    1910.3061 
  384500    299.44422   -1170.0684     6376.447    11603.545    1937.5745 
  384600    297.48738   -1173.5771    6421.7232    11603.508    1994.7551 
  384700    299.17428   -1167.9889     6379.977    11603.388    1843.1008 
  384800    295.73202    -1162.872     6448.469    11603.458    1894.6466 
  384900    300.87901   -1165.0831    6340.7283    11603.463    1930.0903 
  385000    297.02605   -1156.6545    6414.6261    11603.477     1902.697 
  385100    298.13343   -1158.8285    6393.0318    11603.367    1952.2976 
  385200    295.79311   -1166.6756    6450.9991    11603.489    1991.3677 
  385300    301.79631   -1164.6952    6320.8039    11603.524    1939.0493 
  385400    297.88609   -1169.0873     6408.811    11603.603    1927.5045 
  385500    299.82863   -1170.3725    6368.5775    11603.584    1844.5601 
  385600     297.8097   -1164.3817    6405.6479    11603.514    1862.6168 
  385700    297.31985   -1167.8465    6419.6212    11603.557    1944.3653 
  385800    296.60563   -1166.0656    6433.0002    11603.459    1958.8696 
  385900    299.48802   -1158.7719     6364.062    11603.392    1938.5001 
  386000    299.87215   -1165.7672    6362.9804    11603.522    1894.3838 
  386100    296.54539   -1161.8457    6430.1036    11603.495    1930.0827 
  386200    298.03029   -1161.7454    6398.2839    11603.498    1894.9957 
  386300    302.18265    -1168.367    6316.1522    11603.454    1898.2709 
  386400    295.46549    -1172.725    6464.1091    11603.551    1979.0056 
  386500    297.36073   -1165.3944    6416.2632    11603.525    1865.5474 
  386600    298.30318   -1164.8985    6395.6207    11603.512    1917.4386 
  386700    301.21479   -1168.8067      6337.27    11603.455    1955.9794 
  386800    297.28101   -1157.2915    6409.7125    11603.374    1937.8355 
  386900    299.60058   -1159.5444    6362.4102    11603.372    1867.2499 
  387000     297.6416   -1158.6662    6403.4616    11603.451    1923.8706 
  387100    299.49607   -1167.5843    6372.8121    11603.502    1899.8423 
  387200    297.25321   -1170.8164    6423.8567    11603.399    1814.4407 
  387300    297.83806   -1172.3328    6412.9321    11603.453    1815.5668 
  387400    299.64221    -1172.108    6374.2257    11603.514    1871.5491 
  387500     296.5707    -1164.324    6432.0205    11603.474    1919.5659 
  387600    298.40663   -1164.5485    6393.0112    11603.462    1900.3363 
  387700    300.47926   -1163.6146    6347.7995    11603.463    1917.4806 
  387800    299.47658   -1161.0996    6366.6877    11603.446    1976.5236 
  387900    298.40173   -1160.8675     6389.436    11603.464    1963.4394 
  388000    299.94393   -1163.8065     6359.401    11603.436    1884.9558 
  388100    294.09956   -1162.1173    6482.6886    11603.557    1891.6052 
  388200    300.64637   -1166.7178    6347.3916    11603.522    1790.7482 
  388300    298.84157   -1168.8371    6388.0717    11603.526    1823.8774 
  388400    301.00287   -1168.5484     6341.613    11603.529    1838.3344 
  388500    298.00394   -1159.9675    6397.0087    11603.438    1882.3946 
  388600    300.31547    -1159.634    6347.2813    11603.426    1886.7745 
  388700    295.50697   -1164.0556    6454.5074    11603.505    1975.2676 
  388800    295.21868    -1154.721    6451.3008    11603.474    1985.3068 
  388900    301.97264   -1163.1421     6315.486    11603.526    1938.5554 
  389000    300.35887    -1157.657    6344.4019    11603.451    1916.2609 
  389100    298.63435   -1163.1947     6386.891    11603.561    1957.8277 
  389200    299.04731   -1164.0127    6378.7426    11603.417    1850.4322 
  389300    297.17385   -1168.4091    6423.1548    11603.409    1852.5905 
  389400    298.96079   -1165.7977      6382.46    11603.501    1966.1313 
  389500    301.55295   -1167.7965    6329.0326    11603.452    1892.7013 
  389600    295.27459   -1162.1474    6457.4548    11603.396    1881.5547 
  389700    302.34677   -1160.0491    6304.2782    11603.404    1890.1767 
  389800    297.16874   -1160.2362    6415.0651    11603.383    1932.9658 
  389900    301.21585   -1163.2153     6331.562    11603.361    1833.5474 
  390000     295.4515   -1158.4346    6449.9791    11603.412    1953.1438 
  390100     300.8821   -1159.7906    6335.3481    11603.442    1870.2044 
  390200    297.48798   -1161.8906    6409.9714    11603.455    1874.0103 
  390300    298.41886   -1162.4321    6390.5337    11603.363    1883.5538 
  390400    298.37021   -1162.4955    6391.6996    11603.426    1902.8041 
  390500    299.38948   -1159.0297    6366.3701    11603.337    1859.5106 
  390600    300.00004   -1163.3723    6357.6484    11603.317    1833.0922 
  390700    297.99811   -1164.4794    6401.5991    11603.392    1927.4509 
  390800    299.68153   -1162.7289    6363.8698    11603.377    1852.9748 
  390900    298.56568   -1157.4602    6382.4757    11603.413    1832.9567 
  391000    298.40684   -1162.4659     6390.827    11603.365    1965.8316 
  391100    297.76449   -1161.8376    6403.9432    11603.387     1944.043 
  391200    297.39441   -1159.7611    6409.8042    11603.418    1906.6323 
  391300    297.61033   -1164.1971    6409.6192     11603.41    1941.0603 
  391400    301.75526   -1166.2019    6323.1668    11603.503    1891.0261 
  391500    298.34629   -1168.4716    6398.2391    11603.478    1826.8891 
  391600    299.16716   -1164.0441    6376.2737    11603.477     1857.494 
  391700    299.85281   -1169.0708    6366.6447    11603.469    1923.5783 
  391800    299.22598   -1161.7747    6372.7066    11603.436    1914.3372 
  391900    297.11267   -1165.4952    6421.5477    11603.409     1901.564 
  392000    296.16667   -1160.2948    6436.6402    11603.492    1949.5077 
  392100    299.09874   -1160.5168    6374.2457    11603.515     1929.585 
  392200    296.90297   -1159.5582    6420.1327    11603.451    1923.2893 
  392300     299.7261   -1169.4782    6369.8621    11603.572    1934.8913 
  392400    295.17119   -1169.8425    6467.5112    11603.548    1952.7918 
  392500    297.18537   -1166.5157    6421.1152    11603.509    1886.3201 
  392600    300.89118   -1173.1818    6348.6354    11603.532    1879.6804 
  392700    298.57944   -1170.5929    6395.4861    11603.585    1925.8766 
  392800    300.15688   -1162.8817    6354.0251    11603.535    1931.4044 
  392900    298.84986   -1169.0321    6388.0319    11603.469    1966.0686 
  393000     296.8148   -1163.2536    6425.7111     11603.45    1982.8605 
  393100    298.46162    -1166.787    6394.1109    11603.498    1925.2664 
  393200    300.61781   -1163.0129    6344.2543     11603.48    1899.8352 
  393300    298.85113   -1164.3666    6383.3943    11603.524    1928.0893 
  393400    297.36154   -1164.7259    6415.5964    11603.544    1905.0022 
  393500    300.09276   -1170.2451     6362.781    11603.557    1853.8243 
  393600    294.07615   -1167.7854    6488.8548    11603.555    1932.8046 
  393700    299.08547   -1169.7507    6383.8514    11603.603    1900.4825 
  393800    300.56571   -1170.9203    6353.3121    11603.517    1911.7982 
  393900    301.22578   -1172.7659    6341.0989     11603.56    1913.7323 
  394000    293.78658   -1163.9554    6491.1661     11603.51    1925.8852 
  394100    294.86902   -1161.6317    6465.6817    11603.474    1871.3998 
  394200    301.73126   -1165.6141    6322.9711    11603.382    1851.3377 
  394300    300.33417   -1158.2949    6345.4608    11603.345    1856.5925 
  394400    295.67822   -1160.9142    6447.6016    11603.399     1872.983 
  394500    296.57002     -1164.34    6431.8884    11603.312    1876.2749 
  394600    300.94339   -1170.3049     6344.611      11603.5    1833.1012 
  394700    292.83765   -1170.1104    6517.5977    11603.514    1930.1319 
  394800     297.7722   -1166.1266    6408.0566    11603.376    1906.5396 
  394900    299.56623   -1164.8975    6368.4675    11603.343    1859.4239 
  395000    295.96195   -1160.2113    6440.8294    11603.391    1886.3381 
  395100     298.3718   -1163.2109    6392.2117    11603.256    1884.0264 
  395200    294.44241   -1158.8203    6471.7088    11603.199    1947.7292 
  395300    299.62228   -1164.6793    6366.9706    11603.262    1931.0389 
  395400    298.75881   -1156.3006    6377.1202    11603.343    1867.5952 
  395500    297.83885   -1163.6531    6404.1136    11603.331    1873.6622 
  395600    298.45435   -1165.6336    6392.9948     11603.38    1897.9865 
  395700    296.76217   -1161.6357     6425.229    11603.462    1846.2811 
  395800    299.90972   -1171.3385     6367.707    11603.479    1806.8401 
  395900    298.17763   -1161.1185    6394.4493    11603.438     1882.867 
  396000    296.91142   -1163.2258    6423.6807    11603.512    1963.1718 
  396100    301.10179   -1163.5104    6334.3763    11603.444    1906.9026 
  396200    296.21859    -1160.142     6435.298    11603.412    1910.5945 
  396300    298.45736   -1165.9613     6393.305    11603.427    1875.0409 
  396400    297.05788   -1160.3262    6417.6128    11603.472    1935.9197 
  396500    297.97901   -1167.5386    6405.2433    11603.569    1931.0553 
  396600    296.49158   -1174.7739    6444.2687    11603.583    1843.1712 
  396700    299.36458   -1174.5142    6382.5744    11603.525    1825.3839 
  396800    298.04689   -1174.3707    6410.7465     11603.69    1873.2579 
  396900    297.20837   -1169.2929    6423.4835    11603.591    1904.2268 
  397000    301.62559   -1169.5585    6329.3196    11603.529    1926.4874 
  397100    298.08581   -1161.1448    6396.5879    11603.589    1924.6575 
  397200    298.20842   -1155.4394    6388.2937     11603.62    1931.9848 
  397300    299.74444   -1158.4843    6358.4632    11603.559     1993.004 
  397400    299.85921   -1165.7672    6363.3306    11603.595    1983.4984 
  397500    299.11824   -1172.5021    6385.9415    11603.642     1892.763 
  397600    298.74517   -1176.4386    6397.8247    11603.618     1902.651 
  397700    296.76765   -1172.5518    6436.1352    11603.569    1897.2808 
  397800     299.0807   -1170.5382    6384.6517    11603.514     1872.431 
  397900     298.8761   -1171.0209    6389.4871    11603.495    1888.5171 
  398000    295.86552   -1165.4133    6448.1783    11603.478    1960.5951 
  398100    299.82933   -1159.8929    6358.0103    11603.511    1867.6625 
  398200    296.35393   -1159.7607    6432.0419    11603.428    1850.5802 
  398300    297.78514   -1161.1188    6402.7398    11603.344    1901.3824 
  398400    301.55033   -1163.8269    6324.9783    11603.311    1867.6691 
  398500    295.93409   -1159.5328    6440.6892    11603.334    1882.5876 
  398600    302.66414   -1161.5183    6298.8442    11603.281    1822.9177 
  398700    292.98641   -1161.8586    6506.0225    11603.369     1824.339 
  398800    297.67643   -1168.2662    6412.3134    11603.447    1839.0177 
  398900    301.46664   -1167.4773    6330.5575    11603.452    1883.8614 
  399000    296.51254   -1161.0159    6429.9093    11603.429     1932.674 
  399100     299.8285   -1161.2617    6359.2366    11603.351    1888.7299 
  399200    294.85752   -1159.2835    6463.3913    11603.286    1936.0511 
  399300    301.59238   -1166.1003    6326.3594    11603.318    1920.6195 
  399400    299.01791   -1158.4912    6373.7884    11603.356    1915.7399 
  399500    300.64796   -1163.1406    6343.6809    11603.423    1920.5124 
  399600    300.16339   -1165.2828     6356.249    11603.496    1892.1664 
  399700    295.68061   -1165.3839    6452.1656    11603.544    1858.1992 
  399800    301.51821   -1167.6888    6329.7235    11603.509    1870.6428 
  399900    295.97213   -1165.4668     6446.017    11603.541    1908.4014 
  400000    296.82791   -1172.9292    6435.1759     11603.52    1828.6329 
  400100    301.98232    -1168.687    6320.8095    11603.512    1758.0048 
  400200    293.91124   -1164.3449    6488.9028    11603.521    1924.8204 
  400300    302.71346   -1161.0106    6297.5001    11603.498    1863.7044 
  400400    298.53901   -1164.4629    6390.2524    11603.617    1889.8615 
  400500    300.79697    -1166.956    6344.4503     11603.56    1881.7689 
  400600    297.67296   -1166.1407    6410.3132    11603.498    1923.6708 
  400700    300.26313   -1161.9592    6350.8327    11603.535    1807.4887 
  400800    294.81834   -1170.4598    6475.7758    11603.658    1929.7324 
  400900    301.38513    -1171.107    6336.0025    11603.526    1858.7543 
  401000    297.02971    -1171.213    6429.1394     11603.51     1893.791 
  401100    296.38865   -1170.7249    6442.3571    11603.521    1922.8332 
  401200    297.48558   -1163.9514    6412.2285      11603.6    1874.5684 
  401300    296.37753    -1162.718    6434.4759    11603.409    1889.4873 
  401400    302.34767   -1162.2087    6306.4016    11603.387    1907.3909 
  401500     297.3023   -1157.0117    6409.0869    11603.483    1916.2677 
  401600    296.36626    -1158.546     6430.551    11603.415    1899.9142 
  401700    301.60279   -1163.6269    6323.7487    11603.403    1901.8035 
  401800    295.32305    -1161.766    6456.0638    11603.421    1871.8646 
  401900    297.32275   -1169.0619    6420.6915    11603.474    1888.7934 
  402000     301.0285   -1161.8881     6334.317    11603.441    1896.5481 
  402100    299.45703   -1162.6101    6368.5566    11603.386    1879.2067 
  402200    294.65004   -1160.1192    6468.7811    11603.408    1884.5774 
  402300    302.36069   -1165.4575     6309.394    11603.409    1885.4158 
  402400    296.83921   -1161.7221    6423.5752    11603.367    1891.8037 
  402500    298.41147   -1159.0533    6387.3577    11603.408    1914.6184 
  402600    301.46175   -1161.9913    6325.1685    11603.445    1839.2657 
  402700    297.27731   -1166.6015    6419.2232    11603.495    1849.3794 
  402800    298.19499   -1161.6944     6394.676     11603.46    1842.4092 
  402900     297.2617   -1163.8712    6416.8099    11603.479     1868.919 
  403000    300.65036   -1166.1148    6346.7326    11603.551    1851.1968 
  403100    297.22768   -1168.8773    6422.5827    11603.519    1880.8094 
  403200    296.17676   -1165.7832    6441.9164    11603.495    1835.8026 
  403300    300.72147    -1161.174     6340.179    11603.458    1807.9619 
  403400    299.53028   -1166.4799    6371.0642    11603.589    1926.7775 
  403500     298.8144   -1170.0412    6389.8775    11603.547    1907.8614 
  403600    300.86846   -1161.7841    6337.6574    11603.466    1833.1594 
  403700    297.85659   -1170.6547    6411.0094    11603.604      1911.08 
  403800    298.59367   -1172.5285    6397.1465    11603.614    1862.1589 
  403900    298.09712   -1170.9647    6406.2091    11603.632    1875.0398 
  404000    298.21181   -1170.0178    6402.7498     11603.57    1868.5568 
  404100    300.99403   -1167.4622    6340.7511    11603.565    1851.1142 
  404200    298.39995   -1162.6926    6391.3684    11603.533    1843.2504 
  404300    297.70077   -1167.6772    6411.3298    11603.573     1861.365 
  404400    301.34848   -1166.7372    6332.3727    11603.483    1809.8017 
  404500    295.24042   -1166.4206    6462.6215    11603.559    1867.2085 
  404600    299.81293   -1164.2974    6362.7538      11603.5    1840.3087 
  404700    298.95211   -1164.7518    6381.6264    11603.528    1857.3835 
  404800    298.62705   -1164.7965    6388.5539    11603.466    1930.1831 
  404900    297.24344   -1164.6772     6417.975    11603.448    1876.7528 
  405000    300.52465   -1160.8174    6343.8825    11603.313    1829.7214 
  405100    293.24138   -1162.0434    6500.7184    11603.327    1885.0757 
  405200    298.95624   -1162.4637    6379.1025     11603.38    1854.5987 
  405300    298.84776   -1155.6681    6374.6206    11603.376    1852.3131 
  405400    299.16497   -1159.9189    6372.0728    11603.354    1910.6814 
  405500    297.43118   -1156.1628    6405.4429    11603.441    1899.3867 
  405600     298.1901   -1158.8734    6391.8774    11603.378    1856.9706 
  405700    297.17666   -1162.2954    6416.9396    11603.368    1899.1906 
  405800    299.35361     -1160.52    6368.6422    11603.353    1930.5222 
  405900     300.1835   -1156.1466    6346.5125    11603.326    1843.3521 
  406000    295.97389   -1163.7661     6444.019    11603.281    1843.4219 
  406100    299.65628   -1156.9053    6358.4688     11603.26    1863.7401 
  406200    302.29096   -1163.3531    6308.6584    11603.288    1893.1436 
  406300    297.86431      -1160.6    6400.4802    11603.294    1884.0569 
  406400    297.22819   -1159.4639    6412.9323    11603.293     1896.111 
  406500    296.42798   -1161.1964    6431.8417    11603.374     1881.682 
  406600     297.5987   -1166.2051    6411.8896    11603.424    1868.1424 
  406700      299.519    -1164.481    6369.1126    11603.395     1868.984 
  406800    297.61837   -1167.5637    6412.7335     11603.33    1902.1015 
  406900     301.1272   -1165.6043    6335.7775    11603.294    1805.7964 
  407000    299.89129   -1165.3394    6362.0481    11603.426    1840.9541 
  407100    297.10097   -1160.7931    6417.1148    11603.428    1846.6224 
  407200    300.54501   -1163.2115    6345.9501    11603.422    1841.1467 
  407300    302.62806   -1162.3633      6300.57    11603.391    1850.3471 
  407400    295.48471   -1159.9551    6450.8226    11603.445    1905.0667 
  407500    300.22719   -1166.8066    6356.3665    11603.453    1852.5899 
  407600    301.36884   -1168.4954    6333.6217    11603.409    1854.6349 
  407700    297.60548   -1167.2892    6412.8759    11603.471    1893.9735 
  407800    298.59264   -1167.9121    6392.5307    11603.592     1888.894 
  407900    298.43257   -1162.2353    6390.1264    11603.445    1859.7784 
  408000     297.1674   -1163.8193    6418.7774    11603.484    1895.9464 
  408100    298.99923     -1164.92      6380.76      11603.5    1914.9668 
  408200    298.18378    -1157.704    6390.9716    11603.506    1886.7129 
  408300     299.0734   -1156.6626    6370.8639    11603.446    1904.8388 
  408400     299.3315   -1161.5045    6370.2078    11603.461    1926.7439 
  408500    296.99684   -1164.6864    6423.2364    11603.432    1912.2623 
  408600     299.3366   -1162.2501    6370.7838    11603.401    1887.8886 
  408700    298.01444   -1169.0429    6405.8181    11603.397     1893.473 
  408800    300.41012   -1170.3374    6355.9581    11603.422    1799.9693 
  408900    299.61264   -1165.0326    6367.6745    11603.406    1816.2796 
  409000    298.79737   -1160.4781    6380.5221    11603.391    1851.5986 
  409100    299.50966   -1156.1215    6360.9154    11603.358    1820.1659 
  409200    296.34978   -1156.1984    6428.5361    11603.396    1800.8907 
  409300     299.4371   -1158.8187    6365.1832    11603.379     1884.312 
  409400    295.78046   -1161.4527    6445.9793    11603.422    1939.8076 
  409500    297.66968   -1163.9902    6408.2135    11603.479    1878.0502 
  409600    302.21538   -1165.5814    6312.6373    11603.424    1823.3371 
  409700    296.15695   -1166.6004    6443.1717     11603.51    1858.9965 
  409800    296.81885   -1160.5096     6422.829    11603.399    1846.7191 
  409900    301.34555   -1163.5904     6329.225     11603.42    1848.8046 
  410000    298.34882   -1156.9142    6386.5935    11603.444    1875.1344 
  410100    297.77937   -1164.9824     6406.807    11603.424    1889.7949 
  410200     298.7771   -1156.6403    6377.1185    11603.392    1899.5837 
  410300    299.07004   -1163.7111    6377.9803    11603.442    1867.1941 
  410400    296.36168    -1162.513    6434.6414    11603.441    1905.9693 
  410500    299.04119   -1166.3321    6381.2407    11603.465    1860.1987 
  410600    296.88463   -1163.2934    6424.1937    11603.385    1853.0218 
  410700     298.1646   -1164.7706    6398.3798    11603.438    1857.5619 
  410800    297.94691    -1159.551    6397.8055    11603.433    1826.7178 
  410900      297.311   -1163.6052    6415.4855    11603.474    1852.5219 
  411000    300.48685   -1159.3538    6343.2939    11603.381    1833.1547 
  411100    299.09635   -1160.7307    6374.2513    11603.255    1808.7139 
  411200    298.31869   -1161.7953    6392.0503    11603.376    1787.7021 
  411300    299.98037   -1162.5397    6357.2441    11603.325    1844.0243 
  411400    300.06804   -1160.3777    6353.1334    11603.249    1878.7287 
  411500    297.98489   -1154.8138    6392.1218    11603.298    1843.5224 
  411600     301.6548   -1163.9733    6322.9993    11603.418    1920.9652 
  411700    299.53749   -1166.4101     6370.663    11603.412    1876.1972 
  411800    292.99384    -1160.405    6504.4042    11603.363      1814.52 
  411900    298.53061   -1159.3171    6385.1271    11603.458    1871.8294 
  412000    298.98985    -1158.425    6374.3958     11603.43    1926.7273 
  412100    298.94908   -1161.1503    6377.8508    11603.289    1793.2618 
  412200     297.4536   -1156.1502    6404.8501     11603.34    1823.8549 
  412300    296.23483   -1163.5056    6438.3751    11603.472    1873.6344 
  412400     298.8217   -1163.8534     6383.315    11603.329    1854.0891 
  412500    298.88664    -1165.164    6383.2375    11603.328    1887.7771 
  412600    293.50922   -1164.0458    6497.1035    11603.432    1928.8256 
  412700    299.39094   -1168.5795    6375.9898    11603.438    1847.2016 
  412800    298.17903   -1167.0067    6400.2457    11603.376    1846.8221 
  412900    298.41006   -1154.9644    6383.2393    11603.348    1861.4737 
  413000     297.7913   -1159.7132    6401.1972    11603.338    1883.2683 
  413100    297.36867   -1165.4148    6416.0031    11603.414    1867.4969 
  413200     299.9365   -1164.8868    6360.6199    11603.416    1842.4924 
  413300    301.37845   -1167.7586     6332.769    11603.499    1899.7753 
  413400    294.79805   -1163.1931    6468.7925    11603.508    1913.3693 
  413500    298.43811   -1167.5603    6395.4077     11603.52    1894.6456 
  413600      298.088   -1167.8321    6403.1276    11603.488    1925.4971 
  413700    297.85842   -1167.1189    6407.3524    11603.522    1924.9529 
  413800    299.87741   -1165.1462    6362.2655     11603.54    1899.4229 
  413900    299.44756   -1166.4583    6372.7069    11603.486    1861.0076 
  414000    299.91953   -1163.3482    6359.5516    11603.524    1859.7996 
  414100    301.48707    -1162.099    6324.7259    11603.436    1897.0947 
  414200    298.21205   -1160.4883    6393.1189    11603.474    1945.2042 
  414300    296.90772   -1163.3599    6423.8506    11603.469    1926.8634 
  414400    298.16163   -1162.6942    6396.3465    11603.418    1834.0173 
  414500    296.76903   -1164.8533    6428.2316    11603.393    1828.3004 
  414600    299.56051   -1166.5457    6370.3049     11603.41     1858.392 
  414700    298.41025   -1166.6168    6394.9751    11603.435    1885.6041 
  414800    299.61648   -1165.1449    6367.6193    11603.321    1886.5243 
  414900    295.52645   -1158.6709    6448.5092    11603.308    1916.4619 
  415000    298.76655   -1156.6256    6377.2674    11603.331    1894.3971 
  415100    299.10115   -1157.8654    6371.3326    11603.304    1886.7024 
  415200    295.89579   -1157.0646    6438.9698    11603.265     1954.006 
  415300    301.25988    -1162.541    6329.9372    11603.351    1907.9899 
  415400    298.98275   -1166.1024    6382.1909    11603.396    1861.7286 
  415500    296.32854    -1162.843    6435.6541    11603.416    1911.5645 
  415600    299.10583   -1166.8964    6380.3797     11603.42    1873.0187 
  415700    301.45633   -1163.5752    6326.7731     11603.35    1813.9312 
  415800    298.87039   -1167.3919    6385.9515    11603.467    1848.5519 
  415900    301.49421   -1162.8729    6325.3322    11603.421    1849.1331 
  416000    295.73499    -1159.245    6444.8362    11603.516    1907.5213 
  416100    299.00825   -1165.9226    6381.5837    11603.514    1874.0488 
  416200    297.95672   -1161.9567    6400.0835    11603.515    1887.3884 
  416300    297.82483   -1163.7399    6404.5899    11603.421    1931.4689 
  416400    296.57983   -1163.1961    6430.6919    11603.469    1905.6184 
  416500     300.1312   -1168.3402    6359.9303    11603.433     1885.855 
  416600    298.00031    -1168.241    6405.4113     11603.49    1947.2032 
  416700    300.52307    -1166.768    6350.0257    11603.472     1920.489 
  416800    297.89814   -1171.2863    6410.6099     11603.46    1904.3712 
  416900     296.6736   -1171.4481    6436.9853    11603.514    1863.5306 
  417000    300.58912   -1168.5473    6350.4058    11603.484    1912.9412 
  417100    299.31422   -1170.4707    6379.4913     11603.41    1912.5014 
  417200    298.67766   -1164.2847    6386.8888    11603.394    1863.9871 
  417300    296.35559   -1168.5119    6440.8211    11603.492    1902.7715 
  417400    296.70329   -1158.9349    6423.7788    11603.454    1892.3454 
  417500    300.47869   -1161.5711    6345.7049      11603.4    1856.5442 
  417600    298.69831   -1164.7854     6387.065    11603.511    1958.2287 
  417700    299.70623   -1168.5019     6369.179    11603.441    1888.7127 
  417800    296.44081   -1163.5671    6433.9704    11603.406    1909.8531 
  417900    299.08556   -1167.9385    6381.8908    11603.456    1818.7403 
  418000    296.79867   -1163.2791    6426.1281    11603.497    1920.8708 
  418100    297.95103   -1161.7692    6399.9826     11603.48    1842.1752 
  418200    297.90391   -1159.0173    6398.2078    11603.451    1857.4981 
  418300    298.43071   -1161.0878    6389.0217    11603.448    1851.5338 
  418400    299.77958   -1160.7895    6359.8567    11603.398    1887.4347 
  418500    298.59038    -1163.466    6387.9307     11603.39     1879.446 
  418600    296.02422   -1164.5265     6443.842    11603.419    1867.7649 
  418700     296.7919    -1165.616    6428.5068    11603.394    1902.4209 
  418800    301.37093   -1160.9559    6326.0309    11603.403    1840.6811 
  418900    300.21686    -1168.536    6358.3068    11603.443    1883.7221 
  419000    296.52793   -1163.8659    6432.4602    11603.458    1911.7067 
  419100    301.87315   -1168.2958    6322.6233    11603.384    1846.7739 
  419200     295.4914   -1158.5065    6449.2126    11603.427    1826.3171 
  419300    299.56693   -1163.4224    6367.1158    11603.481    1929.5163 
  419400    299.71193   -1159.7847    6360.3065    11603.407    1874.0601 
  419500    298.78143   -1163.3469    6383.6905     11603.35    1908.0718 
  419600    300.70415   -1164.5736    6343.9246    11603.434    1927.7185 
  419700    294.80378   -1167.1468    6472.6171    11603.501     1879.963 
  419800    300.48132   -1166.9602    6351.0832    11603.445     1857.949 
  419900    297.45441   -1165.2772    6414.0125    11603.392    1925.2993 
  420000    298.50028   -1164.5769    6391.0135    11603.437     1898.838 
  420100    297.87582   -1168.1403     6407.944    11603.464    1827.4712 
  420200     299.6809   -1167.3258    6368.5116    11603.409    1928.6847 
  420300    297.69788   -1161.7574    6405.2236    11603.325     1959.316 
  420400    299.34458   -1157.2786    6365.5381    11603.297    1889.0134 
  420500    298.20802   -1158.3548    6390.8838    11603.286    1871.0913 
  420600    295.21043   -1160.1631    6456.8066    11603.361    1911.7654 
  420700     301.4612   -1165.4066    6328.4523    11603.302     1809.618 
  420800    297.75312   -1163.5796    6405.8473    11603.306    1855.2633 
  420900    298.77165   -1160.1475    6380.6823    11603.333    1868.7663 
  421000    299.33854   -1161.2008    6369.5491    11603.257    1821.2326 
  421100    297.98722   -1154.0667    6391.2738    11603.247     1817.407 
  421200    298.25122   -1152.1821    6383.8162    11603.314    1857.7275 
  421300    297.73771   -1155.9791    6398.5018    11603.232     1897.512 
  421400     297.8579   -1157.4396    6397.3463    11603.184    1926.6126 
  421500    298.50834   -1159.7632    6385.8745    11603.284    1958.0297 
  421600    295.73378   -1158.1978    6443.5907    11603.291    1945.3881 
  421700    294.06529   -1161.4043    6482.4438    11603.293    1921.1471 
  421800    299.27651   -1160.8379    6370.5653    11603.311    1949.4512 
  421900    303.52106    -1163.393    6282.5764    11603.445    1930.6003 
  422000    296.96822   -1159.5893    6418.7626    11603.444    1906.8504 
  422100    299.89713   -1164.9902    6361.6232    11603.475    1877.4876 
  422200    298.17387   -1162.1356    6395.5955    11603.487    1844.5459 
  422300    298.98611   -1163.4398    6379.5668    11603.507      1826.68 
  422400    297.00763   -1162.6164    6421.0547    11603.551    1919.6369 
  422500    301.95392   -1166.5406    6319.3885     11603.63    1932.9724 
  422600    296.51992   -1158.8365    6427.6247    11603.481    1917.5184 
  422700    298.52735   -1162.6894    6388.6609     11603.55    1907.5474 
  422800     296.4446   -1170.2227    6440.7047    11603.566    1951.9456 
  422900     300.6588   -1178.2598    6358.8928    11603.747    1957.5688 
  423000    298.82548   -1180.1295    6399.8985    11603.717    1905.1652 
  423100    297.20625   -1174.0672    6428.4465    11603.735    1932.8212 
  423200    302.08312   -1173.8615    6323.9159    11603.597    1803.4405 
  423300    296.68009    -1167.524    6433.0998    11603.691    1864.5076 
  423400     298.4936   -1165.7356    6392.4837    11603.606    1963.3897 
  423500    301.43473   -1164.6862    6328.4895    11603.494    1919.7324 
  423600    300.80982   -1159.9522    6337.1707    11603.559    1876.7638 
  423700    298.97456   -1154.7786    6371.1848    11603.539    1879.2092 
  423800    294.90647   -1159.6647    6462.9274    11603.487    1855.3743 
  423900    300.76863   -1164.4542    6342.3932    11603.399    1873.1138 
  424000     298.5454   -1165.2159    6390.7375    11603.486    1898.0767 
  424100    296.84572    -1167.923     6429.733    11603.463    1894.7216 
  424200    300.60483   -1166.5955    6347.9874    11603.353    1895.9079 
  424300    291.41635   -1161.5905    6539.3256    11603.398    1964.0299 
  424400    302.14159   -1157.2883    6305.7543    11603.258    1897.8762 
  424500    297.04824   -1154.2828    6411.5378    11603.235    1937.9077 
  424600    293.80594   -1153.1473    6479.6146     11603.18    1953.3349 
  424700    301.60812   -1150.7125    6310.5372     11603.22    1882.9009 
  424800    298.20646   -1152.9114    6385.3717    11603.184    1890.0664 
  424900    297.93102   -1153.6929    6392.1573    11603.304    1923.6572 
  425000    298.33248   -1160.3823    6390.3309    11603.364    1856.6097 
  425100    295.12015   -1162.3091    6460.8952    11603.375    1849.3187 
  425200    299.49522   -1166.4368    6371.5826    11603.402    1838.7476 
  425300    297.64835   -1157.5523    6402.1513    11603.399    1914.9055 
  425400     301.1604   -1155.8893    6325.4896     11603.43    1871.7101 
  425500    298.12191   -1152.0356    6386.5949    11603.477    1869.1974 
  425600    297.43562   -1150.5485    6399.8147    11603.522    1924.5083 
  425700    299.76895   -1156.9639    6356.3754    11603.515    1957.3755 
  425800    297.60162   -1164.0935    6409.8622    11603.571    1863.1795 
  425900    298.24475   -1167.5111     6399.545    11603.575    1878.2201 
  426000     296.0868   -1170.1593    6448.4155    11603.696     1906.515 
  426100    301.86899   -1171.2949    6326.0245    11603.698    1855.2133 
  426200    297.60682   -1177.2547    6422.9577    11603.616    1904.0559 
  426300    301.49177   -1168.2413    6330.9064    11603.574    1866.0564 
  426400    298.06976    -1166.551    6402.4331    11603.685    1899.4721 
  426500    294.22607   -1162.6737    6480.6814    11603.696    1903.8749 
  426600    300.65704   -1167.6937    6348.1574     11603.54    1847.0239 
  426700    301.65332   -1167.2771    6326.5138    11603.597    1936.6716 
  426800    298.37051   -1165.6458    6394.9933    11603.576     1896.592 
  426900     297.9104   -1168.0599    6407.1539    11603.493    1826.1392 
  427000     296.9601   -1167.4781    6426.9295    11603.548    1855.3102 
  427100    300.15073   -1166.7125    6358.0233     11603.57    1856.3635 
  427200    296.16542   -1164.5487    6440.9447    11603.516    1872.0043 
  427300    296.29154   -1166.2552    6439.8916    11603.451    1966.3266 
  427400    301.64458   -1158.8197    6318.0842    11603.438    1925.5872 
  427500    300.90769   -1158.9577    6333.9007    11603.374    1887.2473 
  427600    297.71119   -1156.3687     6399.542    11603.316    1895.4192 
  427700    298.29559   -1160.2766    6390.9385    11603.289    1878.1663 
  427800    298.17536   -1159.0279     6392.203    11603.234    1885.6479 
  427900    300.18007   -1158.7289    6349.0501    11603.208    1827.8441 
  428000      296.383   -1161.0045    6432.5053    11603.269    1828.1468 
  428100     298.7347   -1160.8346    6382.0648    11603.239    1798.6821 
  428200    296.03179   -1158.2395    6437.2479    11603.273    1851.4199 
  428300    299.33563   -1158.7014    6367.0951     11603.24    1875.7196 
  428400    297.31063   -1158.3084    6410.0165    11603.294    1928.6189 
  428500    296.89688   -1157.2319    6417.8252     11603.34    1918.3612 
  428600    295.28573   -1157.6433    6452.6858    11603.369    1940.7845 
  428700     298.2478   -1163.3089    6395.1278    11603.426    1960.9584 
  428800    298.07631   -1159.7776    6395.2969    11603.462     1940.943 
  428900    297.21832   -1165.6822    6419.5128    11603.444    1893.7204 
  429000    297.74864     -1164.34    6406.9017    11603.505    1891.1653 
  429100    297.71933    -1166.499     6409.751    11603.569    1838.8916 
  429200    295.56929   -1165.1375    6454.4521    11603.699    1873.6994 
  429300    302.76265   -1177.5828    6313.1013    11603.578    1862.5133 
  429400    298.18157   -1170.5523    6404.0844    11603.724    1947.9416 
  429500    296.54819   -1172.2785    6440.6719     11603.69    1878.1798 
  429600    300.35527   -1172.2188    6359.2812    11603.692     1879.996 
  429700    298.21881   -1170.2963    6403.0296    11603.721    1901.7228 
  429800    300.01669   -1169.6172    6363.9158    11603.695     1943.459 
  429900    302.58242   -1174.5737    6314.0635    11603.699     1886.141 
  430000    299.24521   -1171.8575    6382.6407    11603.698    1897.6581 
  430100     296.9792    -1169.094    6428.2992     11603.71    1899.2528 
  430200    297.74158   -1169.6636    6412.5749    11603.703    1923.6697 
  430300    299.07218   -1172.1938    6386.6553     11603.68    1911.9878 
  430400    304.34135   -1169.8035    6271.6243    11603.607    1922.6242 
  430500    295.41847   -1166.8298    6459.3531    11603.686     1975.072 
  430600    297.55596   -1169.3136    6416.0794    11603.592    1892.4574 
  430700    299.63948   -1167.1214    6369.3064    11603.523    1942.7101 
  430800    298.03817   -1167.9246    6404.3156    11603.519    1988.2664 
  430900    297.42419   -1159.0964    6408.4989    11603.414    1951.8176 
  431000     303.1239   -1159.1434    6286.7303    11603.364    1903.7609 
  431100    294.70098   -1155.4776    6463.0448    11603.401    1937.2257 
  431200    299.55506   -1154.2815    6358.1012    11603.354    1889.7538 
  431300    296.25401     -1155.65    6429.9887    11603.351    1938.0931 
  431400    299.57229   -1158.2276    6361.7531    11603.428    1915.7684 
  431500    298.40534   -1157.2225     6385.592    11603.342    1855.1722 
  431600    294.67844   -1156.8809    6464.7678     11603.24    1874.5374 
  431700    298.47858   -1157.7098    6384.4517    11603.279    1875.3748 
  431800    299.99016   -1157.8826    6352.3345    11603.281    1875.3304 
  431900    295.49695   -1161.4599    6451.9738    11603.353     1879.798 
  432000    299.13528   -1164.8624    6377.6374    11603.341    1903.1092 
  432100    297.52658   -1166.6577      6413.86    11603.401    1934.3555 
  432200    297.00007   -1162.2555    6420.7766    11603.472     1910.118 
  432300    298.97032   -1161.5096    6377.9727    11603.505    1920.7477 
  432400    301.12219   -1162.9398    6333.4909    11603.565    1926.6597 
  432500    297.94352   -1171.6399    6410.1451    11603.611    1936.2368 
  432600    298.98541   -1170.8695    6387.1958    11603.691    1928.6225 
  432700    299.21639   -1171.0159     6382.431    11603.714     1899.063 
  432800    296.05194    -1172.531    6451.5387    11603.703    1913.1225 
  432900    297.95366   -1169.8524    6408.2336    11603.704    1896.5509 
  433000    299.86154   -1173.3392    6371.0049    11603.747    1956.9877 
  433100    300.76846   -1171.4992    6349.9001    11603.857    1956.4766 
  433200     297.9869   -1177.6903    6415.4293    11603.772    1885.7372 
  433300      294.845     -1173.61    6478.5137    11603.815    1920.2674 
  433400    298.94038   -1175.3378    6392.6418    11603.707    1973.1562 
  433500    297.42487   -1171.3376    6421.0613     11603.75     1969.051 
  433600    299.29693   -1169.2574     6378.912    11603.674    1870.5927 
  433700    296.69697   -1171.3078    6436.4587    11603.626    1900.0036 
  433800    298.15717    -1168.177    6402.1631    11603.657    1873.8818 
  433900     300.0317   -1172.5099    6366.4356    11603.643    1899.0632 
  434000     301.2565   -1167.4569    6335.1435     11603.57    1873.4383 
  434100    296.91678   -1170.5789    6430.8918    11603.484    1801.0688 
  434200    299.11101    -1167.412    6380.9347     11603.57    1873.2207 
  434300    298.72984   -1163.0064     6384.491    11603.389    1888.2678 
  434400    299.13602    -1159.722    6372.3985    11603.259    1921.1795 
  434500    296.83027   -1160.4901    6422.4354    11603.269    1930.2814 
  434600    296.57998   -1156.0497    6423.3382    11603.265    1903.0563 
  434700    297.54773   -1152.9511    6399.4826    11603.182    1923.6409 
  434800    300.81423   -1155.4843     6332.226    11603.176    1882.2611 
  434900    295.98585    -1157.265    6437.1819      11603.2    1898.3406 
  435000      299.164   -1159.7447    6371.9257    11603.361    1889.1121 
  435100    297.94278   -1160.9424    6399.1686    11603.317    1880.4027 
  435200    296.00906    -1161.457    6440.8902    11603.213    1872.0939 
  435300    300.93135   -1160.5456    6334.9395    11603.331    1866.7321 
  435400    298.55688   -1156.4505    6381.6173    11603.376    1824.1971 
  435500    296.92063   -1162.8811    6422.9653    11603.338    1824.0634 
  435600    299.96924   -1164.7442    6359.8176    11603.456    1832.5613 
  435700    297.95909   -1157.1417    6395.2354    11603.533     1809.308 
  435800    299.77709   -1163.2479    6362.4969    11603.527    1883.0121 
  435900    300.02607   -1169.2112    6363.1713    11603.557    1942.8973 
  436000    299.45109   -1166.3995    6372.6822    11603.596     1894.509 
  436100    297.51175   -1169.7885    6417.5409    11603.634    1875.3619 
  436200    299.57255   -1174.0376    6377.7662    11603.637    1869.2304 
  436300    301.14978   -1172.4484    6342.4728    11603.627    1833.1909 
  436400    296.92399   -1176.0405    6436.4597    11603.745    1877.6235 
  436500    297.55177   -1168.3518    6415.3835    11603.769    1899.4871 
  436600     301.0132   -1172.7878    6345.8155    11603.713    1895.7235 
  436700    298.63483   -1174.6475    6398.4929     11603.72    1885.3185 
  436800    298.87765   -1169.7354    6388.3735    11603.701    1894.6459 
  436900    300.71951    -1168.262    6347.4686    11603.617    1929.3285 
  437000    298.89282   -1164.6594    6382.9796    11603.707    1976.3695 
  437100    297.92986   -1166.1312    6404.9842    11603.667     1928.902 
  437200    298.72099   -1175.6136     6397.608     11603.71    1902.4704 
  437300    295.85682   -1170.1604    6453.2333      11603.6    1858.7146 
  437400    298.40498   -1171.5899    6400.1565    11603.531    1855.2437 
  437500    296.80767   -1167.5113    6430.2278    11603.557    1886.2738 
  437600    298.58761   -1159.3682    6384.0209    11603.519    1850.4327 
  437700    302.31186   -1164.8655    6309.8505    11603.414    1838.4336 
  437800    295.89039   -1160.6546    6442.7311    11603.321    1897.5161 
  437900    295.36646   -1157.2709    6450.6194      11603.4    1898.3053 
  438000    299.34441   -1155.5409    6363.8518    11603.345    1902.8556 
  438100     297.0748   -1157.1968    6413.9481    11603.298    1883.2294 
  438200    296.70013   -1162.2018    6427.0432    11603.384    1897.1832 
  438300    300.51907   -1157.4098    6340.6532    11603.372    1874.2883 
  438400    295.06989   -1161.7085    6461.3373    11603.344    1936.7422 
  438500    302.12609   -1160.3132    6309.1409    11603.288    1849.1618 
  438600    293.07664   -1159.4969    6501.6658    11603.302    1856.1153 
  438700    298.92293   -1157.7704    6375.1111     11603.37    1914.0746 
  438800    298.83151   -1165.1757    6384.5105    11603.411    1961.4688 
  438900     300.9451   -1160.8166    6334.9527    11603.366    1926.9973 
  439000    295.13491   -1160.8895    6459.2108    11603.426    1953.9533 
  439100    299.64139   -1164.3317    6366.3864    11603.433    1839.5041 
  439200    295.69758   -1164.2788    6450.6367    11603.483    1895.5654 
  439300    300.45769   -1168.2803    6352.9881    11603.525    1824.1648 
  439400    297.32157   -1170.7292    6422.5318    11603.622    1923.5911 
  439500    302.10821   -1171.8283    6321.2987    11603.549    1847.9148 
  439600    298.28727   -1174.6559    6405.8284    11603.622    1807.3164 
  439700    295.39769   -1172.4512    6465.4262    11603.693    1858.6509 
  439800    298.88234   -1173.7798    6392.3397    11603.723    1914.5596 
  439900     300.6561   -1174.0807    6354.7305    11603.706     1942.779 
  440000    295.55563   -1169.6111    6459.1781     11603.66     1981.465 
  440100    302.10781   -1167.7198    6317.2188    11603.569    1888.8958 
  440200    294.36526   -1167.5629    6482.5136    11603.613    1936.6511 
  440300    299.26808   -1173.7116    6383.9798    11603.672    1950.9428 
  440400    297.93654   -1170.7581    6409.5598    11603.759    1878.0849 
  440500    299.20668   -1176.6355    6388.1749    11603.631    1895.1832 
  440600    300.08178   -1174.0801    6366.8855    11603.592    1914.0666 
  440700    295.23544   -1169.1224    6465.4314    11603.561    1891.8215 
  440800    296.89032   -1169.2439    6430.1574     11603.52    1939.7154 
  440900    299.65452   -1168.4457     6370.272    11603.485    1966.2729 
  441000    301.64818   -1163.2915    6322.4602    11603.419    1976.3737 
  441100     296.8124   -1157.6567    6420.0708    11603.356    1926.9713 
  441200    296.29581   -1161.6411    6435.1733    11603.437    1908.4371 
  441300    301.96352   -1163.3371    6315.7023    11603.352    1888.1698 
  441400    294.15351   -1160.2163    6479.4645    11603.387    1910.4835 
  441500    300.42855   -1162.0731    6347.2143    11603.336    1870.8342 
  441600    298.62562   -1165.7004    6389.4698    11603.448    1900.7659 
  441700     297.3294   -1160.0321    6411.4607    11603.415    1833.3208 
  441800    300.43902   -1160.0242    6344.9314    11603.326    1837.2569 
  441900    296.11442   -1159.5786    6436.8751    11603.327    1882.2948 
  442000    300.64183   -1163.1273    6343.8661     11603.49    1860.5194 
  442100    297.34724   -1157.1179    6408.2035    11603.453    1850.1262 
  442200    300.11089   -1160.4802    6352.5245    11603.453    1918.8984 
  442300    294.51433   -1164.6554    6476.3276    11603.519    1947.0006 
  442400    299.15078   -1168.6592    6381.2862    11603.524    1890.5195 
  442500    296.00963   -1166.8729    6446.6014     11603.52    1934.0652 
  442600    301.67548   -1170.0622    6328.7887     11603.56    1915.7943 
  442700    298.76735   -1168.9888    6389.7788    11603.496    1852.6624 
  442800    298.28749   -1163.5886    6394.6617    11603.528    1874.4597 
  442900    300.83606   -1165.2705    6341.9435    11603.574    1929.0735 
  443000    296.91234   -1164.1111    6424.5937    11603.559    1912.1463 
  443100    300.57191   -1166.4678     6348.781    11603.571    1908.7509 
  443200    296.87616    -1169.776    6431.0965    11603.624    1956.5887 
  443300    299.06302   -1179.4927      6394.16     11603.69    1907.9739 
  443400     299.5482   -1176.4234    6380.7566    11603.721    1847.8247 
  443500    296.81588   -1177.1385    6439.7944    11603.672    1847.5527 
  443600    299.32723    -1175.462    6384.4488    11603.654    1909.0477 
  443700    299.17773   -1171.6772    6383.8444     11603.64    1932.4683 
  443800    300.11702    -1162.146    6354.1988    11603.592    1881.3131 
  443900    299.44083   -1161.2764      6367.79    11603.607    1904.0516 
  444000    299.58693    -1161.235    6364.6249    11603.605    1935.4853 
  444100     298.0895   -1168.4512    6403.8619    11603.635    1910.2673 
  444200    300.34804   -1168.8402    6355.9901    11603.625    1828.2545 
  444300    296.05779   -1168.8661    6447.6602    11603.615    1829.5523 
  444400    300.32594    -1174.279    6361.7777    11603.502    1772.4608 
  444500    296.24432   -1165.8379    6440.5354    11603.503    1914.1423 
  444600    298.89122   -1164.6377    6382.6114    11603.326    1894.0089 
  444700    297.09148   -1162.2314     6418.697    11603.369    1916.5245 
  444800     302.2062   -1157.7348    6304.9092    11603.346    1949.7986 
  444900    294.76389   -1152.4665    6458.5914    11603.303      1920.71 
  445000    297.37413    -1158.811    6409.1869    11603.318    1889.0893 
  445100    297.60596   -1160.3247    6405.7545    11603.325    1903.1149 
  445200    298.23299   -1162.5155    6394.6639    11603.439    1918.9122 
  445300    297.43425   -1162.8293    6412.0924     11603.49     1865.473 
  445400    299.03343   -1165.2096    6380.2612    11603.442    1893.5718 
  445500    296.85531   -1164.5178    6426.0529    11603.393    1917.8826 
  445600     300.1022   -1164.4659    6356.6607    11603.418    1869.4643 
  445700    300.76074   -1163.7358    6341.8683    11603.424     1891.472 
  445800    297.38784   -1158.8173    6409.0186    11603.436    1874.3191 
  445900    298.95076   -1152.6467    6369.4774    11603.455     1811.507 
  446000     296.7159   -1158.2411     6422.825    11603.464    1897.1367 
  446100    298.26505    -1165.157    6396.6757    11603.494    1879.3221 
  446200    299.06484   -1163.0505    6377.5283    11603.539     1856.963 
  446300    299.91847   -1169.9874    6366.1436    11603.454    1828.7481 
  446400    294.07768   -1170.7139    6491.6927    11603.497    1872.4447 
  446500    300.21164   -1164.6634    6354.6359    11603.533    1801.0174 
  446600    297.58413   -1163.6896     6409.858    11603.597    1887.8586 
  446700    297.48962   -1168.7076    6416.9127    11603.614     1884.525 
  446800    296.65596   -1164.2876    6430.2366    11603.548    1892.4161 
  446900    300.46244   -1163.6683    6348.2672    11603.518    1880.8336 
  447000    296.86076    -1163.819    6425.3673    11603.523    1901.5185 
  447100    301.66973   -1169.8818    6328.6755    11603.505    1879.9522 
  447200    299.18092   -1165.4294    6377.4042    11603.516    1899.7673 
  447300    292.24586   -1167.4764    6527.6425    11603.551    1951.3805 
  447400    304.07898   -1167.2928    6274.6221     11603.51    1816.8546 
  447500    292.51316   -1165.0574    6519.5088    11603.546    1816.7597 
  447600     297.4944   -1162.8505    6410.8722    11603.533     1840.521 
  447700     299.0409   -1159.8217    6374.7857    11603.514    1854.4305 
  447800     300.6864   -1156.9511    6336.6398    11603.392    1849.4816 
  447900    298.19336   -1162.3763    6395.3962    11603.464    1874.6823 
  448000     295.6554   -1159.1962    6446.3084    11603.336    1891.1898 
  448100    299.70764   -1162.2323    6362.7587     11603.32    1858.6338 
  448200    297.71195   -1158.8609    6402.0633    11603.361    1887.5824 
  448300    300.72899   -1164.7938    6343.5532    11603.373    1877.2443 
  448400    295.02378   -1162.4367    6463.0646    11603.358    1893.9072 
  448500    298.17106   -1161.6824    6395.0667    11603.352    1825.3051 
  448600    298.85163   -1168.7546    6387.7118    11603.464     1865.272 
  448700    298.34182   -1163.9025    6393.6877      11603.4    1820.0593 
  448800    299.43481   -1158.8557    6365.3042    11603.414    1810.3468 
  448900    299.98952   -1161.0122    6355.5926    11603.396    1848.2688 
  449000    298.39836   -1160.0777    6388.6662    11603.411    1863.0316 
  449100    296.77466   -1158.0322    6421.2967      11603.4    1896.7744 
  449200    301.59013   -1164.3044    6324.7446    11603.451    1866.6549 
  449300    298.97028   -1164.5506    6381.0005    11603.491    1911.0389 
  449400    297.16463   -1166.1861    6421.1755    11603.456    1863.5634 
  449500    301.22512   -1165.7118    6333.9663    11603.467    1864.4859 
  449600    296.13217     -1167.29    6444.3608     11603.48    1900.1703 
  449700     298.5099   -1167.2083     6393.585    11603.583    1877.9461 
  449800    299.45417   -1169.2739    6375.4572    11603.562    1876.3113 
  449900    297.16627   -1170.4085    6425.5566     11603.65    1913.6432 
  450000    301.86004    -1161.344    6316.1349    11603.568    1844.4868 
  450100    303.17398   -1165.3896    6292.0922     11603.55    1792.3745 
  450200    297.63238   -1167.5494    6412.5522    11603.462    1843.9016 
  450300    295.79495   -1169.1155    6453.4788    11603.569    1936.5617 
  450400    299.78279   -1163.4462    6362.5579    11603.511    1906.1117 
  450500     300.6933   -1161.4007    6341.0898     11603.54    1855.5154 
  450600    294.99099   -1166.6632    6468.0851    11603.452    1878.5817 
  450700    298.19018   -1161.9867    6395.1626    11603.552    1861.1933 
  450800    297.54159   -1167.2688    6414.3118    11603.562    1888.6968 
  450900    300.91095   -1163.5522    6338.5048    11603.453    1850.1386 
  451000    296.35837   -1162.7191    6434.9671     11603.49    1869.9489 
  451100    300.05855   -1161.1801    6354.3269    11603.437     1850.082 
  451200    301.06676   -1164.6407    6336.2603    11603.449    1876.8012 
  451300    295.05909   -1160.5387    6460.4928    11603.439     1913.364 
  451400    299.07181   -1164.6532    6378.8693    11603.426    1883.9903 
  451500     297.6247   -1162.4182    6407.4652    11603.342    1870.2758 
  451600     298.4693   -1164.2578    6391.2903    11603.371    1871.4904 
  451700    297.86229   -1159.4675    6399.5056    11603.409    1878.7682 
  451800    302.03967   -1166.5932     6317.335    11603.356    1825.2857 
  451900    297.52874   -1169.4114     6416.648    11603.482    1886.7876 
  452000    296.75828    -1167.414    6431.1264    11603.498     1827.664 
  452100    299.75996   -1168.2552    6367.8164    11603.473    1816.0676 
  452200    299.86812    -1164.448     6361.741    11603.515    1813.3976 
  452300    299.11741    -1161.483    6374.7176    11603.419    1877.5539 
  452400     300.9447    -1160.777    6335.0294    11603.474    1859.1254 
  452500    299.99912   -1160.7577    6355.3261    11603.589    1852.9476 
  452600    297.81053   -1167.7763    6409.1299    11603.619     1872.523 
  452700    300.58045   -1169.0013    6351.1568    11603.596    1874.5697 
  452800     297.8096   -1176.6408    6417.9608    11603.565    1878.7516 
  452900     300.4786   -1166.8755    6351.1592    11603.548    1856.8589 
  453000    297.58312   -1172.0422    6418.2741    11603.639    1940.0414 
  453100    300.54749   -1176.3725    6359.2369      11603.6    1913.7773 
  453200    294.97743   -1157.9538     6459.715    11603.501     1934.762 
  453300    302.34501   -1163.7647    6308.1394    11603.512    1980.9884 
  453400    301.59589   -1166.1337    6326.5193    11603.519    1863.9172 
  453500    294.65821   -1162.4244    6471.0828    11603.579     1835.115 
  453600    300.21386    -1168.849    6358.8045    11603.564    1893.3696 
  453700    298.96612   -1171.8375    6388.3625    11603.478    1864.2503 
  453800    298.92707    -1166.964    6384.3022    11603.456    1849.3471 
  453900    297.73899   -1167.7936       6410.5    11603.443    1832.7461 
  454000    298.02518   -1164.5422    6401.0933    11603.402    1822.9054 
  454100    297.86854    -1159.682    6399.5581     11603.38    1920.0325 
  454200    302.90043   -1163.2576    6295.6967    11603.442    1933.8153 
  454300    294.98403   -1161.2277    6462.7945    11603.448    1959.2764 
  454400    299.91632   -1163.5584    6359.6177    11603.311    1899.6701 
  454500    297.65085   -1162.9691    6407.5878    11603.472    1948.8604 
  454600    296.83988   -1160.4369    6422.2767    11603.368    1898.4529 
  454700    299.69025   -1163.9505    6364.9302    11603.402    1884.8772 
  454800    300.54255   -1167.4137    6350.1835      11603.4    1863.4548 
  454900    300.67901   -1164.6376    6344.6033    11603.511    1885.6522 
  455000    297.97326   -1167.3855    6405.1195    11603.476    1854.8697 
  455100    296.83125   -1156.9528    6419.0265    11603.418    1886.1524 
  455200    299.78947   -1161.0059    6359.9786    11603.515    1961.5475 
  455300     300.4411   -1163.8005    6348.8103    11603.473    1914.0702 
  455400     295.9538   -1160.3411    6441.3018     11603.56     1955.633 
  455500    298.82876   -1163.3795    6382.8649    11603.503    1959.5356 
  455600    299.09717   -1161.8792    6375.6666     11603.54    1938.7607 
  455700    295.68894   -1165.6928    6452.3619     11603.61    1926.5656 
  455800    297.16634   -1168.7487    6423.7984    11603.553    1877.3038 
  455900    301.01566   -1163.8782    6336.8114    11603.671    1909.9686 
  456000    299.30688   -1169.4088    6378.7826    11603.606    1866.2514 
  456100    296.27115   -1162.7257    6436.9399    11603.593    1850.9526 
  456200    298.21113   -1161.9629    6394.8114    11603.672    1890.0204 
  456300    298.97235   -1161.8654    6378.3045    11603.525    1861.9201 
  456400    299.11626   -1167.8714    6381.2499    11603.539    1804.7546 
  456500    296.43869   -1161.5187    6432.2175    11603.657     1883.257 
  456600    300.25234   -1166.1581    6355.3818    11603.654     1861.839 
  456700    295.56625   -1166.0718    6455.2972    11603.545    1856.5688 
  456800    299.03551   -1162.7814    6377.9139    11603.567    1829.2508 
  456900    298.34693   -1164.3535    6394.2631    11603.634    1832.5637 
  457000    299.17832   -1161.7728    6373.7311    11603.444    1799.8959 
  457100    298.38852   -1160.7251    6389.5728    11603.461    1887.0335 
  457200    301.12694   -1161.8745    6332.2412    11603.482    1860.8001 
  457300     297.3527   -1156.1685    6407.1632    11603.479    1900.9618 
  457400    298.19846   -1152.0386    6384.9153    11603.429    1867.6875 
  457500    304.02299   -1157.8847    6266.2548    11603.355    1863.0227 
  457600    295.33022   -1162.4226    6456.5226    11603.377    1889.7302 
  457700    301.37398   -1166.5802    6331.6306    11603.443    1825.7113 
  457800    297.29502   -1167.7995    6420.0044    11603.457    1878.0347 
  457900    297.10831   -1166.9421    6423.0304    11603.351    1919.7078 
  458000     295.4469   -1169.3118    6460.9625     11603.42    1917.1675 
  458100    296.56268   -1165.2342     6433.073    11603.446     1829.235 
  458200    296.23124   -1161.1327    6435.9659    11603.359    1943.3198 
  458300    300.35929   -1156.6272    6343.3121      11603.4    1861.8343 
  458400     298.2062   -1163.7261    6396.3935    11603.385    1877.8689 
  458500     299.7557   -1161.5643    6361.2697    11603.526    1971.7817 
  458600    298.60503    -1163.502    6387.8057    11603.542    1951.0218 
  458700     298.3451   -1164.4558     6394.245    11603.474    1820.2833 
  458800    296.66406   -1168.0571    6433.8208    11603.536    1849.1543 
  458900    300.47519   -1167.1117    6351.5014    11603.581     1900.969 
  459000    296.89401   -1173.5975    6434.4702    11603.558    1896.9556 
  459100    300.09239   -1177.9169     6370.465    11603.562    1938.2173 
  459200     298.9019   -1171.8633    6389.9593    11603.677    1964.7705 
  459300    295.40245   -1172.4879    6465.3143    11603.646    1928.2271 
  459400    298.49018   -1164.5187    6391.3744    11603.641    1940.1846 
  459500    300.22483   -1163.8517    6353.6049    11603.596    1944.3705 
  459600    297.57994   -1165.8377      6412.01    11603.511    1885.4889 
  459700    299.67831   -1158.3769    6359.7425    11603.533    1805.9834 
  459800    298.28001   -1167.0729    6398.3078     11603.53    1849.5317 
  459900    299.31648   -1167.0189    6376.1128    11603.531    1902.0465 
  460000    303.29493   -1160.7105      6284.78      11603.5    1815.6802 
  460100     299.0421   -1170.2996    6385.2322    11603.508    1822.6304 
  460200    297.06173   -1166.1884    6423.4689    11603.549    1928.0865 
  460300      298.882    -1167.668    6385.9029     11603.39    1903.4574 
  460400    301.76466   -1164.6369    6321.2577     11603.36    1868.3737 
  460500    294.81814    -1157.546    6462.5547    11603.346     2026.019 
  460600    296.05978   -1157.7686     6436.232    11603.326    1998.6962 
  460700    299.35991   -1154.4802    6362.4702    11603.355    1931.6781 
  460800     299.4216   -1157.3915    6364.1025    11603.394    1913.7848 
  460900    298.72551   -1164.7236    6386.3087    11603.397    1876.4609 
  461000    294.87211   -1165.8309    6469.7705     11603.43    1842.5276 
  461100    297.36091   -1162.3353     6413.087    11603.411    1875.2811 
  461200    300.06503    -1162.565    6355.4999    11603.364      1877.44 
  461300    298.85146   -1162.9487    6381.8176    11603.372    1907.4006 
  461400    298.03134   -1161.9863    6398.4081    11603.404    1953.7404 
  461500    298.44422   -1159.1694    6386.7341    11603.368    1936.2332 
  461600    298.20395   -1155.8927    6388.6666    11603.444    1923.7234 
  461700    298.62351   -1159.1126     6382.984    11603.504    1952.5125 
  461800    298.94047   -1164.8894    6382.0903    11603.605    1865.0835 
  461900    298.07817   -1170.6158    6406.2502    11603.617    1874.7112 
  462000    301.36141   -1173.1815    6338.6981    11603.641    1823.1846 
  462100    296.60142   -1174.5166    6441.7285    11603.646    1887.6204 
  462200    299.81682    -1166.636    6365.1285    11603.619    1828.3163 
  462300    296.68246   -1171.5482    6437.0569    11603.674    1862.2151 
  462400    299.79865   -1166.2648    6365.3199    11603.793    1912.6762 
  462500    298.45442   -1162.0099    6389.6674    11603.678    1939.5676 
  462600    298.00718   -1159.4851     6396.579     11603.56    1926.3105 
  462700    295.33374   -1168.2659    6462.5578    11603.644    1965.0558 
  462800    298.97412   -1163.3678    6379.9219    11603.677    1983.5399 
  462900    297.81807   -1170.0635    6411.1993    11603.562    1952.8516 
  463000    298.07594   -1174.6811    6410.3323    11603.586    1911.9271 
  463100     300.1679   -1166.7297    6357.6927     11603.59    1901.2337 
  463200    297.88333    -1166.854    6406.5303    11603.496    1811.4886 
  463300    297.71564   -1167.3468     6410.629     11603.52    1789.5304 
  463400    298.03191    -1159.973    6396.4161    11603.438    1887.4724 
  463500    300.69252    -1163.903    6343.5786     11603.51    1957.1573 
  463600    295.49272   -1162.0302    6452.7442    11603.462    1937.6514 
  463700    299.32818   -1163.2493    6371.9969    11603.435    1850.4883 
  463800    294.55079   -1164.6446     6475.403    11603.384    1937.4081 
  463900    298.71515   -1164.7086    6386.5681     11603.45    1894.9994 
  464000    301.52586   -1164.5108     6326.407    11603.534    1933.6065 
  464100    294.71667   -1159.0515    6466.3509    11603.469    1957.6789 
  464200     298.6264    -1154.073    6377.7749    11603.397     1936.776 
  464300    299.59526    -1160.064    6363.1719    11603.501    1960.2439 
  464400    299.91584   -1157.5582    6353.7608    11603.444    1864.9209 
  464500    295.73706   -1162.4298    6447.9199    11603.459    1857.3745 
  464600    300.18738   -1160.7239    6351.1398    11603.459    1878.4826 
  464700    300.05083   -1167.9232    6361.2247    11603.427    1860.7176 
  464800    302.45835   -1167.9654    6309.9612    11603.554     1835.208 
  464900    295.03571    -1163.694    6464.2185     11603.51    1891.0666 
  465000    299.17743   -1157.6405    6369.6918    11603.518    1920.4053 
  465100    300.34306   -1163.0301    6350.1604    11603.499    1899.7623 
  465200    296.98363   -1166.0595    6425.0851    11603.625    1893.0841 
  465300    300.88523   -1169.5782     6345.173    11603.546    1877.0346 
  465400    295.16741   -1167.4653    6465.3289    11603.662    1845.7344 
  465500    300.78736   -1166.9711     6344.733    11603.622    1798.9685 
  465600     298.3237   -1169.9752     6400.366    11603.619    1930.7999 
  465700    296.25027   -1165.7907    6440.4638    11603.606    1908.3917 
  465800     298.4401   -1165.5692    6393.3885    11603.534    1883.3437 
  465900    301.21978   -1162.6913    6331.1517    11603.559    1981.5947 
  466000    295.29605   -1158.1083      6453.08    11603.519    1927.2957 
  466100    301.36863   -1165.3537    6330.6666    11603.591    1897.0893 
  466200     297.8906   -1169.8183    6409.4617    11603.619    1893.1535 
  466300    300.30086   -1165.9463    6354.0365    11603.557    1873.0659 
  466400    296.80607   -1166.4837    6429.1953    11603.518    1868.0125 
  466500     299.5564   -1162.5334    6366.4835    11603.513    1812.1893 
  466600    296.38192   -1168.3805    6440.1622    11603.527    1978.0669 
  466700    299.13782   -1162.6819    6375.4881    11603.427    1955.2652 
  466800    299.66786    -1157.878    6359.3991    11603.465    1916.9462 
  466900    298.28513   -1157.2272    6388.2132     11603.39    1949.5248 
  467000    297.17164   -1158.7274    6413.5702    11603.459    1892.6048 
  467100    296.33924   -1161.0105    6433.5559    11603.379    1819.1221 
  467200    300.37323   -1167.8731    6354.3315    11603.472    1895.0861 
  467300    297.50529   -1164.2283    6411.9726    11603.488    1894.9745 
  467400    296.00258   -1164.6976    6444.4324    11603.376     1835.932 
  467500    298.22263   -1162.8449    6395.1946    11603.419    1888.5293 
  467600    299.45619    -1165.436    6371.4924    11603.479    1900.7667 
  467700    299.82426    -1160.065    6358.2407    11603.461    1851.1671 
  467800    298.30899   -1159.1202    6389.6557    11603.449    1858.9616 
  467900    296.12396   -1159.5369    6436.8546    11603.552    1892.7689 
  468000    299.58473   -1160.7201    6364.0612    11603.509     1860.508 
  468100    299.68852   -1160.5252    6361.7058    11603.566    1855.4377 
  468200    301.08531   -1169.6099    6340.9654    11603.581    1832.6697 
  468300    297.33647   -1165.2241     6416.698    11603.611    1871.3451 
  468400    300.13848   -1170.5216    6362.1233      11603.6    1918.3275 
  468500    299.08767   -1167.1619     6381.206    11603.593    1928.6764 
  468600    300.03569   -1163.5054    6357.2909    11603.588    1843.4913 
  468700    300.03364   -1160.5988    6354.4824    11603.642    1817.9955 
  468800    296.95688   -1165.7745    6425.3594    11603.613    1882.2437 
  468900     299.4066   -1164.7559    6371.9057    11603.512    1876.7484 
  469000    298.06497   -1171.2607    6407.1711    11603.611    1898.3653 
  469100    297.42826   -1174.7384    6424.2975    11603.657    1897.9684 
  469200    295.88239   -1172.5363    6455.1303    11603.667    1883.2621 
  469300     300.5758   -1173.1393     6355.448    11603.649    1842.8287 
  469400    299.05787   -1170.6027    6385.2904      11603.6    1854.7913 
  469500    298.27877   -1166.1484    6397.5061    11603.626    1915.1106 
  469600    294.85902   -1159.2577    6463.6067    11603.559    1901.5793 
  469700    301.74867   -1163.5766    6320.7047    11603.525    1892.8835 
  469800    299.55042   -1161.3458    6365.4334    11603.523    1894.1812 
  469900    299.96531   -1165.5559    6360.7924    11603.535    1905.2057 
  470000    296.10452   -1166.1986    6443.8372    11603.457    1854.0063 
  470100    296.10416   -1167.1463    6444.8431    11603.508    1818.1755 
  470200     296.5231   -1166.3756    6435.1216    11603.507    1856.5745 
  470300    301.35429   -1172.1581     6337.669    11603.483    1870.9793 
  470400    296.95962   -1161.9006    6421.2362    11603.422    1910.8606 
  470500     298.5681   -1164.0917    6389.1028    11603.461     1950.628 
  470600    298.53082   -1161.2851    6387.0296    11603.397     1911.565 
  470700    294.85498     -1159.55    6463.8603    11603.434    1994.6817 
  470800    301.00475    -1162.329    6335.3775    11603.553    1947.0369 
  470900    297.92763   -1168.8272      6407.54    11603.479    1858.2834 
  471000    298.26246   -1167.5807    6399.0711     11603.41    1844.6376 
  471100    296.08295   -1167.2613    6445.4038      11603.5    1873.5842 
  471200    300.49941   -1168.0692    6351.9396    11603.579    1862.3822 
  471300    295.42668   -1165.2032    6457.4333    11603.568     1858.991 
  471400    295.49514   -1163.1684    6453.9137    11603.546    1894.2524 
  471500    303.89456   -1165.5895     6276.937    11603.588    1862.9143 
  471600    295.38787    -1155.576    6448.6012    11603.534    1898.7646 
  471700    301.96907   -1160.2975    6312.6271    11603.435    1919.5622 
  471800    297.98002   -1161.6206    6399.2895    11603.555    1974.9464 
  471900    298.70607   -1167.3225    6389.4394    11603.514    1889.4703 
  472000    299.98962   -1172.0389    6366.7669    11603.546    1864.7436 
  472100    298.99928   -1173.2648    6389.2256    11603.622    1861.3942 
  472200    296.89897   -1177.0646    6437.9196    11603.646    1831.8813 
  472300    297.15954   -1174.6423    6429.9622    11603.678    1837.9685 
  472400    295.06604   -1175.7023    6475.6356    11603.567    1859.4511 
  472500    297.55153   -1166.3731    6413.2088    11603.568    1887.8565 
  472600    302.04314   -1162.3278    6313.2206    11603.581    1909.7307 
  472700    297.01915   -1160.9766    6419.1952    11603.577    1967.1456 
  472800    297.37293   -1166.9574    6417.5456    11603.505    1954.7318 
  472900    298.24685   -1171.4576    6403.4257    11603.554    1926.7122 
  473000    295.97004   -1171.2213    6451.8727    11603.597    1872.6388 
  473100      298.597   -1171.7162     6396.278    11603.629    1867.9476 
  473200    299.94595   -1167.2813    6363.0031    11603.607    1871.9493 
  473300    297.98744   -1169.6631    6407.1568    11603.538    1883.7653 
  473400    300.11783   -1165.3184    6357.2927    11603.531    1862.7138 
  473500    296.60082   -1165.4313    6432.6031    11603.593    1887.1691 
  473600    298.58061   -1162.2028    6386.9759     11603.49    1957.6313 
  473700    298.56258   -1162.8633     6388.113    11603.581    1920.7443 
  473800    298.81078   -1164.4971    6384.3528     11603.49     1916.685 
  473900     298.8681   -1165.5692    6384.2112      11603.5    1955.5809 
  474000    297.17464   -1167.0513    6421.9061    11603.535    1959.8272 
  474100    302.51336   -1167.9125    6308.6101    11603.431    1857.4664 
  474200    295.75427    -1167.053    6452.2373     11603.52    1841.0368 
  474300    299.16342   -1168.6813    6380.9294    11603.415    1893.8473 
  474400    298.40437   -1160.5705    6389.0287     11603.41    1931.6563 
  474500    298.56961   -1161.2179    6386.0889    11603.353    1957.6447 
  474600    297.98803   -1160.4816    6397.8582    11603.434    1869.5928 
  474700    298.67534   -1164.4274    6387.0192    11603.332    1841.1901 
  474800    296.19141   -1160.2614    6435.9096    11603.323    1916.3846 
  474900    299.76727   -1169.3951    6368.7684    11603.441    1839.0348 
  475000    297.40311   -1167.1459    6417.1281    11603.543     1840.291 
  475100    299.75617   -1164.2755    6363.9502    11603.505    1894.8593 
  475200    294.10413   -1168.3246    6488.7628    11603.522    1908.4147 
  475300    297.48744   -1167.4358     6415.614    11603.541    1895.5435 
  475400    298.94412   -1163.1311    6380.1599    11603.511    1910.4803 
  475500    299.39878   -1163.7211    6370.9915    11603.466    1946.5868 
  475600    297.27454   -1161.7115     6414.367     11603.47    1946.3443 
  475700    299.90259   -1162.5249    6359.0701    11603.504    1874.7167 
  475800    300.62912   -1167.1353    6348.2071    11603.552    1932.3148 
  475900    297.34435   -1162.8458    6413.9762    11603.436    1958.1378 
  476000    298.94253   -1166.3458    6383.4077     11603.51    1898.6765 
  476100    295.94341   -1170.4737    6451.6794    11603.583    1901.9652 
  476200    299.69786   -1174.0187    6374.9704    11603.537    1845.9117 
  476300    298.41173   -1165.8389    6394.3151    11603.585    1821.8846 
  476400    297.33975   -1167.6461    6418.9953    11603.557    1881.5197 
  476500    299.48136   -1162.5258    6368.0537    11603.488    1846.9304 
  476600    298.65728   -1165.2063    6388.3386    11603.487    1888.0329 
  476700    299.30019   -1164.2526    6373.5894    11603.426    1939.8055 
  476800    299.80162   -1158.6337    6357.3249    11603.493     1899.023 
  476900    297.75449   -1162.8599    6405.3222     11603.53    1889.7836 
  477000    298.67684   -1159.4976    6382.2017    11603.477    1926.6542 
  477100    297.52466   -1158.8111    6406.1439    11603.491    1925.0762 
  477200    299.90178    -1167.985    6364.5373    11603.494    1884.8435 
  477300      299.985   -1166.6367    6361.3408    11603.423    1834.2921 
  477400    298.90201   -1166.0508    6383.8935    11603.425    1827.9028 
  477500    296.12616   -1160.4416    6437.6028    11603.442    1865.8901 
  477600    299.38203   -1168.6135     6376.208    11603.432    1930.6601 
  477700    299.60837   -1163.2899    6366.0713    11603.454    1913.3626 
  477800    297.82348   -1161.3153    6402.2194    11603.446    1896.1198 
  477900     296.2392   -1160.8259    6435.5687    11603.439    1898.0081 
  478000    297.33236   -1159.0328    6410.4509    11603.468    1916.9329 
  478100    297.43541   -1166.9216    6416.1206     11603.45    1922.6002 
  478200     296.1117   -1164.1512    6441.6654    11603.486    1956.0657 
  478300    300.86505   -1160.7779    6336.7128    11603.455     1920.035 
  478400    297.23657   -1161.4157    6414.8966    11603.484    1907.3695 
  478500    298.21111   -1165.6629    6398.4053    11603.565    1935.7794 
  478600    300.25372   -1168.0357    6357.0968    11603.521    1939.9999 
  478700    299.85128    -1166.861    6364.5348    11603.536     1903.799 
  478800    297.81911   -1165.7759    6406.8523    11603.525    1862.8432 
  478900    301.17818   -1159.9242    6329.2297    11603.515    1839.3996 
  479000    298.17518   -1161.9033    6395.4057    11603.558    1860.8276 
  479100    297.99867   -1165.0137    6402.1905    11603.461    1797.3432 
  479200    300.52673   -1170.1224    6353.3019    11603.472    1789.1876 
  479300    295.79334   -1164.9473    6449.3372    11603.561    1858.6417 
  479400    294.66343   -1164.5795     6472.974    11603.427    1829.5455 
  479500     296.7367   -1163.5089    6427.5972    11603.413    1892.0859 
  479600     300.6209   -1167.0482    6348.2764    11603.533    1862.0468 
  479700    298.63231   -1162.3922     6386.105    11603.534     1893.511 
  479800    296.23189   -1159.1835    6434.0594    11603.416    1920.7112 
  479900    300.92985   -1160.7785    6335.2249    11603.351    1941.4287 
  480000     295.2829   -1158.7052    6453.8937    11603.454    1948.8379 
  480100    302.51035   -1165.0622    6305.8665    11603.474    1912.2274 
  480200    301.28346   -1166.5253    6333.4577    11603.391    1898.7186 
  480300    298.66362   -1167.6413    6390.5438    11603.393    1880.4009 
  480400    295.95356   -1163.8943       6444.7    11603.399    1939.5852 
  480500    296.87058   -1157.5889    6418.7537    11603.349    1892.0095 
  480600    302.06801   -1159.3033    6309.4556    11603.372    1935.5163 
  480700     297.5264   -1157.2783    6404.4386    11603.355    2021.0718 
  480800    302.52929   -1158.7532    6298.9599    11603.281    1889.1937 
  480900     296.4185   -1154.5618    6425.4374    11603.402    1901.4714 
  481000    299.11235   -1162.2998    6375.5769    11603.354    1863.2331 
  481100    298.47784   -1166.1573    6393.0283    11603.392    1895.9911 
  481200     299.7138   -1167.4163    6367.8232    11603.332    1852.0761 
  481300    297.52896   -1159.1149    6406.2149     11603.35    1900.5246 
  481400    300.14511   -1161.5864     6352.905    11603.458    1899.8966 
  481500     295.8832    -1166.079    6448.4751    11603.487    1898.2558 
  481600    301.51638   -1164.8564    6326.7533    11603.332    1857.7718 
  481700    300.00357   -1164.2374    6358.6365    11603.515    1966.6109 
  481800    298.01395   -1153.5435    6390.3432     11603.41    1910.8637 
  481900    296.56162   -1162.3388    6430.2519    11603.497    1939.8638 
  482000    301.53681   -1169.2076    6330.8213    11603.485    1881.0904 
  482100    295.38303   -1168.4378     6461.583     11603.55    1923.2548 
  482200    296.49969   -1173.9194    6443.2841    11603.626    1891.9162 
  482300    298.40052   -1172.0744    6400.7537    11603.549    1880.2798 
  482400    300.84286   -1167.8304     6344.411    11603.627    1841.6425 
  482500    296.75962   -1164.9625    6428.6706    11603.522    1836.6256 
  482600    300.15763   -1162.0205    6353.2126    11603.599    1909.6697 
  482700    297.90071   -1165.9338    6405.2206    11603.478    1900.8943 
  482800    300.22728   -1156.8629    6346.4297    11603.462    1853.7374 
  482900    299.73888   -1162.5597     6362.572    11603.474    1919.8895 
  483000    296.95418   -1160.2314    6419.7963    11603.535    1855.4864 
  483100    297.16819   -1165.1213    6420.0529    11603.474    1859.8643 
  483200     299.0824   -1163.5241    6377.6008    11603.513    1929.7871 
  483300     298.6468   -1164.6372    6388.0415    11603.535    1906.0005 
  483400    295.07096   -1166.3302     6466.101    11603.509    1851.2151 
  483500    297.03795   -1165.5416    6423.2054    11603.424     1914.115 
  483600    302.35635   -1161.1389    6305.1524    11603.393    1912.8688 
  483700    298.51297    -1157.074    6383.1513    11603.349    1862.6598 
  483800    298.76382   -1154.7626    6375.4551    11603.323     1864.712 
  483900    298.16205   -1152.4099    6385.9996    11603.364     1902.328 
  484000    298.24941   -1155.5009    6387.1115    11603.252    1926.6982 
  484100    299.32201   -1156.7386    6365.5107    11603.327    1877.7448 
  484200    300.30696   -1161.5358     6349.307    11603.369    1940.4432 
  484300    297.30965   -1154.7388    6406.5027    11603.328    1883.7952 
  484400    296.44092   -1154.6648    6424.9621    11603.303    1845.9314 
  484500    301.62622   -1158.7963    6318.3219    11603.307    1850.3043 
  484600    292.79614   -1159.7419    6507.9479    11603.346    1935.5329 
  484700     297.4889   -1157.6397    6405.4828    11603.237    1874.9064 
  484800    298.31456   -1159.8211    6390.0703    11603.282    1918.4663 
  484900    299.25477   -1161.1819    6371.3656    11603.303    1922.1704 
  485000    297.47436   -1161.1322    6409.3604    11603.312    1862.2777 
  485100    298.35587   -1161.8258    6391.2676    11603.357    1836.3863 
  485200    297.12831   -1166.6991     6422.455    11603.446    1893.7029 
  485300    298.57149   -1170.1791    6395.0945    11603.437    1874.9622 
  485400    296.31252   -1165.1356    6438.3316    11603.458    1886.3224 
  485500    300.92505    -1161.535    6336.2864    11603.553    1893.6938 
  485600    298.05097   -1165.4154     6401.529    11603.515    1858.6696 
  485700    301.11353   -1169.0598    6339.7228    11603.492    1860.2111 
  485800    300.99631   -1169.3926    6342.6759    11603.608    1865.5613 
  485900    296.68246   -1168.1466    6433.5946    11603.614    1902.2817 
  486000    299.46862   -1166.2527    6372.1325    11603.567    1878.1231 
  486100    298.41791   -1171.9589    6400.2889    11603.571    1881.3052 
  486200    298.47125    -1169.758    6396.9829    11603.605    1879.9518 
  486300    296.85724   -1162.3296    6424.1022    11603.672    1903.1146 
  486400    303.53067   -1172.6796    6291.8168    11603.604    1908.8111 
  486500    294.48271    -1168.156    6480.6198    11603.635    1910.8586 
  486600    301.50779   -1165.1947    6327.5035     11603.56     1912.127 
  486700    299.51192   -1163.0392    6367.9896    11603.563    1930.0051 
  486800    297.49607   -1165.6936     6413.653    11603.506    1916.7833 
  486900    298.58402   -1160.4177    6385.1026    11603.474    1891.7565 
  487000    297.75406   -1161.4201    6403.7799    11603.419    1859.1144 
  487100    299.30668   -1159.7776    6368.9031    11603.353    1859.8839 
  487200     296.0216   -1157.5934    6436.8822    11603.336    1847.9002 
  487300    298.29334   -1157.6668    6388.4696    11603.382    1836.3452 
  487400    299.38744   -1154.7581    6362.0738    11603.269    1801.5127 
  487500    297.52419   -1158.2226    6405.2455    11603.171    1818.1933 
  487600     298.2701   -1161.9837    6393.2023    11603.302    1846.8215 
  487700     298.5053   -1158.5772    6384.7078    11603.238    1863.4471 
  487800    297.00662   -1153.6954    6411.8197    11603.215    1892.0595 
  487900    295.23845   -1155.1727    6451.0615    11603.205    1876.3514 
  488000    298.98681    -1155.005    6370.8515    11603.241    1874.9129 
  488100    297.23908    -1156.918    6410.0319    11603.171    1885.0843 
  488200     299.4455   -1156.2673    6362.2498    11603.176    1794.3617 
  488300    299.27401   -1158.8022    6368.4549    11603.183    1820.5131 
  488400    300.74751   -1162.8889    6341.1586    11603.279    1789.9911 
  488500    296.26364   -1162.2363     6436.447    11603.429    1760.6592 
  488600    298.41627   -1164.1595    6392.2846    11603.331    1759.7624 
  488700    299.29576   -1166.1845    6375.5922    11603.402    1892.2872 
  488800    299.02852   -1165.1044    6380.1971    11603.378    1857.3509 
  488900    295.38684   -1161.5218    6454.5095    11603.474     1807.028 
  489000    297.51658   -1158.6101    6406.1747     11603.55    1868.8763 
  489100    298.10104   -1157.8492    6392.9589    11603.581    1795.3721 
  489200    300.47789   -1163.9126    6348.2496    11603.586    1809.4219 
  489300    295.41692   -1163.5324    6456.0097    11603.606    1855.3465 
  489400    303.18775   -1168.0467    6294.4526    11603.547    1854.9852 
  489500    297.27341   -1171.5568    6424.3964     11603.63    1843.5715 
  489600     296.0317   -1166.4778    6445.9153      11603.7    1804.3892 
  489700     299.7702   -1164.3694    6363.8337    11603.595    1781.3689 
  489800    302.72437   -1165.7683    6302.1037    11603.577    1865.5592 
  489900    299.99561   -1164.6573    6359.3055    11603.594    1856.5394 
  490000    297.27255   -1165.3857    6418.1122    11603.498    1835.1343 
  490100    296.87304   -1164.3954    6425.6246    11603.466    1879.7984 
  490200    297.92921   -1159.2965    6397.9493    11603.453    1877.1852 
  490300     300.0176   -1158.0454    6351.9502    11603.321    1806.6867 
  490400    298.91594   -1163.8602    6381.2924    11603.313    1845.2401 
  490500    299.74325   -1166.0618    6365.8816    11603.374    1811.6813 
  490600    292.60593   -1158.7313    6511.0131    11603.359    1769.6534 
  490700    297.23269   -1160.3009    6413.6605     11603.28    1838.3728 
  490800    298.80782   -1157.8952    6377.6066    11603.282    1858.7531 
  490900    296.65998   -1157.8309    6423.4127    11603.267    1890.7089 
  491000    300.08579   -1156.3177    6348.6131    11603.168    1854.5568 
  491100     296.1471   -1165.1881    6441.6992     11603.24    1837.8611 
  491200    298.57223   -1157.5709    6382.2251    11603.192    1812.3368 
  491300    297.41591   -1159.8896    6409.2536    11603.198    1821.4651 
  491400    299.73424   -1159.7873    6359.6817    11603.257      1856.88 
  491500    296.56962   -1157.9329    6425.3895    11603.211    1828.7555 
  491600    301.64857   -1160.4965    6319.4927    11603.255    1839.4014 
  491700    296.73295    -1155.959     6419.956    11603.241    1812.5137 
  491800    298.15375   -1159.9761    6393.5607    11603.182    1806.3579 
  491900     299.2339   -1159.2291     6369.829    11603.273    1829.9102 
  492000    299.44814   -1163.0437    6369.1385    11603.345    1863.1035 
  492100    296.39824   -1164.4826    6435.7109    11603.322    1917.9368 
  492200    301.16931   -1162.5799    6331.9284    11603.369    1891.1164 
  492300    299.48869   -1162.2746       6367.5    11603.342    1918.4072 
  492400    302.90339   -1161.1439    6293.3792    11603.302    1850.6704 
  492500    294.16478   -1164.7894    6483.7365    11603.326      1880.16 
  492600    299.44383    -1167.254    6373.4209    11603.325    1921.6222 
  492700    299.90787   -1159.6074    6355.8197    11603.284    1862.0752 
  492800     294.6206   -1164.3859    6473.5918    11603.323    1871.8035 
  492900    300.40679   -1159.1197     6344.784    11603.394    1863.9413 
  493000    297.68384   -1163.7469    6407.4351    11603.247    1856.5842 
  493100    297.41802   -1162.3506    6411.7591    11603.288    1951.5435 
  493200    300.67735   -1159.2795     6339.012    11603.243    1899.2672 
  493300    294.89899    -1160.204    6463.4435    11603.304    1803.8731 
  493400    300.07543   -1162.6459    6355.3507    11603.356    1815.2385 
  493500    296.26112   -1166.7428    6440.8693    11603.291    1801.5038 
  493600    295.61086   -1162.0519    6450.1275    11603.348    1857.6704 
  493700    299.02057   -1164.9623    6380.0829    11603.236    1835.1547 
  493800     298.1976   -1160.1191    6392.8518    11603.267    1860.5985 
  493900     295.8043   -1158.1984    6442.0782    11603.285    1852.8964 
  494000    296.06547   -1154.8217    6433.1769     11603.34    1847.8024 
  494100    300.63078   -1161.8514     6342.637    11603.301    1841.2936 
  494200    296.55938   -1159.0035    6426.8211    11603.354    1927.8795 
  494300    300.42874    -1160.052    6345.1738    11603.321    1893.4135 
  494400    294.53396   -1161.8512    6473.0182    11603.433    1911.4675 
  494500    297.07943   -1160.5739    6417.4257    11603.498    1914.6474 
  494600    299.39501    -1163.912    6371.2585    11603.462    1883.0575 
  494700    296.36709   -1153.3386    6425.3654    11603.455    1897.6887 
  494800    299.60576   -1163.9034    6366.8099    11603.524    1910.8054 
  494900    298.18566   -1165.6504    6398.8989    11603.528    1877.8189 
  495000    295.61159   -1164.4605      6452.66    11603.488    1876.4544 
  495100    300.31306   -1172.1923    6360.0136    11603.549    1927.7501 
  495200    297.20095   -1163.2308    6417.5635    11603.575    1862.5089 
  495300    303.74158   -1164.8614    6279.5054    11603.617    1835.8873 
  495400    294.02069   -1164.8535    6487.0549    11603.502    1899.5371 
  495500    299.55642   -1165.6772    6369.6203    11603.506    1858.2908 
  495600    296.82185   -1171.6184    6434.0185    11603.543    1855.9462 
  495700    298.55839   -1168.7964    6394.1673    11603.613    1936.5103 
  495800    299.49364   -1170.6752    6375.9362    11603.483    1973.0686 
  495900    297.16247   -1165.4911    6420.6491    11603.578    1962.7216 
  496000    298.33532   -1162.6489    6392.6873    11603.515    1924.5001 
  496100    298.99303   -1157.6117    6373.4747     11603.39    1862.5029 
  496200    294.88533   -1161.9614     6465.642    11603.453    1865.8656 
  496300    299.21625   -1165.2335    6376.2637    11603.326    1913.6355 
  496400    298.11584   -1162.7032    6397.2562    11603.341    1899.6312 
  496500    298.48026   -1162.3302    6389.0759    11603.318    1786.9078 
  496600      294.569   -1163.2465     6473.545    11603.313    1823.5761 
  496700    300.79099   -1165.2367    6342.6819    11603.383    1819.4172 
  496800    298.41163   -1159.5873    6387.7842    11603.304      1848.61 
  496900    296.11405   -1158.7771    6435.9845     11603.23    1819.9231 
  497000    296.59205   -1158.6441    6425.7933    11603.383    1811.3814 
  497100    301.52628   -1158.5059    6320.0972    11603.238    1818.2609 
  497200    297.11612   -1155.7753     6411.579    11603.234    1858.8313 
  497300    300.26411   -1158.6103    6347.1976    11603.269    1822.6727 
  497400    294.30019   -1161.1596    6477.3234    11603.436    1878.3826 
  497500    295.79785   -1165.4419     6449.572    11603.397    1823.4207 
  497600    300.31129   -1167.3442    6355.0312    11603.377    1763.1626 
  497700    299.30895   -1159.8432      6368.95    11603.383    1875.6919 
  497800    298.22383    -1169.205    6401.5827    11603.472    1863.6415 
  497900      300.927   -1163.8943     6338.526    11603.475    1880.4538 
  498000    297.70049   -1165.0968    6408.6432    11603.461    1952.2012 
  498100    299.76597   -1164.6012     6364.041     11603.48    1905.3269 
  498200    296.57997    -1162.334    6429.8945    11603.537     1887.112 
  498300    298.21482   -1164.9964    6397.6705    11603.576    1960.7182 
  498400      298.966    -1164.753    6381.2734     11603.47    1943.1339 
  498500     300.4942   -1170.7574    6354.7956    11603.636     1901.738 
  498600    300.76016   -1173.3851    6351.7372    11603.631    1845.8676 
  498700    297.49046   -1171.6503    6419.8429     11603.62    1844.5614 
  498800    300.26959   -1169.7265    6358.4515    11603.524    1824.3414 
  498900    297.48205    -1168.703    6417.0553      11603.6    1858.0393 
  499000    298.77066   -1163.1236    6383.8827    11603.536    1822.7576 
  499100    299.02988   -1160.7182    6375.8454    11603.442    1846.5422 
  499200    298.64308   -1159.6067    6382.8636    11603.308    1908.5704 
  499300    297.65051   -1166.4692     6411.039    11603.416    1860.6826 
  499400    302.00852   -1169.9611    6321.4742    11603.462    1735.8442 
  499500    295.91438   -1163.7046    6445.2556    11603.308    1775.8175 
  499600    299.99464   -1163.9067    6358.2799    11603.298    1780.0865 
  499700    295.87948   -1163.4778    6445.7836    11603.317    1845.7775 
  499800    303.32422   -1158.2586    6281.4762    11603.274    1827.6307 
  499900      295.933   -1157.6045    6438.6459    11603.196     1858.305 
  500000    300.34845   -1158.7995    6345.5079    11603.192    1812.4237 
  500100     292.4989   -1156.7017    6511.1828    11603.271    1886.7272 
  500200    300.99887   -1156.3175    6329.1364    11603.198    1899.8851 
  500300    298.65573   -1157.5526    6380.3812     11603.15    1838.1841 
  500400    297.43405   -1155.4511    6404.4633    11603.234    1802.0632 
  500500    299.30493   -1163.8018    6372.9204    11603.309    1822.7793 
  500600     297.3363    -1158.775    6409.8987    11603.258    1909.8238 
  500700    297.77654   -1157.9784    6399.6676    11603.228    1865.9708 
  500800     296.7088   -1154.7859    6419.3091    11603.251    1856.2005 
  500900    299.49728   -1158.7297    6363.7523    11603.322    1866.7149 
  501000    295.72267    -1156.601    6442.3599     11603.42    1861.0682 
  501100    298.11694   -1158.2115    6392.7906     11603.39    1861.9445 
  501200    299.64011   -1166.0766    6368.0892    11603.364    1877.5395 
  501300    300.43421   -1168.3849    6353.4759    11603.407    1808.5385 
  501400    297.12035   -1162.6315    6418.6074    11603.496    1871.1327 
  501500    296.73286   -1163.7401    6427.8718    11603.374    1876.3713 
  501600    299.78406   -1168.2776     6367.402    11603.551    1786.6725 
  501700    301.85688   -1167.5134    6322.4056    11603.601    1811.2317 
  501800     300.4124   -1165.0134    6350.6915    11603.528    1898.6181 
  501900    298.22993   -1169.3705    6401.6982    11603.552    1863.4564 
  502000    295.77325   -1166.7873    6451.6181    11603.572    1836.8166 
  502100    298.16166   -1163.6495    6397.4904    11603.607    1918.8595 
  502200    298.76776   -1166.6495    6387.5663    11603.632    1895.4955 
  502300    298.49849   -1164.8196     6391.395    11603.538     1806.299 
  502400     295.1332   -1163.7322    6462.2481    11603.584    1851.6563 
  502500    301.09187   -1171.9865    6343.1592    11603.539    1844.2513 
  502600    296.51215   -1164.4729    6433.3857     11603.44    1797.9853 
  502700    300.86174   -1162.8166    6338.7547    11603.388    1904.7987 
  502800    300.48698   -1165.9227    6349.8668    11603.387    1909.7324 
  502900    299.02637   -1162.1901    6377.2813    11603.331    1837.4665 
  503000    297.58655   -1159.7103    6405.5671    11603.337    1930.5554 
  503100    297.77752   -1156.9258    6398.7407    11603.375    1909.1492 
  503200    296.27568   -1156.9507    6430.8157     11603.34    1844.6857 
  503300    300.28007   -1159.5041    6347.7753    11603.294    1926.1514 
  503400    298.12837   -1160.0468    6394.2931    11603.302    1895.0858 
  503500    295.85133   -1159.3392    6442.1777    11603.248     1873.402 
  503600    299.18668   -1162.1109     6373.741    11603.294    1900.4971 
  503700    299.59294   -1157.0566    6359.9712    11603.258      1888.69 
  503800     294.9844   -1158.9086    6460.2943    11603.275    1885.8033 
  503900    301.12212   -1158.6882     6328.884    11603.208     1873.255 
  504000    298.75404   -1163.9004    6384.8193    11603.341    1936.0009 
  504100    298.00276   -1159.7615    6396.7312    11603.341    1897.6695 
  504200    298.03503   -1160.3666    6396.5817    11603.276    1789.2241 
  504300    298.23828   -1160.9653    6392.9098    11603.348    1849.1419 
  504400    299.42953   -1160.1936    6366.7374    11603.396    1860.8466 
  504500    296.33567   -1161.7884    6434.4805    11603.449     1852.399 
  504600    299.17437   -1164.0511     6376.142    11603.492    1831.5346 
  504700    299.27948   -1157.4538    6367.2823    11603.475      1831.18 
  504800    296.84171   -1165.7916    6427.7312    11603.507    1847.3911 
  504900    299.59357   -1170.9896    6374.1413    11603.509    1893.2528 
  505000    298.21205   -1159.1988    6391.8529    11603.497    1867.0835 
  505100    298.68197   -1162.8844    6385.5335    11603.531    1843.2045 
  505200    299.05231   -1158.0048    6372.6235    11603.413    1867.2822 
  505300    298.82755   -1163.1082    6382.5846    11603.469    1866.3425 
  505400    302.27591   -1160.6849    6306.4404    11603.416    1897.2911 
  505500    298.82427   -1163.4344    6382.9713    11603.459    1928.8998 
  505600    298.05858    -1164.817    6400.7062    11603.453     1869.618 
  505700    296.94071   -1169.6459    6429.4276    11603.464    1825.0311 
  505800    299.62115   -1166.6703    6369.2536    11603.529    1771.6698 
  505900    300.35486   -1167.4026    6354.2811    11603.499    1887.1643 
  506000    294.27392   -1166.2509    6483.0416    11603.501    1943.4373 
  506100     298.5327   -1158.4666    6384.2657    11603.492    1829.7528 
  506200    299.84002   -1156.4332    6354.2007    11603.389    1878.9724 
  506300     297.8138   -1152.2614    6393.2362     11603.31     1958.161 
  506400    301.81509   -1156.1842    6311.7247    11603.357    1850.1366 
  506500    297.73606   -1151.3166    6394.0083    11603.366    1814.6721 
  506600    296.66727   -1157.1768    6422.6685    11603.333    1860.8921 
  506700    301.84772   -1160.7294    6315.6012    11603.385    1835.1745 
  506800    295.57302   -1165.2934    6454.2766    11603.447    1879.0666 
  506900    297.51235   -1162.7452    6410.3234    11603.473    1852.6403 
  507000    298.29438   -1163.6926     6394.476    11603.385    1799.0448 
  507100    298.34009   -1163.1985    6392.9596    11603.339    1756.7642 
  507200    297.68421    -1160.246    6404.1043    11603.425    1843.7652 
  507300     297.3263   -1165.0944    6416.4412    11603.267    1848.4691 
  507400    300.48094   -1159.7447    6343.8121    11603.382    1831.8181 
  507500    298.41677   -1163.7025    6391.8705    11603.384    1816.2006 
  507600     298.0215   -1167.6995    6404.3274      11603.4    1859.8068 
  507700    302.42227   -1162.9814    6305.6562    11603.463    1818.3877 
  507800    300.96488   -1162.0448    6335.8407    11603.449    1829.2978 
  507900    297.83408   -1168.3682     6409.139    11603.539    1853.0017 
  508000    298.22327   -1164.4112    6396.8741    11603.545    1835.5463 
  508100    301.13951   -1163.3119    6333.4302    11603.502    1788.7697 
  508200    294.95988   -1166.3396    6468.4777    11603.503    1869.7702 
  508300    301.55739   -1163.3565    6324.5224    11603.477    1881.1232 
  508400    301.64207     -1161.76    6321.0943    11603.454    1799.7149 
  508500    296.00074   -1159.1252    6439.0509    11603.527     1848.527 
  508600    300.73158   -1168.7219    6347.4899    11603.437     1833.669 
  508700    294.60476   -1161.7536    6471.4764    11603.502    1810.6425 
  508800    302.25255   -1166.8269    6313.0712    11603.406    1804.4819 
  508900    296.45404   -1168.3337    6438.5472    11603.499    1908.2201 
  509000    299.27859   -1164.7049    6374.5253    11603.448    1847.3916 
  509100    300.93548   -1165.2944    6339.7045    11603.435    1824.3997 
  509200    299.18969   -1165.3199    6377.0046    11603.413    1847.1785 
  509300    297.31296   -1161.8909    6413.6929    11603.437    1835.3957 
  509400     301.2168    -1163.815    6332.1265    11603.346    1869.7494 
  509500    299.95657   -1164.0643    6359.3911    11603.439    1925.7659 
  509600    296.07745   -1164.7911    6443.0813    11603.531    1966.8844 
  509700    298.28862     -1160.71    6391.7193    11603.488      1826.12 
  509800    296.96842   -1163.8504    6423.0693    11603.494    1818.6345 
  509900    298.84129   -1160.7511    6379.9475    11603.482    1930.3112 
  510000    297.09419   -1160.0749    6416.5607    11603.447    1850.0016 
  510100     297.1712    -1157.276    6412.0906    11603.421    1881.4752 
  510200    296.99875   -1163.3415    6421.8554    11603.436    1935.3149 
  510300     299.2357   -1158.1763    6368.9656    11603.501    1880.0933 
  510400    295.02632   -1164.5891    6465.1953    11603.391    1883.5787 
  510500    300.30451   -1163.8205    6351.6808    11603.405    1910.6266 
  510600    297.16961   -1168.8223      6423.67     11603.42    1899.2841 
  510700    299.60756   -1164.9411    6367.6928    11603.407    1866.8312 
  510800    298.66851   -1164.0433    6386.8455    11603.397    1906.0112 
  510900    293.85237   -1157.7479    6483.4843    11603.441    1890.2714 
  511000    297.78671   -1162.0291    6403.6457    11603.373    1824.0861 
  511100    301.85889   -1169.6953    6324.2928     11603.35    1830.9558 
  511200    297.47885   -1164.1617    6412.3872    11603.405    1884.4624 
  511300    301.06723   -1162.5594    6334.0569    11603.337     1775.836 
  511400    297.19507   -1162.8464    6417.0156    11603.286    1803.8515 
  511500    300.35102   -1158.7852     6345.624    11603.378    1863.0825 
  511600    296.56077    -1163.086    6430.9513    11603.431    1886.0611 
  511700    298.13736   -1164.0242    6398.2411    11603.464    1841.7098 
  511800    297.85896   -1164.3509    6404.4912     11603.44    1906.8403 
  511900    303.02158   -1169.8541    6299.7182    11603.455    1862.5561 
  512000    294.56256   -1161.2177    6471.7208     11603.38    1907.0082 
  512100    297.50173   -1158.9453    6406.7683    11603.491    1935.7229 
  512200    303.09686   -1164.7974    6292.9738    11603.376    1900.6582 
  512300    295.89355   -1160.0187      6442.11    11603.403    1908.8351 
  512400    300.91137    -1168.142    6343.0559    11603.424    1836.3223 
  512500    294.05601   -1159.0678    6480.4147    11603.402    1910.9678 
  512600    301.97736   -1160.1011    6312.2851    11603.467    1835.2911 
  512700    298.95202   -1167.9058    6384.7003    11603.446    1871.8686 
  512800    300.45548   -1163.5909    6348.2262    11603.406    1847.6263 
  512900     299.5937   -1166.3242    6369.3656    11603.401    1804.5469 
  513000    300.13056   -1168.7194    6360.3408     11603.45    1812.8865 
  513100    300.58024   -1168.9022    6350.9542    11603.488    1835.1818 
  513200    300.82298    -1166.284    6343.0602    11603.398    1791.5927 
  513300    291.79494   -1161.8229    6531.4993    11603.428     1839.103 
  513400    300.06533   -1163.8608    6356.9539    11603.528    1849.4406 
  513500    300.97935   -1160.4059    6333.9073    11603.463    1926.0729 
  513600    295.13837   -1163.5952    6461.8421    11603.425    1899.9722 
  513700    300.72361   -1165.2566    6344.2471    11603.489    1863.2674 
  513800    298.01713   -1165.0227    6401.8645     11603.52    1837.2256 
  513900    295.97467    -1164.402    6444.7888    11603.431      1839.76 
  514000    304.40002   -1164.1725    6264.4769    11603.344    1875.5324 
  514100    295.85878   -1170.1012    6453.0116    11603.479     1949.312 
  514200    297.83704   -1166.7745    6407.4544    11603.511    1881.3827 
  514300    299.06077   -1168.5426    6382.9835    11603.415    1893.4942 
  514400    298.10953   -1161.4866    6396.2962    11603.462    1891.3295 
  514500    299.34154   -1161.9012    6370.4484     11603.52    1884.2993 
  514600    299.58936   -1157.7969    6360.9805    11603.451    1906.4872 
  514700    298.16705   -1162.6752    6396.2667    11603.473    1902.7327 
  514800    301.55639   -1168.6822    6329.7792    11603.386    1865.0904 
  514900     297.0786    -1166.119    6422.9911    11603.501    1865.8882 
  515000    298.61866   -1167.9531    6391.9524    11603.529     1867.367 
  515100    298.18224   -1166.0238    6399.3109    11603.493    1869.5627 
  515200    300.60721   -1166.1513    6347.6351    11603.496    1860.5408 
  515300    298.90479   -1168.0334     6385.841     11603.45    1849.4027 
  515400    295.78716   -1163.9666    6448.3625    11603.435     1864.915 
  515500    298.56816   -1151.2823    6376.1822    11603.351    1817.9086 
  515600    297.53423   -1160.9018    6407.9691     11603.43    1934.4952 
  515700    298.65901   -1164.4056    6387.4419    11603.428    1906.5879 
  515800    300.99554    -1164.881    6338.0422    11603.469    1879.0022 
  515900    296.69917   -1159.9772    6424.8423    11603.388    1930.5524 
  516000    300.38545   -1168.7343    6354.8589    11603.399    1896.0182 
  516100    296.82783   -1165.0481    6427.2525    11603.475    1859.4271 
  516200    298.36498   -1162.5852    6391.8822    11603.407     1878.297 
  516300    300.68922   -1167.8234    6347.4275    11603.368    1932.3207 
  516400    293.70558   -1161.3593    6490.1926    11603.402    1834.6671 
  516500    302.81387   -1167.3261    6301.6206    11603.448    1834.0567 
  516600    294.02416   -1159.0676    6481.1056    11603.413    1938.2088 
  516700    297.48483     -1167.29    6415.3379    11603.355    1865.1988 
  516800    300.21964   -1166.7758    6356.4503    11603.406    1870.3559 
  516900       300.99   -1167.6327    6340.9159    11603.473    1821.8782 
  517000    295.59444    -1165.174    6453.6584    11603.406    1847.3035 
  517100    300.79941   -1168.4025    6345.6901    11603.406     1832.805 
  517200    296.18198   -1168.1365    6444.1612    11603.498    1892.3871 
  517300    299.63019   -1164.8672    6367.2085     11603.48    1909.3453 
  517400    300.37782   -1163.0228    6349.3906    11603.479    1915.1017 
  517500    299.74056    -1164.005    6363.9776     11603.47    1893.4344 
  517600    294.36065   -1166.6353    6481.5946    11603.523      1895.02 
  517700    299.23511    -1160.313    6371.0284    11603.414     1799.758 
  517800    295.61487   -1166.7385    6454.7529    11603.373    1836.8685 
  517900    299.65809   -1165.4483    6367.2417    11603.529    1854.4055 
  518000    298.99063   -1164.8428    6380.8267     11603.46    1908.1642 
  518100    300.58441   -1170.5672    6352.4979    11603.455    1891.0835 
  518200    295.17612   -1159.7885     6457.324     11603.52    1855.2912 
  518300    298.06929   -1164.9628    6400.6382    11603.469     1877.102 
  518400    302.06896   -1166.0944    6316.1887    11603.334    1908.4357 
  518500    295.21155   -1164.1397    6460.8299    11603.432    1925.3364 
  518600    299.90596   -1166.3219    6362.6587    11603.368    1824.6488 
  518700    300.45537   -1160.3932    6344.9504    11603.325    1836.6088 
  518800    294.60593   -1157.4838    6467.0272    11603.347    1883.4609 
  518900    298.33148   -1160.6971    6390.6232     11603.32    1882.8835 
  519000    299.60425   -1158.4377    6361.1695    11603.317    1845.5366 
  519100    301.68407   -1163.5073    6321.8033    11603.313    1817.8917 
  519200    295.07753   -1155.8976    6455.3948    11603.376    1821.5141 
  519300    303.23646   -1160.3834    6285.5246    11603.323    1753.1478 
  519400    296.14052   -1160.6961    6437.4794    11603.371    1796.9881 
  519500    297.27412   -1162.4984      6415.08    11603.387    1856.7107 
  519600    297.60086   -1159.7328    6405.2496    11603.303    1862.1403 
  519700    298.93352   -1161.9684    6379.0702    11603.358    1874.8863 
  519800    298.92432   -1163.2047    6380.4862    11603.341    1848.3446 
  519900    297.11711   -1164.5064    6420.5305    11603.475    1923.4925 
  520000    302.56149    -1162.367    6302.0865    11603.481    1833.3309 
  520100    296.14696   -1161.5977    6438.3197    11603.447    1884.3981 
  520200    300.91707   -1162.8877    6337.6675    11603.411    1891.8658 
  520300    297.07083   -1160.2358    6417.3214    11603.548    1883.8507 
  520400    300.52928   -1161.2442    6344.3389    11603.442    1877.2844 
  520500    296.04858   -1162.4663    6441.2903    11603.448    1904.6169 
  520600     301.6537   -1166.6523    6325.7232    11603.439    1863.8535 
  520700    296.53811   -1166.7392    6435.2132    11603.556    1872.1058 
  520800    300.45641   -1165.9675    6350.7723    11603.595    1809.7362 
  520900    295.19713   -1166.5305    6463.6225    11603.526    1874.3602 
  521000    299.35034   -1164.3897    6372.7208    11603.492    1857.6626 
  521100    297.91028   -1163.4211    6402.4516    11603.427    1840.0681 
  521200    298.55992   -1166.3492    6391.4737    11603.399    1845.1836 
  521300    302.11865   -1163.2821    6312.4482    11603.467    1842.5498 
  521400    300.12097   -1164.4765    6356.3299    11603.477    1882.8824 
  521500    297.75927   -1164.5917    6406.9056    11603.484    1865.1117 
  521600    298.78989   -1168.9181    6389.1523    11603.422    1852.2925 
  521700    297.68014   -1164.7011    6408.6721     11603.45    1920.3863 
  521800    294.38462   -1159.1092    6473.4483    11603.415    1958.0473 
  521900    299.62286   -1160.3301    6362.6741    11603.327    1878.7669 
  522000    296.58076   -1163.9058    6431.3274    11603.414    1892.0247 
  522100    297.91172   -1162.1886    6401.1767    11603.415    1885.0728 
  522200    297.49368   -1161.1551    6409.0021    11603.343    1889.0672 
  522300    299.45288   -1162.0196    6367.9913    11603.323    1862.8396 
  522400     297.6043   -1159.4026    6404.9022    11603.359    1875.9722 
  522500    296.17022   -1159.2833    6435.4787    11603.418    1878.8426 
  522600    301.23811   -1157.8025    6325.5627     11603.25    1797.0233 
  522700    295.72495   -1157.0191    6442.6508    11603.342    1878.0712 
  522800     298.8524   -1158.3053    6377.1317    11603.349    1827.1301 
  522900    297.34355   -1157.6058    6408.6172      11603.3    1851.8616 
  523000    295.98438   -1159.7634    6439.8797    11603.369    1890.8787 
  523100    299.13773     -1161.82    6374.6548    11603.453    1870.0037 
  523200    296.32935   -1167.1437     6439.929    11603.407    1848.4317 
  523300    299.86903   -1166.4793     6363.625    11603.387    1825.7817 
  523400    295.64712    -1162.883     6450.328    11603.492    1908.5179 
  523500    300.58731   -1161.9242    6343.7407    11603.403    1850.5418 
  523600    299.71055   -1166.0891    6366.7127     11603.48    1897.9001 
  523700      298.785    -1164.647     6385.108    11603.544    1934.8946 
  523800     296.1043   -1162.0672    6439.7774    11603.524    1870.8579 
  523900    304.08301   -1160.6862    6267.9379    11603.519    1822.4432 
  524000     294.9543   -1165.7192    6468.0839    11603.611    1947.8177 
  524100    299.94036   -1170.1924    6365.9404    11603.514    1888.8705 
  524200    298.44264   -1168.5489    6396.3739    11603.594    1894.2471 
  524300    297.43051   -1172.3608    6421.8461    11603.632    1891.9562 
  524400    299.81323   -1166.8211    6365.3339    11603.562    1859.8773 
  524500    298.79667   -1170.2088    6390.4658    11603.589    1848.5231 
  524600    298.71531   -1170.9982    6392.9699    11603.566    1831.0798 
  524700    301.07214   -1169.4248    6341.0384    11603.558    1875.6915 
  524800    300.13139   -1166.6864    6358.3126    11603.473    1870.5183 
  524900     303.3832   -1165.1357    6287.2635    11603.444    1842.0225 
  525000     296.0123   -1161.6902     6441.379    11603.537    1920.3383 
  525100    297.11325   -1169.4638    6425.4519    11603.357    1822.9297 
  525200    298.03759   -1162.9521    6399.2495    11603.413    1797.0812 
  525300    299.64852   -1166.2707    6368.1599     11603.42    1836.5199 
  525400    299.59112   -1165.6381    6368.7012    11603.368    1801.1357 
  525500    298.58511    -1160.057    6384.6634    11603.419    1839.2876 
  525600    294.77435   -1158.1603    6464.2078    11603.449    1888.1471 
  525700    301.58645   -1160.3294    6320.8321    11603.435    1784.5551 
  525800    297.69173   -1158.7141    6402.3499    11603.363    1833.7209 
  525900    297.91423   -1162.3437    6401.2764    11603.413    1899.4647 
  526000    300.76217   -1157.8246    6335.8748    11603.373    1908.1665 
  526100     301.9564   -1154.3151     6306.876    11603.396    1872.2389 
  526200     298.6064   -1159.2271    6383.2902    11603.331    1810.8078 
  526300    295.05214   -1159.1927    6459.1984    11603.342    1803.7986 
  526400    297.59801   -1160.2481    6405.9224    11603.399    1853.0298 
  526500    298.47531   -1159.3808    6386.3531    11603.439    1873.0571 
  526600    296.72776   -1163.5224    6427.7992     11603.41    1891.5215 
  526700    299.41983   -1166.1491    6372.9452    11603.441    1879.0793 
  526800    296.07772   -1160.2896    6438.5068    11603.463    1862.7661 
  526900    298.18429   -1159.1531    6392.3224    11603.419    1873.4548 
  527000    295.22308   -1162.8507     6459.233     11603.37    1875.3652 
  527100    300.62655   -1162.8303     6343.809    11603.404    1789.2034 
  527200    300.79536     -1161.77    6339.1769    11603.438    1775.5408 
  527300    294.71142   -1165.0012    6472.5121    11603.568    1871.7259 
  527400    298.55142     -1170.41    6395.9394    11603.622    1803.5382 
  527500    298.94552   -1174.5267    6391.6665    11603.652    1877.5133 
  527600    297.81504   -1171.3095    6412.5373    11603.589    1892.8713 
  527700    299.26782   -1171.5765    6381.8524    11603.674    1930.8384 
  527800    300.23762   -1171.4019    6360.8477    11603.562    1864.7558 
  527900    297.37937     -1165.55    6416.0844    11603.588    1869.9776 
  528000    297.51087   -1161.1175     6408.879    11603.625     1871.658 
  528100    299.46888   -1165.9415     6371.868     11603.62    1875.0207 
  528200    297.12833   -1161.2811    6417.1277    11603.538     1948.241 
  528300    299.69456    -1168.303    6369.3522    11603.564    1910.2793 
  528400    298.76627   -1169.9107    6390.8313    11603.603    1849.5042 
  528500    296.37997   -1168.8206    6440.6854    11603.568    1842.4304 
  528600    297.91008   -1168.1236    6407.3267    11603.595    1823.3357 
  528700    300.95853   -1169.0215    6342.9518    11603.448    1776.6439 
  528800    296.69069   -1163.8228    6429.0218     11603.54    1855.0416 
  528900    297.02359   -1160.4586    6418.4317    11603.426    1870.7442 
  529000    296.24303   -1158.8916    6433.4925    11603.379    1840.2879 
  529100     299.8924   -1155.0831    6351.6927    11603.351    1813.6013 
  529200    300.78926   -1164.0816    6341.5454    11603.365    1884.3644 
  529300    296.16039   -1164.1536    6440.5119    11603.371    1835.1486 
  529400    297.12015   -1159.8366    6415.7367    11603.416    1815.2791 
  529500     299.0508   -1163.4285    6378.0918    11603.425    1881.7756 
  529600    295.58432   -1161.7445     6450.443    11603.404     1896.088 
  529700     300.1071   -1162.0537    6354.1017    11603.376    1837.5081 
  529800     298.4768   -1158.5165    6385.4583    11603.441    1884.4611 
  529900     301.4477   -1158.5054    6321.8329    11603.295    1808.5529 
  530000    296.26384   -1160.4375    6434.6324    11603.417    1852.1838 
  530100    298.17167   -1161.4991    6394.9392     11603.42      1868.39 
  530200     301.3415   -1165.2682    6330.9942    11603.425     1877.177 
  530300    293.89785   -1157.3708    6482.0999    11603.406    1837.1823 
  530400    301.25385   -1165.0264     6332.635    11603.435    1821.6823 
  530500    298.42154   -1166.3873    6394.6217    11603.553    1818.2423 
  530600    296.63997   -1165.5168    6431.8258    11603.567    1819.8222 
  530700    299.46861   -1169.3357    6375.0913    11603.443    1841.9207 
  530800    298.34057   -1168.0473    6398.0048    11603.546    1910.8568 
  530900    293.99382   -1168.9708    6491.7734    11603.529    1845.4417 
  531000    297.66743   -1168.0787     6412.352    11603.481    1826.8246 
  531100    298.97792   -1162.4104    6378.6297    11603.424    1797.8354 
  531200    297.83727   -1167.2157    6407.8645    11603.485     1804.574 
  531300    298.63522   -1168.4532    6392.1596     11603.59    1793.1882 
  531400    298.09415   -1165.1773    6400.3062    11603.453    1798.4782 
  531500    299.35698   -1169.4896    6377.6562    11603.469    1868.9305 
  531600    299.99634   -1166.3585    6360.8791    11603.482    1873.8566 
  531700     297.1944   -1171.0045    6425.4104    11603.508    1875.1384 
  531800    297.35296    -1168.833    6419.8421    11603.499    1887.9475 
  531900    299.63564   -1168.5554    6370.7424    11603.443    1866.5254 
  532000    297.38583   -1165.3884    6415.7005    11603.504    1828.0397 
  532100    299.16997   -1167.1273    6379.3316    11603.512    1870.4319 
  532200    300.39074    -1157.462    6343.5154    11603.441    1824.8687 
  532300    297.42971   -1156.2135    6405.5172    11603.433    1855.8041 
  532400     300.8575   -1163.9448     6340.124    11603.538    1870.2166 
  532500    294.31142   -1159.5846    6475.5425     11603.47    1898.2248 
  532600     298.6975   -1159.7291    6382.0159      11603.5    1859.5449 
  532700    300.95187    -1161.035    6335.0632    11603.403    1848.1344 
  532800     298.0903   -1161.8929    6397.0606     11603.41    1843.5095 
  532900    301.45301   -1165.5831    6328.9257    11603.424    1790.2683 
  533000     296.6158   -1163.4007    6430.1249    11603.466    1829.5015 
  533100    298.62446   -1165.4155    6389.1558    11603.394    1862.1275 
  533200    298.93003   -1161.3884    6378.5522    11603.345    1917.3194 
  533300    297.26687   -1164.1773    6416.8517    11603.325    1938.1888 
  533400    300.89445    -1163.648     6338.921    11603.421    1816.3272 
  533500    296.12271    -1157.026    6434.2398    11603.421    1839.2811 
  533600    302.68292   -1164.8261    6301.9272    11603.457    1885.4689 
  533700    293.37518   -1157.3999    6493.4072    11603.518    1935.9344 
  533800    297.38256   -1164.9485    6415.3431    11603.517    1881.2725 
  533900    299.43342   -1170.5698    6377.1494    11603.515    1865.9678 
  534000    300.78066   -1168.9601    6346.7502    11603.507    1868.2705 
  534100     296.1924   -1165.1199     6440.969    11603.545    1883.3093 
  534200    300.84788   -1167.2272    6343.5734    11603.499    1815.8879 
  534300    299.01798   -1168.2228    6383.7051    11603.543    1877.1914 
  534400    299.22471   -1169.0015    6380.1084    11603.584    1883.0164 
  534500    296.06109   -1166.0029    6444.7014    11603.589    1874.7708 
  534600    300.42414   -1167.0506    6352.5097     11603.56    1904.9218 
  534700    299.64972   -1171.7746    6373.8065    11603.588    1921.4363 
  534800    300.08101   -1167.0188    6359.8622    11603.614    1800.7044 
  534900    297.02435   -1166.4038    6424.6011    11603.667    1861.8607 
  535000    299.27015   -1168.5583    6378.7432    11603.632    1877.2285 
  535100    298.61899   -1169.2638    6393.3247    11603.598    1846.1178 
  535200    301.79286   -1165.5407    6321.8159    11603.617    1886.8759 
  535300    297.70986   -1164.0964     6407.559    11603.577    1888.5624 
  535400    296.14941   -1164.8576    6441.6534    11603.573    1844.4222 
  535500    297.48513   -1164.4739    6412.6919    11603.531    1828.9508 
  535600    298.95029   -1163.9063    6380.8077    11603.516    1859.9951 
  535700    298.90154   -1166.1425     6384.029    11603.459    1907.4541 
  535800    299.62495   -1162.8453    6365.2648    11603.447    1866.5621 
  535900    299.67208   -1164.2079    6365.5782    11603.405    1859.2431 
  536000    298.96288   -1158.9898    6375.5523    11603.446    1900.5545 
  536100    300.87334   -1165.0008    6340.6725    11603.369     1869.205 
  536200     298.8681   -1161.5897    6380.1826    11603.451    1910.0924 
  536300    293.76753   -1160.2188    6487.8246    11603.498    1942.4661 
  536400    298.19279   -1167.3238    6400.2593    11603.367    1829.6099 
  536500    299.36185   -1161.0574    6369.0883    11603.437    1856.2844 
  536600    296.88507   -1165.6119     6426.654    11603.536    1898.2131 
  536700    299.86702   -1163.7625    6360.9836     11603.42    1876.5378 
  536800    298.51321   -1161.7521    6387.8254     11603.35    1843.1505 
  536900    299.67837   -1158.6468    6359.9802    11603.502    1818.8401 
  537000    296.58261   -1164.0556    6431.5186    11603.495    1890.3219 
  537100    300.95935   -1163.4166    6337.3378    11603.456    1796.0362 
  537200    300.16484   -1164.2088    6355.1376     11603.49    1839.8978 
  537300    295.07991   -1162.6092    6462.2537    11603.574    1841.7766 
  537400    299.90504    -1167.184     6363.831    11603.658    1818.0209 
  537500    296.44077   -1166.2334    6436.9419    11603.711    1841.3129 
  537600    301.89042   -1168.6172    6322.8309    11603.639    1888.5616 
  537700    298.33896   -1166.5153    6396.6654    11603.704    1887.0771 
  537800     295.3907   -1165.6623    6458.7574    11603.664    1893.3846 
  537900    301.86633   -1165.0829    6319.7896    11603.618     1876.328 
  538000    296.17806   -1162.3391    6438.6238    11603.675    1899.5592 
  538100    301.17373   -1168.4072    6337.9232    11603.631    1900.8634 
  538200    298.37389   -1163.6215    6392.9731    11603.652     1949.965 
  538300    299.01555   -1170.5813    6386.1737    11603.601    1903.3941 
  538400    298.58794    -1171.323    6395.9892    11603.539    1882.1942 
  538500     299.6844   -1171.0109    6372.2386    11603.525    1863.2865 
  538600    297.75538   -1169.0618    6411.5399    11603.565    1967.6995 
  538700    299.63598   -1167.2234    6369.5155    11603.555    1892.8702 
  538800    294.61394   -1164.6139    6474.1499    11603.511    1879.5844 
  538900    299.25864   -1164.7527     6374.957    11603.406     1848.958 
  539000    298.20619   -1155.5252    6388.2555    11603.448    1906.5209 
  539100     302.1447   -1166.0859    6314.6256    11603.398    1861.3969 
  539200    298.44102   -1163.1728    6390.9093    11603.471    1817.2596 
  539300    296.20084   -1163.0115    6438.6287    11603.494    1845.2217 
  539400    297.67817   -1165.0637    6409.1002    11603.474    1872.5945 
  539500    300.01872   -1163.1939    6357.2209    11603.467    1811.6585 
  539600    300.87363    -1170.687    6346.4648    11603.481    1863.3805 
  539700    297.19602   -1168.4856    6422.8423    11603.494    1847.2298 
  539800    299.39379   -1165.2619    6372.5671    11603.394    1820.3421 
  539900    298.62107     -1165.72    6389.5387      11603.4    1904.3204 
  540000     295.9613   -1160.8293    6441.5626    11603.492    1920.2187 
  540100    303.82718   -1163.2462    6275.8145     11603.37    1834.1058 
  540200    295.45643   -1163.1363    6454.5482    11603.385    1893.7153 
  540300    297.96417   -1164.6103    6402.5443    11603.481    1890.9374 
  540400    297.47662   -1162.9219    6411.2912    11603.501    1910.7725 
  540500    298.85948   -1161.4389    6380.2585    11603.494    1894.6707 
  540600    299.69982   -1165.5606    6366.4912    11603.557    1880.5192 
  540700    295.54125   -1168.7357    6458.5333    11603.583    1911.9182 
  540800    302.29606   -1164.7801    6310.2666    11603.578    1844.9574 
  540900     298.2407   -1167.4349     6399.568    11603.588    1922.4687 
  541000    297.89652   -1164.7436    6404.1331    11603.492    1958.2825 
  541100     300.1219   -1166.7865    6358.7674    11603.625    1891.3911 
  541200    298.30404   -1163.8293    6394.5802    11603.559    1854.3289 
  541300    299.95707   -1169.8635    6365.3454    11603.604    1863.3903 
  541400    301.78852   -1172.4316    6328.8225     11603.64    1915.3164 
  541500    295.14769   -1175.2311     6473.458    11603.605    1901.9004 
  541600    301.03009   -1170.1462    6342.6733    11603.573    1830.8655 
  541700    299.50461   -1166.3489     6371.462     11603.57    1848.9619 
  541800    296.92067   -1168.9171    6429.1933    11603.531    1854.0962 
  541900    299.43973   -1161.3098    6367.7169    11603.477    1878.0859 
  542000    297.38991   -1167.7763    6418.0015    11603.504    1919.1354 
  542100    298.89831     -1167.38    6385.4327    11603.556    1882.4288 
  542200    298.58539   -1163.9759    6388.6995    11603.542    1888.1901 
  542300    296.01207    -1163.941    6443.6325    11603.535    1919.3808 
  542400    299.14222   -1172.2722     6385.087    11603.529    1902.8126 
  542500    298.82909   -1169.3362    6388.9077    11603.596    1935.4565 
  542600    298.21946   -1162.1896    6394.6865    11603.498    1935.5915 
  542700     296.5989   -1165.0864    6432.1318    11603.426    1948.4598 
  542800    298.96227   -1160.9826    6377.5171    11603.405    1948.7513 
  542900    299.91204   -1163.2874    6359.4787    11603.352    1945.1784 
  543000    299.88032   -1158.8263    6355.7882    11603.445    1975.1489 
  543100    298.67457   -1160.0323    6382.7037    11603.395    1920.0277 
  543200    296.65668   -1160.3581    6426.1262    11603.383    1882.7774 
  543300     302.4108   -1158.8082    6301.6651      11603.4     1844.512 
  543400    296.14213   -1164.2143     6441.045    11603.453    1898.8363 
  543500    299.55325    -1161.892     6365.934    11603.538    1871.6583 
  543600    297.05288   -1166.3532    6423.8015    11603.527    1939.1995 
  543700    294.49763   -1162.0869    6474.0446    11603.448    1898.3909 
  543800    298.44774   -1161.6865    6389.1914    11603.383    1864.5508 
  543900     297.0977   -1158.0135    6414.4134    11603.436    1909.4062 
  544000    298.08656   -1162.1726    6397.4427    11603.432    1896.0896 
  544100    297.58868   -1160.2417    6406.0528    11603.337    1880.1481 
  544200    301.51408   -1167.7072    6329.8501    11603.529    1867.4517 
  544300    293.16319    -1159.108    6499.6567     11603.53    1849.0452 
  544400    301.88125   -1169.8109     6324.157    11603.576    1825.6281 
  544500    296.07615   -1165.6071    6443.8843     11603.49    1827.0506 
  544600      302.685   -1169.7239    6306.8449    11603.521    1856.9626 
  544700    298.35477   -1163.8903    6393.5034    11603.505    1831.8339 
  544800    298.42947   -1167.3412    6395.3838     11603.53     1898.676 
  544900    297.24986   -1152.9453    6406.1899    11603.532    1924.4106 
  545000    298.63314   -1157.4184     6381.074    11603.494    1839.0197 
  545100    300.99775   -1164.2729    6337.4414    11603.523     1878.537 
  545200    294.91611   -1162.2184    6465.3765    11603.588    1973.2825 
  545300    301.22157   -1168.7127    6337.1831    11603.607    1866.8579 
  545400     298.3569   -1170.6211    6400.1796    11603.496    1878.5934 
  545500    298.34517    -1166.056    6395.9034    11603.534    1858.6633 
  545600     298.4054    -1170.219    6398.7595    11603.514    1872.3051 
  545700    297.76717   -1168.5187    6410.7264    11603.546    1811.3577 
  545800    296.57093   -1165.3505    6433.0615    11603.494    1903.4862 
  545900    299.62735   -1162.1296    6364.6052    11603.554    1920.9922 
  546000    296.56917   -1162.2938    6430.0184     11603.47    1832.1591 
  546100    299.30792   -1158.3013    6367.4641    11603.417    1850.5345 
  546200    300.68345   -1159.9365    6339.8657     11603.57    1955.4202 
  546300    297.23087   -1161.9857    6415.5725    11603.468    1836.8179 
  546400    298.72769   -1167.3652    6388.9707    11603.464    1844.2298 
  546500    303.52835   -1168.2033    6287.2625    11603.477    1868.1992 
  546600    296.98093   -1169.3359     6428.299    11603.505    1899.3658 
  546700    299.49804    -1162.324     6367.387    11603.379    1802.1137 
  546800    297.30694   -1159.0811    6411.0354    11603.461    1899.6699 
  546900    298.65333   -1159.9839    6383.1199    11603.406    1881.9107 
  547000    298.88343   -1163.5623    6381.7971    11603.421    1886.0675 
  547100    300.24631    -1160.306    6349.4122    11603.408    1888.4218 
  547200    296.86657   -1159.9019     6421.269    11603.466    1944.1631 
  547300    301.74401   -1162.7825    6319.9625    11603.478    1787.8547 
  547400    293.01418   -1163.5947    6507.2381    11603.442     1861.697 
  547500    302.62618   -1162.8692    6301.1352     11603.41    1893.9882 
  547600    297.92703   -1167.2037    6405.9027    11603.453    1900.5807 
  547700    295.83148   -1165.6922    6449.0618    11603.355    1896.8272 
  547800     299.8742   -1165.8891    6362.9003    11603.363    1918.5508 
  547900    297.88569   -1169.9204    6409.4161    11603.366    1920.1199 
  548000    299.82096   -1166.8687    6365.1331    11603.479    1880.8403 
  548100    297.25014   -1166.1061    6419.2988    11603.486    1934.3512 
  548200    299.86745   -1164.5883    6361.9181    11603.538    1890.0792 
  548300    298.10698    -1157.371    6392.3553    11603.583    1906.7071 
  548400    299.16403   -1168.6969    6380.9862     11603.47    1929.7117 
  548500    297.75006   -1166.9711    6409.5471    11603.549    1889.5165 
  548600    300.14143   -1164.8389     6356.308     11603.53    1843.8581 
  548700    296.85136   -1164.6851    6426.4867    11603.575    1952.1538 
  548800    298.62362   -1167.5242    6391.4331    11603.544    1923.5929 
  548900    299.17245   -1172.5256    6384.7964    11603.631    1946.2865 
  549000    298.26524   -1172.2959    6403.8895    11603.573    1935.5227 
  549100    297.33178   -1175.7171    6427.2695     11603.59    1930.5249 
  549200    299.82993   -1171.8129    6370.0744    11603.668    1938.8112 
  549300    296.38717   -1174.2729    6446.0231    11603.607    1898.9003 
  549400    299.11055   -1168.9203    6382.4751    11603.593    1894.2903 
  549500    299.75069    -1167.946    6367.7595    11603.527    1914.0731 
  549600    299.40538   -1166.0312    6373.2323    11603.538    1897.4548 
  549700    296.83587   -1168.3123    6430.4552    11603.586    1872.4341 
  549800    299.31339   -1168.0535    6377.2259    11603.544    1864.6902 
  549900    297.17527   -1171.7102    6426.6506    11603.634    1873.5399 
  550000    296.92629   -1169.1682    6429.4015    11603.608    1935.6943 
  550100    299.39899   -1168.2366    6375.5409    11603.504    1919.9616 
  550200    296.69127   -1172.2754    6437.4654    11603.544    1901.4926 
  550300     299.4891   -1165.7583    6371.2016    11603.568    1906.1363 
  550400    296.74928   -1168.0078      6431.92    11603.505    1871.2128 
  550500    298.38802   -1158.9451    6387.8139    11603.471    1944.4633 
  550600    298.96342   -1162.4363     6378.909    11603.367    1906.6978 
  550700    295.48123   -1159.6198    6450.5822    11603.465     1915.793 
  550800    300.78821   -1166.9165    6344.5621    11603.524    1917.9386 
  550900    298.63768   -1164.7413    6388.2085    11603.403    1869.9218 
  551000    293.75255   -1163.8776    6491.7741    11603.469    1845.0394 
  551100    302.45398   -1166.3812    6308.3955    11603.479     1864.953 
  551200    296.87672   -1161.9459    6423.1534    11603.523    1900.7627 
  551300    298.15139   -1161.6331    6395.5304    11603.444    1887.8256 
  551400    300.15006   -1164.6059    6355.8793    11603.519      1900.85 
  551500    299.78572   -1160.2499     6359.223    11603.435    1880.5491 
  551600    297.60822   -1160.2539    6405.7273    11603.416    1890.3152 
  551700    294.94195   -1166.2717    6468.7511    11603.462    1912.2131 
  551800    301.11181   -1166.6906    6337.4039    11603.505    1858.2704 
  551900    299.06552   -1171.0764    6385.5893    11603.589    1830.6802 
  552000    295.21704   -1167.0541     6463.659    11603.464    1872.1282 
  552100    298.64337    -1167.544    6390.9328    11603.446    1844.1986 
  552200    301.38552   -1169.3374    6334.1632    11603.465    1860.6053 
  552300    300.43165   -1166.9004    6352.1693     11603.53    1820.4043 
  552400    299.60701    -1164.396    6367.2962    11603.544    1818.0555 
  552500    299.27825   -1165.6783    6375.5471    11603.489    1849.6906 
  552600    299.23041   -1162.6792    6373.6474    11603.567     1878.924 
  552700    295.30687   -1168.0871    6462.8693     11603.56    1920.4962 
  552800    298.83756    -1174.682    6393.9956     11603.52    1872.9352 
  552900    300.26583   -1162.9784    6351.7966    11603.537    1843.8872 
  553000    297.40137   -1172.3929    6422.5099    11603.641    1819.5494 
  553100    296.54182   -1169.0476    6437.4717    11603.585    1890.7375 
  553200    302.24142   -1167.8064    6314.4955    11603.613    1902.1022 
  553300    297.89214   -1164.4945    6404.0946    11603.609    1958.8323 
  553400    295.24927    -1164.309    6460.3373    11603.576    1926.0952 
  553500    303.05602   -1162.6936     6291.946    11603.579    1923.1285 
  553600    298.19387   -1160.6489    6393.7163    11603.522    1934.2566 
  553700    296.96383   -1163.3958     6422.721    11603.502    1936.4615 
  553800    299.56776   -1154.9321    6358.6118    11603.485    1903.6407 
  553900    297.57212   -1161.2784    6407.5191    11603.412     1917.847 
  554000    296.19713   -1164.9297    6440.6513    11603.519    1969.9755 
  554100    300.13815   -1168.3118    6359.8373    11603.516    1819.7814 
  554200    299.13209   -1166.8222    6379.8147    11603.491    1850.8495 
  554300    296.47497   -1158.6752    6428.2238    11603.281    1877.9269 
  554400    299.59924   -1156.8229    6359.7034    11603.358    1871.1015 
  554500    294.56175   -1157.6967    6468.1384    11603.302    1883.1835 
  554600    300.13887   -1162.2351    6353.5593    11603.331    1849.3858 
  554700    296.49689    -1163.363     6432.545    11603.383    1962.5768 
  554800    301.68264   -1164.5754    6322.9111    11603.322     1909.626 
  554900    295.95902   -1163.6663    6444.3839    11603.428    1871.4023 
  555000    293.67529   -1155.7176    6485.3091    11603.514    1872.6663 
  555100    298.45588   -1161.7295    6389.0539    11603.376    1895.8732 
  555200    299.54525   -1161.0542    6365.1011    11603.372    1860.7145 
  555300    297.31221   -1159.9015    6411.8052    11603.523    1885.1496 
  555400    300.40199   -1172.0004    6357.8686    11603.496    1906.4909 
  555500    296.88218   -1165.1599    6426.1443    11603.417    1858.9306 
  555600    296.37796   -1164.4836    6436.3416    11603.518    1853.1335 
  555700    298.43306   -1163.7925    6391.7748    11603.547    1932.3617 
  555800     297.8899   -1161.4794    6401.0115    11603.493    1910.4282 
  555900    299.23003   -1170.2572    6381.2556    11603.589      1859.25 
  556000    299.72966   -1168.0752    6368.4122    11603.601    1810.2683 
  556100     296.0669   -1171.7345    6450.3005    11603.581    1864.6978 
  556200    298.70426   -1167.7642    6390.0056    11603.599     1823.277 
  556300    298.84999   -1164.8936    6383.9695    11603.547    1856.3535 
  556400    301.18155   -1165.9639    6335.2538    11603.572    1881.6495 
  556500    294.49885    -1164.896    6476.9144    11603.534    1963.5362 
  556600    300.54665   -1169.0542    6351.8657     11603.53    1833.9429 
  556700    299.80021   -1161.3063    6360.0927    11603.558    1804.8429 
  556800    299.53841   -1171.6392    6376.0082    11603.548    1821.3836 
  556900    297.05067   -1165.0934    6422.4835    11603.422    1858.2751 
  557000    295.56562     -1167.83    6456.9803    11603.456     1877.857 
  557100    297.25713   -1164.8756    6417.8914    11603.458    1885.9071 
  557200    301.44704   -1166.9889    6330.4477    11603.412    1849.6819 
  557300     300.0592   -1164.0206     6357.122    11603.406     1848.681 
  557400    297.80959   -1161.2699    6402.4896    11603.465    1839.7729 
  557500    298.43029   -1160.6866     6388.576    11603.395    1844.3427 
  557600    297.31507   -1165.6629    6417.4083    11603.426    1857.0369 
  557700    298.72616   -1164.5022    6386.0667    11603.391    1875.8221 
  557800    299.41939   -1162.8827     6369.615    11603.368    1844.9521 
  557900    293.77345   -1166.9299    6494.3151    11603.404    1894.2164 
  558000    301.05992   -1165.4169     6337.156    11603.422    1893.0194 
  558100     295.0464   -1158.7864    6458.9484    11603.376    1863.6969 
  558200    299.77893   -1163.5823    6362.6948    11603.429    1857.5272 
  558300    297.89541   -1163.8766     6403.328     11603.53    1963.5619 
  558400    297.07887   -1161.9526    6418.7814    11603.463    1915.0405 
  558500    299.29688   -1163.7948    6373.3213    11603.545    1876.1976 
  558600    296.53408   -1162.3141    6430.8322    11603.514    1912.1255 
  558700    303.82362    -1166.538    6279.3401    11603.528    1903.8419 
  558800    296.11611   -1170.6993    6448.1584    11603.525     1909.568 
  558900    297.45959   -1170.5779    6419.3923    11603.582    1918.7614 
  559000    299.60844   -1170.1481    6372.9805    11603.507    1937.8155 
  559100    298.60623   -1171.4178    6395.6827    11603.529    1917.9149 
  559200    297.77041   -1166.5022    6408.6855    11603.591    1961.1493 
  559300    303.61245   -1167.7118    6285.1306    11603.633    1963.0616 
  559400    296.43193   -1164.2331    6434.9467    11603.527    1941.5081 
  559500    300.65957    -1166.047    6346.5477    11603.631    1919.5617 
  559600    296.03968   -1167.8713    6447.0981     11603.66    1997.3647 
  559700     300.5504    -1170.967    6353.7846    11603.616    1945.4463 
  559800    299.42696   -1170.6827     6377.443    11603.558    1892.7505 
  559900    296.52273   -1168.6148    6437.4808    11603.619    1937.1432 
  560000    300.64556   -1168.6925    6349.4295    11603.568    1862.9602 
  560100    299.73126   -1161.6261    6361.8462    11603.519    1931.8702 
  560200    301.28637   -1166.7533     6333.755    11603.523    1986.7147 
  560300    295.40667   -1164.4322    6457.0255    11603.504    1993.3723 
  560400    302.06845   -1161.3598    6311.5877    11603.457    1872.8184 
  560500    298.04635    -1164.123     6400.316    11603.496    1851.9382 
  560600    296.82883   -1163.1188    6425.3771    11603.551     1884.135 
  560700    301.96477   -1168.9314    6321.4499    11603.532    1883.6362 
  560800    297.72867   -1164.3114    6407.3239    11603.529    1872.7748 
  560900    296.15102   -1165.2724    6441.9201     11603.46    1960.4464 
  561000    302.55236   -1156.9119    6296.7013    11603.356    1863.2863 
  561100    298.20025   -1163.4036    6396.2079    11603.395    1860.1062 
  561200    299.32162   -1156.9352     6365.844    11603.456    1904.5684 
  561300     301.2026   -1158.5973    6327.2038    11603.338    1799.0394 
  561400    295.00549   -1158.9683    6460.0275    11603.399    1832.9608 
  561500    302.84578   -1165.2805    6298.8731    11603.428    1846.2215 
  561600      298.267   -1167.8127    6399.1916    11603.396    1907.8568 
  561700    299.44189   -1163.9193    6370.2595    11603.457    1874.6955 
  561800    295.89657    -1172.931    6455.0899    11603.535    1964.7976 
  561900    298.15674   -1169.6624    6403.5166    11603.516    1930.0502 
  562000    298.11368   -1167.8761      6402.62    11603.485       1941.8 
  562100    299.33564   -1166.8881    6375.5424    11603.501    1991.2164 
  562200    299.33335   -1160.5181    6369.1978    11603.477    1989.5099 
  562300    297.70104   -1164.5044    6408.0792    11603.501    1974.9548 
  562400    300.28552   -1158.3862    6346.7151    11603.468    1950.5382 
  562500    302.46269   -1167.9159    6309.7824    11603.518    1899.0422 
  562600    296.49814   -1171.5682    6440.9152    11603.575    1961.5287 
  562700    300.43315   -1174.0677    6359.4127    11603.638    1887.2358 
  562800    296.87966   -1171.1515    6432.5061    11603.733    1873.3023 
  562900    298.17299   -1174.1116    6407.7695    11603.666    1905.3541 
  563000    297.42665    -1171.626    6421.2652    11603.703    1947.7284 
  563100    299.59666    -1164.207    6367.4502    11603.666    1918.0366 
  563200    296.34454   -1158.8816    6431.4893    11603.554    1971.3943 
  563300    300.52703   -1160.8954    6344.1692    11603.573    1975.7275 
  563400    295.96789   -1167.9482    6448.6218    11603.573    2022.8832 
  563500    299.16254   -1166.0579    6378.4797    11603.571    1976.9854 
  563600    300.68443   -1170.7481    6350.5918    11603.505     1938.684 
  563700    297.08499   -1168.6075    6425.3706    11603.528    1911.5313 
  563800    295.83306    -1167.238    6450.7134    11603.495    1900.8992 
  563900    301.35151   -1163.5396    6329.0527    11603.426    1880.6396 
  564000     299.1681   -1164.3057    6376.4666    11603.428    1836.5367 
  564100    298.02369   -1161.8588    6398.4121    11603.372    1902.8522 
  564200    297.95619    -1159.397    6397.3828    11603.363    1907.0514 
  564300    300.49741   -1156.0816    6339.8501    11603.435     1911.991 
  564400    298.57265   -1160.9376    6385.7939    11603.403    1907.0397 
  564500    300.36421   -1166.3123    6352.8799    11603.388    1834.3363 
  564600    296.54065   -1166.0427    6434.2186    11603.312     1876.926 
  564700    298.92805   -1162.7124    6379.9357    11603.362    1887.1857 
  564800    298.39365    -1169.106    6397.8205    11603.437     1869.924 
  564900    297.78958   -1163.8365    6405.5282    11603.509    1902.1613 
  565000    295.74164   -1163.5449    6448.8756    11603.397     1903.453 
  565100    297.25355   -1164.6923    6417.7006    11603.374    1907.5271 
  565200    298.44744   -1161.8039    6389.3788    11603.447    1914.7892 
  565300    299.49475   -1156.3214    6361.5613    11603.486    1938.4803 
  565400    300.95315   -1160.9078    6334.9065    11603.401    1916.5657 
  565500    299.94515   -1162.1485    6357.7368    11603.456    1925.7915 
  565600    299.37595   -1170.1105    6377.8671    11603.464    1925.7233 
  565700    299.42923   -1173.7063    6380.4353    11603.575    1864.9385 
  565800    296.77874   -1169.0795    6432.3975     11603.54    1850.7821 
  565900    298.52865   -1166.8559    6392.8432    11603.594    1860.3873 
  566000    299.71633   -1166.4611    6367.0574    11603.576     1867.372 
  566100    297.57597    -1165.703    6412.0149    11603.566    1825.8082 
  566200    301.00835   -1172.4514     6345.427    11603.557    1859.3917 
  566300    300.41466   -1164.4413    6350.1779    11603.635    1898.4795 
  566400    298.32052    -1165.211    6395.6745    11603.624    1871.2879 
  566500    298.40017   -1165.1656    6393.8862    11603.582    1966.2534 
  566600    299.66859   -1166.2696    6367.8814    11603.571     1916.218 
  566700    298.69662   -1164.7584    6387.1049    11603.541    1854.3133 
  566800    298.64709    -1171.231    6394.6237     11603.53    1850.0097 
  566900    298.58867   -1167.8374    6392.4284     11603.48    1872.1748 
  567000    297.36159   -1167.7733     6418.598    11603.499    1898.7279 
  567100    299.96716   -1165.3923    6360.5161    11603.462    1880.0271 
  567200    298.27664   -1164.1988     6395.441    11603.465     1854.524 
  567300    294.35639   -1158.3785    6473.3318    11603.426    1812.4988 
  567400    297.74597   -1160.2069    6402.7173    11603.396    1883.1024 
  567500    300.22845   -1161.6817    6351.1173    11603.356    1898.6127 
  567600    300.24643   -1159.5348    6348.5312    11603.301    1834.7005 
  567700    298.63093   -1160.5897    6384.1406    11603.343    1885.4049 
  567800    297.56535   -1163.0373    6409.3917    11603.381    1859.3902 
  567900    296.96802   -1157.0761    6416.1133    11603.303    1902.1631 
  568000    303.53039   -1164.4126    6283.3017     11603.35    1920.3199 
  568100    298.11321   -1166.2434    6400.8137    11603.302    1898.9889 
  568200    296.56985   -1157.2651    6424.8811    11603.376    1842.2352 
  568300     301.2992   -1161.0394     6327.538    11603.294     1887.938 
  568400    302.77097    -1163.279    6298.3621     11603.32    1897.3981 
  568500    298.10634   -1165.2613     6399.951    11603.274    1911.7276 
  568600    296.46141   -1159.9314    6429.8768    11603.389    1914.2658 
  568700    299.60804   -1158.1249    6360.8891     11603.43    1955.9365 
  568800    296.46794    -1159.148    6428.9023    11603.337    1877.8264 
  568900    299.38388   -1162.5091    6370.1493    11603.517     1869.295 
  569000    299.12983   -1166.2796    6379.3386    11603.509    1893.3623 
  569100    294.89206   -1165.9403    6469.4845    11603.461    1832.0781 
  569200    299.17332   -1165.7012    6377.8479    11603.526    1788.2383 
  569300     296.7401   -1168.5968     6432.793    11603.593    1871.9578 
  569400    300.37994   -1164.7719    6351.1695    11603.554    1871.0479 
  569500    299.14027   -1155.2295    6368.0514    11603.495    1906.2171 
  569600    302.14059   -1161.6506    6310.4116    11603.531    1943.3143 
  569700    297.28801   -1164.3423    6416.7713    11603.531    1917.2005 
  569800    298.91381   -1156.0637    6373.7187     11603.49    1872.0441 
  569900    297.31092    -1164.777    6416.7253     11603.54    1851.8133 
  570000    296.74007   -1164.2871    6428.4538    11603.563    1812.0917 
  570100    300.49843   -1165.1026    6348.8862    11603.471    1815.8989 
  570200    298.88251   -1162.6967    6381.0527    11603.522     1804.335 
  570300    296.61023    -1165.699    6432.5875    11603.511    1913.3865 
  570400    299.74211   -1165.3581    6365.2308    11603.403    1882.0287 
  570500    296.71171   -1163.9543    6428.6255    11603.462    1908.2552 
  570600    297.48568   -1163.1009     6411.106     11603.33    1848.2106 
  570700    296.57413   -1165.3006    6432.8278    11603.378    1891.1238 
  570800    301.98474   -1164.3518    6316.3148    11603.404    1893.4533 
  570900    296.21402   -1160.8513    6435.9789    11603.286    1907.9436 
  571000    298.94421    -1164.424     6381.253    11603.313    1841.5022 
  571100    296.80574    -1165.157    6427.7174     11603.36    1841.5509 
  571200    299.46242   -1162.2657    6368.0149    11603.304    1816.2839 
  571300    300.13971   -1157.8975    6349.2208    11603.348    1834.7552 
  571400    296.59568   -1159.6355    6426.5716    11603.248    1858.4795 
  571500    298.34697    -1160.487    6390.1552    11603.393    1866.6963 
  571600    298.94279   -1161.7808    6378.6113    11603.285    1785.7888 
  571700     297.5892   -1164.5823     6410.312    11603.266    1884.4553 
  571800    297.78464   -1162.0012     6403.591    11603.302    1923.1847 
  571900    299.34174   -1158.8856    6367.1771    11603.269    1859.5774 
  572000    300.33799   -1164.3615    6351.3434    11603.242    1845.2143 
  572100    295.47199   -1156.6647    6447.7425    11603.383    1899.8885 
  572200    300.69833   -1160.0646    6339.3245    11603.218    1836.1519 
  572300    298.54281   -1157.1633    6382.4767    11603.222    1838.9947 
  572400    300.01786   -1161.0081    6354.7697    11603.183    1864.6951 
  572500    299.06978   -1160.9922    6375.0026    11603.177    1915.9379 
  572600    299.71837   -1160.9324    6361.1363    11603.227    1882.5544 
  572700    295.34764   -1159.9679    6453.5366    11603.218    1885.9671 
  572800    299.45187    -1161.338    6367.2932    11603.285    1809.7385 
  572900    299.31558   -1160.7337    6369.5753     11603.26    1847.4032 
  573000    299.05063   -1162.5681    6377.0358    11603.226    1838.7823 
  573100    296.76334   -1159.4608    6422.8368    11603.269    1921.1255 
  573200    300.39886    -1162.344    6348.0039     11603.22    1915.3703 
  573300    293.97189   -1158.7787    6481.7465    11603.226    1896.0726 
  573400    298.93834   -1157.7159    6374.6728    11603.316    1839.1356 
  573500    298.88623   -1160.9878    6379.0569    11603.315    1907.7314 
  573600    301.98963   -1161.9144    6313.5734    11603.204    1830.3139 
  573700    295.47121   -1166.5402    6457.5884    11603.337    1898.2087 
  573800    300.54104   -1161.2079    6343.9112    11603.302    1815.5425 
  573900    302.32234   -1160.6775    6305.3653    11603.341    1836.2003 
  574000    298.65941    -1162.602    6385.6155    11603.414    1836.0232 
  574100      295.687   -1166.7059    6453.2775    11603.471    1893.0032 
  574200    303.47852   -1161.6204    6281.7288    11603.461    1887.5268 
  574300    298.26418   -1164.3666    6395.8124    11603.402    1901.3549 
  574400    293.85821   -1160.7057    6486.2966    11603.421    1922.5787 
  574500    303.07514   -1165.1846    6293.9412    11603.492    1857.6236 
  574600    296.02007   -1166.2664    6445.8511    11603.599      1855.35 
  574700    300.06884   -1166.1792    6359.2703    11603.601    1869.2622 
  574800    298.76508   -1168.8576    6389.7473    11603.547    1879.6575 
  574900    298.60984   -1168.9515      6393.22     11603.61    1882.5765 
  575000    297.28893   -1163.5224    6415.9157    11603.515     1878.039 
  575100    301.88223     -1165.59    6319.8496     11603.51    1847.5701 
  575200    296.79661   -1163.3314    6426.1969     11603.47    1882.5115 
  575300    296.15119   -1170.5363    6447.1746    11603.454    1939.8957 
  575400    300.47529   -1168.2237    6352.5182    11603.488     1881.568 
  575500    296.37041   -1166.2462    6438.2944    11603.547    1890.6373 
  575600    299.70692   -1156.9276    6357.6689     11603.52    1900.9218 
  575700    300.54859   -1168.0168    6350.6993    11603.442    1812.7826 
  575800     298.8436   -1166.9044    6386.0693      11603.5    1889.3933 
  575900    299.70897   -1164.9495    6365.6328    11603.506    1901.8437 
  576000    297.65739   -1158.8703    6403.2727    11603.396    1810.2921 
  576100    298.90331   -1159.7896    6377.5595     11603.38    1809.1383 
  576200    293.40984   -1160.4776    6495.6727    11603.446    1856.1538 
  576300     302.3075   -1154.9182    6299.9724     11603.39    1851.1558 
  576400    296.98778   -1160.9928    6419.6241    11603.319    1849.8522 
  576500     298.4861    -1159.065    6385.7045    11603.337    1856.7832 
  576600    298.47593   -1158.5917    6385.4494    11603.338    1756.4034 
  576700    304.14564   -1153.1834    6258.9042    11603.326    1791.5777 
  576800    296.01003   -1160.4941    6440.0207    11603.327    1897.3883 
  576900    299.51172   -1159.5965    6364.3197    11603.332    1825.9396 
  577000    297.09329   -1160.6837    6417.0822    11603.341    1831.1039 
  577100    298.29286   -1159.6808    6390.4894    11603.378    1897.6736 
  577200    298.85803   -1157.9102    6376.4585    11603.192    1878.7556 
  577300    297.22472   -1157.5884    6411.0859    11603.248    1911.2627 
  577400    300.64341   -1155.7319    6336.2134    11603.267    1891.6536 
  577500     298.1691   -1158.1397     6391.598    11603.384     1849.758 
  577600     299.3465   -1166.1418    6374.4239    11603.361    1734.3492 
  577700    295.60474   -1165.0713    6453.3462    11603.417    1781.9459 
  577800     299.6177   -1167.9699    6370.5147    11603.417     1798.643 
  577900    296.68535    -1165.737     6430.936    11603.426    1805.7773 
  578000    297.67168   -1166.4083    6410.6351    11603.525    1789.8235 
  578100    302.21328    -1163.823    6310.9837    11603.484    1859.2024 
  578200    293.99871   -1162.5046    6485.1579    11603.485    1841.6242 
  578300     300.1386   -1170.6804    6362.2336    11603.554    1857.5709 
  578400    300.22563   -1172.5086    6362.2057    11603.557    1855.7726 
  578500    295.25992   -1162.1649    6457.9165    11603.527    1878.5405 
  578600    299.46233   -1162.6523    6368.6916    11603.593    1885.0243 
  578700    303.07972   -1165.6991    6294.4028    11603.537     1838.823 
  578800    295.51549   -1169.7351     6460.096    11603.596    1861.1355 
  578900    300.10847   -1170.8537    6363.0627    11603.566    1843.4389 
  579000    299.38165   -1169.1738    6376.9172    11603.573    1832.6362 
  579100    300.50066    -1169.435      6353.16    11603.461    1793.2299 
  579200    299.74141   -1163.2131    6363.1624    11603.465    1821.5859 
  579300      299.653   -1162.8745    6364.6442    11603.396    1853.4019 
  579400    300.64542   -1165.2277    6345.8032    11603.404    1916.4259 
  579500    299.38654    -1160.386    6367.7428    11603.291    1854.5331 
  579600    298.75427   -1161.2482     6382.156    11603.334    1855.8264 
  579700    299.53689   -1165.8503    6370.0045      11603.3    1870.8362 
  579800    297.15165   -1163.0562    6418.2263    11603.359    1885.5679 
  579900    297.89691   -1160.6743    6399.9185    11603.355    1820.1754 
  580000    295.18134   -1161.8304    6459.1377    11603.404    1881.8317 
  580100    298.84983   -1160.2588    6379.1081    11603.317      1906.98 
  580200    300.73979   -1160.0609     6338.502    11603.285    1799.9548 
  580300     297.3573   -1154.2832    6405.0188    11603.318    1822.6573 
  580400    296.51461   -1157.0722    6425.7721     11603.28    1867.4428 
  580500    295.85067   -1156.4307    6439.3137    11603.279    1913.8058 
  580600    298.18183   -1154.6512    6387.7074    11603.254     1895.482 
  580700    295.91722   -1152.5256    6434.0014    11603.293    1929.6424 
  580800    301.45478    -1156.848    6320.0488     11603.32    1856.8022 
  580900    294.35978   -1157.4302     6472.269    11603.384    1825.2828 
  581000    298.71161   -1163.7844    6385.5614    11603.292    1876.9627 
  581100    299.55283   -1165.9438    6369.8507    11603.394    1920.1545 
  581200    298.11472    -1161.456    6396.1502    11603.458    1816.6454 
  581300    297.17838   -1162.1205    6416.8387    11603.478    1853.1162 
  581400    298.29585   -1163.9022    6394.7203    11603.451    1873.2755 
  581500     297.5221   -1162.1733    6409.4469    11603.377     1876.353 
  581600    301.16975   -1166.1574    6335.5946    11603.467    1897.0018 
  581700    300.04142   -1165.5711    6359.1664     11603.52    1894.0354 
  581800    299.33579    -1160.964    6369.5987    11603.485     1860.959 
  581900    296.28485   -1165.6023    6439.4891    11603.558    1891.2897 
  582000    296.20536   -1166.6751    6442.3062    11603.604    1937.8584 
  582100    300.45113   -1169.0922    6353.9894    11603.575     1911.899 
  582200     297.8824   -1168.9056    6408.7005    11603.595    1844.1825 
  582300    300.23784   -1168.8026    6358.2972    11603.615     1861.403 
  582400    300.38686    -1174.242    6360.5603    11603.623    1887.0787 
  582500    296.47321   -1167.3559    6437.3113    11603.651    1844.9457 
  582600    301.12707   -1162.8089    6333.3063    11603.615    1832.8531 
  582700    297.46798   -1166.3914    6415.0009    11603.556    1922.0745 
  582800    298.62128   -1161.2024    6385.1039    11603.487    1866.5474 
  582900    298.93083   -1157.4185    6374.7322    11603.512    1892.6171 
  583000    301.59942   -1167.2177    6327.5709    11603.562    1976.4588 
  583100    300.47771    -1160.689    6344.8998    11603.456    1933.4192 
  583200    296.54472   -1160.9476    6429.2038    11603.479    1902.2125 
  583300    297.27807   -1160.3583    6412.9457    11603.477    1915.7003 
  583400    299.83659    -1159.427    6357.2956    11603.417    1853.8482 
  583500    300.78644   -1158.2494    6335.7327    11603.324    1798.8921 
  583600    299.10938   -1161.9634    6375.3304     11603.38      1877.29 
  583700    299.87064   -1160.2192    6357.3707    11603.428    1869.4275 
  583800    297.82557   -1163.4205    6404.0944     11603.26    1819.2252 
  583900    298.25533   -1162.0684    6393.5499    11603.249    1972.1003 
  584000    300.00621   -1158.4777    6352.6563    11603.351    1907.7364 
  584100    294.35499   -1158.5335    6473.3967    11603.306    1796.9089 
  584200    300.00067   -1158.5197      6352.86    11603.394    1882.8006 
  584300    298.31515   -1160.9753    6391.2415    11603.312    1919.2023 
  584400    294.85023   -1163.9468    6468.2569    11603.333    1835.5469 
  584500    303.11622   -1161.5426    6289.2965    11603.367    1806.5312 
  584600    297.79083   -1160.2111    6401.6884    11603.322     1926.293 
  584700    297.61358   -1163.4251    6408.7938    11603.426    1831.9977 
  584800    297.92346   -1162.9672    6401.7389    11603.449    1852.0392 
  584900    300.63507   -1163.1503    6343.9901    11603.447    1918.1814 
  585000    292.90833   -1167.2348    6513.1503    11603.453    1910.7758 
  585100    301.70626   -1164.7096    6322.6526    11603.434    1798.4017 
  585200    296.94685   -1156.9262    6416.5764    11603.464    1902.9137 
  585300    296.18403   -1164.6734    6440.6503    11603.494    1946.3428 
  585400    297.50337   -1163.7779     6411.609    11603.534    1856.4103 
  585500    299.95511   -1164.4576    6359.8896    11603.513     1896.591 
  585600    300.76408   -1161.6883    6339.8059    11603.481    1918.9719 
  585700    298.76393   -1168.4168    6389.3263    11603.542    1921.7126 
  585800    297.99055   -1163.9899     6401.358    11603.479    1919.6572 
  585900    299.58574   -1162.7471    6366.0999    11603.542    1882.9846 
  586000    295.45446   -1160.0252    6451.5785    11603.484    1927.9411 
  586100    302.27133   -1158.7678    6304.6553    11603.451    1857.7073 
  586200    295.97032   -1163.8038    6444.3887    11603.537    1962.8526 
  586300    300.76504   -1169.5038    6347.6132    11603.493    1894.3325 
  586400    296.11024    -1163.847    6441.3123    11603.406    1916.5999 
  586500    300.04663   -1158.5621     6351.973    11603.447     1902.979 
  586600    301.23114   -1160.9798    6329.0863    11603.448     1837.136 
  586700    296.86063   -1164.0275    6425.4572    11603.402    1799.2505 
  586800    298.91227   -1165.9739    6383.5623     11603.39    1849.6927 
  586900    296.72467   -1166.2891    6430.6156    11603.394    1862.6169 
  587000    295.46636   -1158.9056    6450.1383    11603.418    1877.4311 
  587100    297.79283    -1157.994    6399.4381    11603.331    1834.9916 
  587200    300.72388   -1162.7417    6341.6373      11603.4    1858.6543 
  587300    301.26857   -1160.5996     6327.849     11603.39    1870.2044 
  587400    298.39861    -1159.647    6388.2467    11603.428    1795.8544 
  587500    300.67706   -1159.4765    6339.4112    11603.439    1803.2343 
  587600    294.56167    -1165.145    6475.7329    11603.446    1867.4402 
  587700    300.23112   -1165.1894    6354.6554    11603.443    1814.0202 
  587800    297.98241   -1162.6509    6400.1709    11603.457    1864.0696 
  587900    299.37341   -1166.8533    6374.6844    11603.485    1862.8905 
  588000    297.54273   -1164.6538    6411.5909    11603.481    1897.7798 
  588100    296.46676    -1157.142    6427.0549     11603.47     1864.163 
  588200    297.10194   -1162.7944    6419.1116    11603.444    1844.8867 
  588300    300.99204   -1161.3433    6334.5837    11603.473    1875.1848 
  588400    300.35605   -1162.3386    6349.2519    11603.559    1913.0763 
  588500    297.54819   -1165.7106    6412.5499      11603.5    1884.2081 
  588600    297.88096   -1164.2193    6403.9928    11603.543    1893.8847 
  588700    297.26732   -1168.8464    6421.6867    11603.501    1876.2859 
  588800    299.49334   -1166.7312    6372.0305    11603.515    1913.9718 
  588900    297.45361   -1162.5275    6411.3581    11603.471    1921.1882 
  589000    299.21945   -1164.7024    6375.8117    11603.474    1874.4525 
  589100    296.28166   -1164.3511    6438.2531    11603.505    1962.3857 
  589200    301.82204   -1160.0139    6315.5545    11603.505    1889.3023 
  589300    296.97891   -1157.6385    6416.5504    11603.411    1936.6287 
  589400    299.79361   -1163.8355    6362.7492    11603.544    1881.3789 
  589500    295.84669   -1163.1885    6446.3221    11603.444    1891.6649 
  589600    299.61042   -1165.0312    6367.7948     11603.48    1874.0228 
  589700    299.38229   -1162.0975    6369.6845     11603.43    1894.2007 
  589800    298.11199   -1165.9042    6400.6521    11603.453    1858.4002 
  589900    299.54504    -1164.851     6368.909    11603.378    1925.3083 
  590000    297.15124   -1161.4359    6416.6829    11603.427    1902.6298 
  590100    300.50838   -1164.7034    6348.2299    11603.427    1851.7356 
  590200    300.43876   -1170.3143    6355.3515     11603.45    1871.5048 
  590300    301.37814    -1167.595    6332.5639     11603.45    1831.4107 
  590400    297.78954   -1164.3082    6405.9773    11603.486    1836.3838 
  590500    298.26434   -1164.4397    6395.9798      11603.5    1933.2928 
  590600    296.31982   -1168.5266    6441.6615    11603.553    1950.9187 
  590700    299.24423   -1166.1917    6376.8543    11603.556    1842.9853 
  590800      297.186   -1173.0671    6427.6437    11603.499    1901.6844 
  590900    301.28019   -1169.8193    6336.8548    11603.424    1891.1268 
  591000    296.88147   -1159.8403    6420.9556    11603.532    1911.7013 
  591100    299.22587    -1160.911    6371.9462    11603.537    1913.4073 
  591200    298.42918   -1156.6821    6384.7242    11603.524    1978.3059 
  591300    299.64536    -1166.058    6368.0628    11603.468    1928.2762 
  591400    296.57683   -1160.6346    6428.2243    11603.499    1913.5607 
  591500    296.90607   -1164.7304    6425.3418    11603.554    1947.5759 
  591600    301.34013   -1169.3269    6335.1633    11603.506    1895.6887 
  591700    295.28072   -1165.2339    6460.5018    11603.487    1882.6519 
  591800    297.78791   -1165.4123    6407.0789    11603.448    1925.1029 
  591900     298.5369   -1161.7188    6387.3709    11603.435    1906.3956 
  592000    299.00221   -1165.0168    6380.8094    11603.516    1898.1278 
  592100    297.51898   -1155.5687    6402.9012    11603.369    1918.2313 
  592200    302.58119   -1155.2696    6294.5268     11603.44     1881.755 
  592300    297.79502   -1160.3185    6401.7716    11603.387    1923.2587 
  592400    300.53124   -1165.6289    6348.6717    11603.432    1870.3493 
  592500    296.85381   -1166.8437    6428.4454    11603.428    1811.4803 
  592600    300.90296   -1166.1405     6341.156    11603.345    1800.9097 
  592700    297.79825   -1168.0092    6409.2955    11603.289    1841.6526 
  592800    299.73034   -1163.6699    6363.7123    11603.321      1862.41 
  592900      294.667   -1162.5295    6470.7875    11603.366     1864.977 
  593000    297.85081   -1160.5459     6400.693    11603.273     1841.477 
  593100    299.28844   -1166.7174    6376.1978    11603.319     1878.051 
  593200    300.68964   -1151.1097    6330.7158    11603.379    1915.7218 
  593300    299.15731   -1155.4369    6367.8157    11603.416    1865.6666 
  593400    297.72801    -1166.783    6409.7348    11603.454     1924.818 
  593500    299.65527   -1158.6645    6360.4024    11603.413    1834.7463 
  593600    298.19558   -1170.3754    6403.3565    11603.472    1831.5036 
  593700     300.0275   -1172.4667    6366.3297     11603.49    1901.2177 
  593800    297.71583   -1172.6917    6415.9725    11603.523    1944.9283 
  593900    296.22372   -1165.8199    6440.9286    11603.474    1908.9209 
  594000    300.66704   -1158.2054    6338.2962    11603.381    1887.5801 
  594100    298.65155   -1162.0306    6385.2369    11603.438    1938.5205 
  594200    296.45615   -1161.4475    6431.5503    11603.434    1934.8477 
  594300    302.87971   -1161.2279    6294.1112    11603.444    1926.0566 
  594400    298.86988   -1166.0429    6384.6222    11603.476    1985.0458 
  594500    295.45363    -1172.676    6464.3219    11603.559    1887.4356 
  594600    299.02266   -1170.5577    6385.9426    11603.545    1828.5276 
  594700    295.89342   -1167.9799    6450.1688    11603.498    1908.3988 
  594800    299.87439   -1171.5282    6368.6298    11603.458     1948.084 
  594900     298.1348   -1170.0856    6404.3486    11603.456    1881.4546 
  595000    299.56602   -1160.2358    6363.8534    11603.386    1885.5735 
  595100     297.9325   -1164.4406    6402.9905    11603.421    1945.9623 
  595200    297.01272   -1158.6431    6416.8077    11603.386    1829.5359 
  595300    298.86231   -1161.2848    6380.0072    11603.457    1856.3748 
  595400    297.57388   -1160.0676    6406.3127    11603.454    1930.8873 
  595500    298.99454   -1169.3677    6385.1781     11603.37    1863.1498 
  595600    299.04036   -1166.0805    6380.9574    11603.415    1838.9695 
  595700    294.54779   -1165.3022    6476.2567    11603.516    1918.2168 
  595800    299.76108   -1168.5986    6368.1127     11603.45    1897.7893 
  595900    297.89388   -1162.0604    6401.5143      11603.5    1876.0153 
  596000    298.72924   -1160.2687    6381.8095    11603.433    1921.7971 
  596100    295.95089   -1157.9367    6438.8849    11603.485    1947.1201 
  596200    297.64927    -1157.405    6401.9439    11603.359    1910.6023 
  596300    299.00642   -1157.6901     6373.326    11603.449    1953.6561 
  596400    301.50332   -1165.7125    6328.0293    11603.473    2004.9156 
  596500    296.22946   -1162.9941    6438.0209    11603.515    1913.4246 
  596600    297.73902   -1167.5135    6410.3855    11603.609    1914.2267 
  596700    297.81542   -1167.7758    6408.9901    11603.584    1964.8356 
  596800    300.25096   -1171.3404    6360.4831    11603.544    1899.7501 
  596900    295.99182   -1169.1182    6449.1966     11603.49    1916.6964 
  597000    295.98425   -1162.9956    6443.1989    11603.453    1925.0405 
  597100    301.35335   -1162.2505    6327.8161    11603.517    1968.3171 
  597200    298.89576   -1162.3078    6380.3455    11603.487    1902.4478 
  597300    296.20971   -1165.0427    6440.5278    11603.551    1895.9617 
  597400    300.14654   -1172.6971    6364.1555    11603.629    1935.2626 
  597500    294.90803   -1169.9094    6473.2931    11603.641    1928.6093 
  597600    300.40903   -1167.9368    6353.7062    11603.547    1947.5954 
  597700    301.70059   -1168.3172    6326.5191    11603.572     1906.728 
  597800    297.03006   -1167.6131    6425.6615     11603.64    1875.9453 
  597900    294.19882   -1165.9496     6484.384    11603.541    1915.5597 
  598000    301.34505   -1164.6111    6330.3763     11603.54    1932.7842 
  598100    298.02839   -1161.1553     6397.756     11603.52    1906.9301 
  598200    296.24816   -1162.4242     6437.074    11603.537    1859.8849 
  598300    300.67896   -1162.6775    6342.6908    11603.558    1839.8406 
  598400    294.29144   -1162.6448    6479.0931    11603.533    1893.3078 
  598500    301.94307   -1164.9604    6317.8977    11603.488     1881.857 
  598600    295.60051   -1163.8603    6452.3228    11603.514    1905.5972 
  598700    297.54216   -1162.7681    6409.6981    11603.462    1824.6301 
  598800     298.0954   -1155.7714     6390.907    11603.486    1849.2174 
  598900    298.92889   -1160.2215    6377.4962    11603.432    1872.4874 
  599000    299.54138   -1160.0733    6364.1718     11603.34    1899.8906 
  599100    298.92635   -1157.9877    6375.2802    11603.395    1893.4399 
  599200    299.74094   -1160.9794    6360.8552    11603.381    1866.6157 
  599300    300.27434    -1159.671    6348.0209     11603.25    1876.5958 
  599400    296.26802   -1162.3933    6436.3839    11603.302    1911.6723 
  599500    301.26274   -1160.4648    6327.8285     11603.38    1868.7682 
  599600    297.77992   -1163.2678    6405.0387    11603.382    1872.7494 
  599700    295.21539   -1157.7716    6454.3641    11603.416    1922.0959 
  599800    301.48563   -1163.8305    6326.4848    11603.432    1875.3958 
  599900    297.63411   -1162.5922    6407.5826    11603.486    1851.1947 
  600000    298.92753   -1160.0453    6377.3551    11603.438    1827.9102 
Loop time of 279.435 on 8 procs for 300000 steps with 7168 atoms

Pair  time (%) = 137.874 (49.3401)
Bond  time (%) = 81.0335 (28.999)
Neigh time (%) = 19.4844 (6.97279)
Comm  time (%) = 30.8172 (11.0284)
Outpt time (%) = 0.477592 (0.170913)
Other time (%) = 9.74905 (3.48884)

Nlocal:    896 ave 898 max 894 min
Histogram: 1 0 3 0 0 1 0 1 0 2
Nghost:    2842.62 ave 2849 max 2836 min
Histogram: 1 0 1 1 1 1 1 0 1 1
Neighs:    23623.1 ave 23931 max 23308 min
Histogram: 1 1 1 1 0 0 1 1 1 1

Total # of neighbors = 188985
Ave neighs/atom = 26.3651
Ave special neighs/atom = 157.056
Neighbor list builds = 3037
Dangerous builds = 0
# −−−−−−−−−−−−−− Flux calculation in nve −−−−−−−−−−−−−−−
reset_timestep  0
compute         PE all pe/atom
compute         KE all ke/atom

variable        CX atom (vx*(c_KE+c_PE))
compute         Jcx all reduce sum v_CX

variable        CZ atom (vz*(c_KE+c_PE))
compute         Jcz all reduce sum v_CZ

variable        CY atom (vy*(c_KE+c_PE))
compute         Jcy all reduce sum v_CY

compute         SA all stress/atom virial

variable        VX atom -(c_SA[1]*vx+c_SA[4]*vy+c_SA[5]*vz)*1.4593e-5
compute         Jvx all reduce sum v_VX

variable        VZ atom -(c_SA[3]*vz+c_SA[6]*vy+c_SA[5]*vx)*1.4593e-5
compute         Jvz all reduce sum v_VZ

variable        VY atom -(c_SA[2]*vy+c_SA[6]*vz+c_SA[4]*vx)*1.4593e-5
compute         Jvy all reduce sum v_VY

variable        Jx equal (c_Jcx+c_Jvx)/vol
variable        Jz equal (c_Jcz+c_Jvz)/vol
variable        Jy equal (c_Jcy+c_Jvy)/vol

fix             JJTx all ave/correlate $s $p $d                 v_Jx type auto file J0Jt_tx.dat ave running
fix             JJTx all ave/correlate 5 $p $d                 v_Jx type auto file J0Jt_tx.dat ave running
fix             JJTx all ave/correlate 5 20000 $d                 v_Jx type auto file J0Jt_tx.dat ave running
fix             JJTx all ave/correlate 5 20000 100000                 v_Jx type auto file J0Jt_tx.dat ave running

fix             JJTz all ave/correlate $s $p $d                 v_Jz type auto file J0Jt_tz.dat ave running
fix             JJTz all ave/correlate 5 $p $d                 v_Jz type auto file J0Jt_tz.dat ave running
fix             JJTz all ave/correlate 5 20000 $d                 v_Jz type auto file J0Jt_tz.dat ave running
fix             JJTz all ave/correlate 5 20000 100000                 v_Jz type auto file J0Jt_tz.dat ave running

fix             JJTy all ave/correlate $s $p $d                 v_Jy type auto file J0Jt_ty.dat ave running
fix             JJTy all ave/correlate 5 $p $d                 v_Jy type auto file J0Jt_ty.dat ave running
fix             JJTy all ave/correlate 5 20000 $d                 v_Jy type auto file J0Jt_ty.dat ave running
fix             JJTy all ave/correlate 5 20000 100000                 v_Jy type auto file J0Jt_ty.dat ave running

run             1000000
Memory usage per processor = 13.8919 Mbytes
Step Temp E_pair E_mol TotEng Press 
       0    298.92753   -1160.0453    6377.3551    11603.438    1827.9102 
     100    300.15169   -1163.7937    6354.9385    11603.425    1887.7863 
     200    298.62801   -1162.7928    6386.5407    11603.477    1875.4385 
     300    299.46286   -1159.3734    6365.2518    11603.443    1914.8109 
     400    300.09726   -1166.7135    6358.9947    11603.399    1871.3166 
     500    295.98789   -1169.1835    6449.3928    11603.536    1884.0881 
     600    304.26386   -1166.6569    6270.0637    11603.537     1904.692 
     700    296.09417   -1169.1492    6447.0945    11603.543    1894.8194 
     800    301.00878   -1168.5891    6341.5569    11603.558    1890.5153 
     900    300.28334    -1170.026    6358.4919    11603.559     1939.535 
    1000    297.88659   -1161.9201    6401.4775    11603.447    1883.6558 
    1100    295.64653   -1169.1099    6456.5399    11603.464    1843.4155 
    1200    299.93029   -1163.4466    6359.3439    11603.448    1857.6305 
    1300    297.64933   -1163.6096    6408.3646    11603.576    1884.4066 
    1400    297.71719   -1164.9987    6408.2499    11603.522    1897.3879 
    1500    299.32465   -1167.5015    6376.4427    11603.553    1868.9423 
    1600    298.69288   -1163.8213    6386.2628    11603.557    1944.2212 
    1700    299.45735   -1167.8655    6373.8413    11603.423    1928.4952 
    1800    298.21937   -1162.9868    6395.4144    11603.427    1833.3312 
    1900     296.8222    -1162.704    6425.0734     11603.52    1872.7829 
    2000    299.95451   -1164.0314    6359.3154    11603.352    1829.9126 
    2100    295.78383   -1163.3695    6447.8944    11603.493    1931.4127 
    2200    300.14311     -1159.38    6350.6953    11603.412    1936.1646 
    2300    292.89691   -1151.3885    6497.5345    11603.439    1954.8166 
    2400    299.90824   -1159.3585    6355.6941    11603.415    1891.7551 
    2500    300.68028   -1155.5387    6335.3296    11603.364    1833.4333 
    2600    296.70997   -1157.2689    6421.9029    11603.387    1907.4478 
    2700    298.57474   -1165.2823    6390.0052    11603.314    1893.9391 
    2800    298.07937   -1163.2407    6398.5712    11603.339    1872.2191 
    2900    297.73048   -1164.3993    6407.2542     11603.41    1858.4815 
    3000    298.82772   -1161.5208    6380.9053     11603.38    1841.4055 
    3100    294.72248   -1162.7321    6469.8181     11603.38     1873.613 
    3200    298.76934   -1163.1834    6383.8924    11603.457    1930.9842 
    3300    297.79029   -1159.9943    6401.5724    11603.411    1930.6836 
    3400     296.2203   -1164.7115    6439.8663    11603.447    1904.6465 
    3500    297.81805   -1162.9323    6403.9369     11603.43      1906.45 
    3600    299.42587   -1159.9079     6366.534      11603.4    1882.5427 
    3700    299.85235   -1167.2309     6364.788    11603.443    1848.3035 
    3800    296.09975   -1166.3991    6444.1603    11603.478    1867.9648 
    3900    298.51074   -1166.5024    6392.8763    11603.598     1859.097 
    4000    297.80983   -1170.7119    6412.0625    11603.601    1815.0699 
    4100     299.1572   -1167.1826    6379.7761    11603.628    1810.2563 
    4200    297.59968   -1162.2288    6408.0521    11603.584    1849.8271 
    4300    298.74482   -1169.1797    6390.5131    11603.558    1824.5131 
    4400    298.95981   -1162.2213     6378.955    11603.551    1940.2173 
    4500    299.09992    -1165.233    6378.9606    11603.538    1950.8602 
    4600    300.01289   -1163.4141    6357.6698    11603.571    1958.4761 
    4700    294.62831   -1161.0351    6470.3736     11603.62    1956.5975 
    4800    302.17725   -1161.2714    6309.1649    11603.447    1930.6378 
    4900    300.58481   -1166.4056      6348.38    11603.508    1868.7151 
    5000    297.16669    -1165.312    6420.3361    11603.534    1913.2323 
    5100    299.55356   -1161.5336    6365.5577    11603.526    1887.5649 
    5200    298.80598   -1167.3661    6387.2763    11603.441    1834.9203 
    5300    296.40129   -1157.6167    6428.8832    11603.425    1823.9061 
    5400     302.0716    -1165.815    6316.0021    11603.483    1853.9888 
    5500    298.69087   -1158.9392    6381.2714    11603.404    1875.7847 
    5600    296.67134   -1157.2088     6422.599    11603.318    1829.5718 
    5700    299.01683   -1160.5278    6375.8302    11603.338     1903.676 
    5800    297.36135   -1158.6677    6409.2794    11603.281    1956.9844 
    5900    299.72697   -1163.4121     6363.548    11603.343    1832.5939 
    6000    295.77216   -1153.2763    6437.9709    11603.413    1880.4446 
    6100    300.43203   -1164.5207    6349.6211     11603.37    1912.7623 
    6200    298.49754   -1161.8455    6388.3114    11603.408    1869.0658 
    6300    299.45074   -1163.9623    6370.1181    11603.461    1824.1486 
    6400    296.61938   -1167.5604    6434.1629     11603.42    1926.6369 
    6500    297.18622   -1162.9564    6417.4647    11603.436    1880.0262 
    6600    297.60582   -1167.7169    6413.2805    11603.455    1895.1815 
    6700     299.8268   -1164.4343    6362.5523    11603.457    1863.4533 
    6800    299.03876   -1160.0222    6374.9546    11603.437    1877.0651 
    6900    299.71818   -1161.9554    6362.3826    11603.446     1932.489 
    7000    296.39249   -1163.6778    6435.1544    11603.447    1950.9698 
    7100    299.49058   -1167.8947    6373.2117    11603.474    1909.3835 
    7200    300.87468   -1172.6875    6348.4453    11603.484    1883.3064 
    7300    299.79025   -1166.3262    6365.2413    11603.474    1858.9824 
    7400    296.70816   -1170.0494    6434.8602    11603.525     1892.309 
    7500    297.16569   -1169.8567    6424.8411    11603.473    1897.4052 
    7600    296.95245   -1159.5032    6419.0895     11603.52    1930.3181 
    7700    299.02322   -1159.9042    6375.1525    11603.421    1923.5846 
    7800    300.75331   -1162.8097    6341.0969     11603.42    1890.3932 
    7900    295.70485   -1161.7796    6448.0064    11603.507    1907.9087 
    8000    301.21576   -1165.9043    6334.3232    11603.431    1840.0465 
    8100    295.80982   -1167.6985    6451.7148    11603.539    1934.9284 
    8200    301.98764   -1165.9928    6317.9372    11603.447    1874.2032 
    8300    297.02656   -1160.5867    6418.4995     11603.43    1892.1611 
    8400    299.18717   -1161.9205    6373.6664    11603.421    1880.1703 
    8500    297.28928   -1156.8151    6409.1356     11603.45    1917.3911 
    8600    300.63904   -1159.6971    6340.4434    11603.438    1921.2121 
    8700    295.36429   -1158.8146    6452.2537    11603.444    1892.0488 
    8800    294.22341   -1157.9355    6475.7707    11603.467    1877.2462 
    8900    302.10321    -1159.897    6309.3927    11603.467    1836.7178 
    9000    300.47283   -1166.1523    6350.4564    11603.445     1896.577 
    9100    295.18194   -1162.0411    6459.3188    11603.387    1861.5102 
    9200    296.95471   -1161.4743    6420.8239    11603.331    1855.8693 
    9300     303.2072   -1164.1395    6289.9505    11603.368    1908.3411 
    9400    297.39074   -1162.2789    6412.4408    11603.459    1855.8414 
    9500    298.52316   -1163.5025    6389.4387    11603.425    1896.0582 
    9600    298.80113   -1160.9588    6380.8637    11603.333    1935.1182 
    9700    298.33896   -1162.3043    6392.1446    11603.394    1882.8217 
    9800     295.7892   -1165.5285    6449.8835    11603.437    1897.2779 
    9900     299.0925   -1167.1631    6380.9873    11603.477    1921.7895 
   10000    297.60612   -1166.0765    6411.6659    11603.488    1885.2982 
Loop time of 1406.58 on 8 procs for 1000000 steps with 7168 atoms

Pair  time (%) = 565.319 (40.1909)
Bond  time (%) = 297.464 (21.148)
Neigh time (%) = 65.0237 (4.62281)
Comm  time (%) = 105.182 (7.47781)
Outpt time (%) = 0.00341433 (0.000242739)
Other time (%) = 373.592 (26.5602)

Nlocal:    896 ave 901 max 892 min
Histogram: 1 0 2 1 0 2 1 0 0 1
Nghost:    2848.38 ave 2852 max 2840 min
Histogram: 1 0 0 0 0 2 0 1 1 3
Neighs:    23621.5 ave 24059 max 23327 min
Histogram: 2 2 0 0 0 2 0 1 0 1

Total # of neighbors = 188972
Ave neighs/atom = 26.3633
Ave special neighs/atom = 157.056
Neighbor list builds = 10113
Dangerous builds = 0
