LAMMPS (11 Jun 2012)
# Initialization
atom_style      full
units           real
variable        T equal 300
variable        dt equal 1.0
variable        seed equal 123457
variable        radius equal 0.5
variable        sizet equal 4
variable        sizeb equal -4
variable        p equal 20000    # correlation length
variable        s equal 5        # sample interval
variable        d equal $p*$s    # dump interval
variable        d equal 20000*$s    variable        d equal 20000*5    
# convert from LAMMPS real units to SI
variable        kB equal 1.3806504e-23    # [J/K] Boltzmann
variable        kCal2J equal 4186.0/6.02214e23
variable        A2m equal 1.0e-10
variable        fs2s equal 1.0e-15
variable        convert equal ${kCal2J}*${kCal2J}/${fs2s}/${A2m}
variable        convert equal 6.9510174124148567155e-21*${kCal2J}/${fs2s}/${A2m}
variable        convert equal 6.9510174124148567155e-21*6.9510174124148567155e-21/${fs2s}/${A2m}
variable        convert equal 6.9510174124148567155e-21*6.9510174124148567155e-21/1.0000000000000000777e-15/${A2m}
variable        convert equal 6.9510174124148567155e-21*6.9510174124148567155e-21/1.0000000000000000777e-15/1.0000000000000000364e-10
variable        b_eq equal 10.0/3.0

# setup problem
dimension       3
boundary        p p p
neighbor        2    bin
pair_style      lj/cut 10.0
bond_style      morse
read_data       lammps.data
  9 = max bonds/atom
  orthogonal box = (0 0 0) to (80 80 80)
  2 by 2 by 2 MPI processor grid
  7168 atoms
  33696 bonds
  10 = max # of 1-2 neighbors
  86 = max # of 1-3 neighbors
  824 = max # of 1-4 neighbors
  164 = max # of special neighbors
pair_coeff      1 1 0.000 3.500
pair_coeff      2 2 0.000 3.500
pair_coeff      1 2 0.105 3.500
bond_coeff      1 10 1.8 ${b_eq}
bond_coeff      1 10 1.8 3.3333333333333334814
bond_coeff      2 5 0.805 7.4536
bond_coeff      3 10 1.8 ${b_eq}
bond_coeff      3 10 1.8 3.3333333333333334814
bond_coeff      4 5 0.805 7.4536
velocity        all create $T ${seed} mom yes rot yes dist gaussian
velocity        all create 300 ${seed} mom yes rot yes dist gaussian
velocity        all create 300 123457 mom yes rot yes dist gaussian
timestep        ${dt}
timestep        1
thermo          100
dump            T1 all cfg 600000 *.cfg id type xs ys zs
dump            T2 all xyz 10000 traj.xyz
#dump_modify    1 element Cu
# −−−−−−−−−−−−− Equilibration and thermalisation −−−−−−−−−−−−−−−−
fix             NVT all nvt temp $T $T 10
fix             NVT all nvt temp 300 $T 10
fix             NVT all nvt temp 300 300 10
run             300000
Memory usage per processor = 11.5453 Mbytes
Step Temp E_pair E_mol TotEng Press 
       0          300   -906.89526 0.00012694983    5502.1446    343.62551 
     100    243.04913   -935.24394    7055.6137    11312.741    2188.8635 
     200    293.33377   -991.82631    10008.388    15283.188    1262.1573 
     300    303.56149    -988.5519    8392.0076    13888.581    597.74115 
     400    298.26625   -968.11374    6458.1564    11862.043      923.785 
     500    298.18464   -951.02952    5684.5365    11103.764    1316.1168 
     600    300.37241     -947.658    5540.1961    11009.534    1273.6054 
     700    297.28042   -959.72634    6393.3653    11784.579    1145.5043 
     800    300.40988   -973.74397    7286.9171    12730.969    1177.5639 
     900    300.64659   -976.90604    7235.3307    12681.278    1142.5998 
    1000    304.60225   -970.57144     6572.889    12109.677    1183.5491 
    1100    298.51539   -966.93387     6260.554    11670.943    1305.4746 
    1200    303.55599   -969.67154    6325.9207    11841.257    1350.5679 
    1300    297.34819   -973.64663    6409.4818    11788.223    1181.1321 
    1400    298.29081   -980.02225    6659.0912    12051.594    1176.0293 
    1500    295.17957   -985.03535    7030.7365     12351.76    1332.3557 
    1600    300.03662   -984.09718    6698.2264    12123.951    1232.1859 
    1700    300.10727   -982.54847      6316.59    11745.373     1223.664 
    1800    295.07046   -984.82478    6459.3603    11778.263    1374.0461 
    1900    301.77302    -989.9829    6586.6716    12043.606    1279.5702 
    2000    299.26186   -994.00636    6631.3387    12030.603     1357.231 
    2100    297.84587   -995.35997    6616.5598     11984.22    1479.7066 
    2200    302.67296   -998.82147    6405.5881     11872.91    1476.8626 
    2300    299.12905   -1006.1171    6443.1016    11827.418     1567.409 
    2400    294.50806   -1015.5391    6415.3006    11691.474     1397.614 
    2500    303.29337   -1025.5086    6658.6741    12112.563    1381.8591 
    2600    298.37566   -1035.6379    6504.3719    11843.072    1347.3369 
    2700    299.87655   -1044.1905    6463.9949    11826.207    1384.9092 
    2800     301.4615   -1057.0762    6489.3836     11872.57    1467.0482 
    2900    297.97068   -1072.7859    6443.1973    11736.098    1598.6995 
    3000    302.83475   -1084.7695    6183.0206    11567.851    1504.8268 
    3100    294.48327   -1102.1785    6322.6129    11511.618    1497.4172 
    3200    299.39586    -1111.496    6553.4879    11838.125    1600.2695 
    3300    304.13541   -1122.9552    6249.0958    11623.527    1554.0239 
    3400    297.47519   -1120.8878    6181.1513    11415.364    1623.1327 
    3500    300.36664   -1123.0933    6240.0933    11533.872    1661.4094 
    3600    300.78517   -1116.0888    6410.5139    11720.239     1770.004 
    3700    297.39198   -1110.7374    6454.0286    11696.615    1770.0058 
    3800    298.36502   -1125.7921    6203.3536    11451.672    1674.1721 
    3900    301.20374   -1132.4801    6297.3151    11599.591    1732.0366 
    4000    295.63011   -1151.2017    6303.4313    11467.913    1623.6694 
    4100    302.16213   -1155.9803    6393.6179    11692.868    1659.8159 
    4200    297.44664   -1156.0905    6440.1312    11638.532    1697.4187 
    4300      301.345   -1153.1744    6281.4126    11566.012    1697.8446 
    4400    297.59317   -1153.7706    6062.2278    11266.079    1701.3452 
    4500     303.8624   -1143.4766    6222.1485    11570.226    1787.7075 
    4600    304.45966   -1146.0589    6224.6422    11582.897    1737.7824 
    4700    295.97489   -1145.6596    6381.0586    11558.448    1665.4529 
    4800    306.93942   -1136.4899    6562.1475    11982.947    1778.4756 
    4900     299.5094    -1138.435    6332.4816    11592.605    1723.1102 
    5000    300.49422   -1130.0848     6172.406    11461.919    1727.1042 
    5100    299.51792   -1122.5286    6261.4285    11537.641    1802.8358 
    5200    302.01211   -1118.8432    6324.5204    11657.702    1734.0516 
    5300    299.05067    -1115.318    6585.8515    11859.292    1682.4875 
    5400    297.98265   -1113.0128    6401.1073    11654.037    1690.3457 
    5500    299.95259   -1116.2869    6160.6808    11452.421    1695.5145 
    5600    299.30719   -1111.7106    6254.6913     11537.22    1720.0587 
    5700    296.45657   -1114.8064    6382.0919    11600.625    1713.8731 
    5800    299.65067   -1123.0552     6414.227    11692.749    1771.7347 
    5900    301.97264   -1125.9797    6349.2921    11674.495    1686.5184 
    6000    297.77417   -1127.7097    6413.3325    11647.111    1722.0328 
    6100    302.58693   -1129.5177    6291.6361    11626.424    1665.3317 
    6200    302.02333   -1137.8885    6300.5691    11614.946    1654.4579 
    6300    295.57742   -1142.2827    6329.7763    11502.052    1645.8086 
    6400     300.8274   -1157.8164     6359.689    11628.588    1715.5294 
    6500    299.51604   -1163.1881     6313.643    11549.156    1696.8694 
    6600    300.91648   -1169.8604    6317.7805    11576.539    1646.4016 
    6700    299.11112   -1170.7924    6328.6653    11547.923    1722.9777 
    6800    298.94962   -1170.6312     6284.548    11500.517    1774.6899 
    6900    295.84588    -1154.993    6283.1492    11448.449    1751.6049 
    7000    300.79377   -1156.7179     6169.396    11438.675    1754.1617 
    7100    297.47319   -1153.7551    6349.5134    11550.817    1828.7298 
    7200    302.03792   -1154.4862    6408.4821    11706.573    1775.9292 
    7300     298.3143   -1163.6334    6398.7554    11608.149    1744.6077 
    7400    303.18056   -1165.3396    6403.9625     11715.61    1732.0114 
    7500    298.42809   -1164.6022     6274.463    11485.319    1688.5843 
    7600    305.20471   -1161.2902    6340.1169    11699.057    1800.9923 
    7700    297.97466   -1157.8822    6413.2718    11621.161    1854.8513 
    7800    301.80894   -1147.5329    6339.2434    11639.395    1864.7478 
    7900    300.61757   -1137.3916    6337.7564    11622.598    1817.4115 
    8000    301.96205   -1138.0199    6205.4148    11518.351    1736.7715 
    8100    299.38075   -1127.5083    6388.5243    11656.826    1844.0488 
    8200    296.00629   -1122.7067     6431.851    11632.864     1831.565 
    8300    300.09262   -1118.0429    6350.8048     11643.78    1821.1256 
    8400    299.72048   -1109.8815    6403.4206    11696.607    1784.1537 
    8500    300.82295   -1104.6458    6488.0635    11810.038     1740.953 
    8600    301.01309   -1102.9149    6453.4719     11781.24    1733.1443 
    8700    296.31913    -1097.579    6337.3143    11570.139    1697.5404 
    8800    300.99701   -1098.1891     6403.538    11735.688    1805.2038 
    8900    299.80606    -1101.871    6427.2785    11730.304    1754.8078 
    9000    303.92265   -1106.5902    6528.3673    11914.618    1797.2708 
    9100    298.04164   -1113.5061    6375.3873    11629.084    1791.0148 
    9200    300.93816   -1117.1045    6305.6151    11617.593    1766.3275 
    9300    299.93616   -1125.8892    6461.3172    11743.104    1837.6235 
    9400     302.3426   -1132.5419    6453.3505    11779.894     1815.362 
    9500    298.50016   -1135.1786    6239.7381    11481.557    1694.7564 
    9600    302.27211   -1136.3986    6410.4435    11731.625    1767.4847 
    9700    296.68821   -1131.8954    6391.9841    11598.377    1764.2676 
    9800    300.98294   -1145.4322    6338.3449    11622.951    1796.4126 
    9900    299.01777   -1147.3938    6312.1967    11552.859     1769.062 
   10000    299.24417   -1150.8516    6315.6925    11557.733    1783.6448 
   10100    305.18645   -1157.6451    6398.0815    11760.277    1810.4807 
   10200    296.64249   -1160.2819    6348.7571    11525.787    1807.5322 
   10300    305.87226    -1161.972    6339.9958    11712.515    1813.6283 
   10400    304.43018   -1163.5649    6324.8063    11664.925    1848.9708 
   10500    298.10993   -1163.1987    6150.2982    11355.761    1825.6393 
   10600    301.53621   -1161.3035    6411.8573    11692.412     1900.654 
   10700    300.05559   -1161.9861    6377.7881    11626.029    1831.0156 
   10800    296.91244   -1158.1606    6287.0216     11471.94    1887.4178 
   10900      306.167   -1161.0354     6269.124    11648.877    1868.2082 
   11000    297.91481    -1161.295    6320.5861    11523.784    1774.1855 
   11100    304.67387    -1155.947     6357.266    11710.209    1823.4878 
   11200    297.80038    -1147.284    6357.3764    11572.141    1810.9778 
   11300    301.92342   -1136.4732     6444.933     11758.59    1801.2903 
   11400    300.69787   -1130.5463    6428.7809    11722.183    1848.7497 
   11500    299.63591   -1125.0468    6384.8472    11661.062    1833.4217 
   11600    302.09891   -1131.5673    6398.6971    11721.009    1785.5334 
   11700    299.14586    -1125.548    6465.9134    11731.158    1782.8903 
   11800    301.97817   -1130.6206    6378.9706     11699.65    1730.4952 
   11900     296.9579   -1125.1693    6442.0477    11660.928     1697.682 
   12000    304.75343   -1120.7003    6464.8611     11854.75     1739.129 
   12100    296.94286   -1119.7655     6360.851    11584.814    1679.1619 
   12200    302.39354   -1113.2612    6331.1693    11678.082    1698.0269 
   12300     297.8182   -1117.7592    6486.4134    11731.083    1736.0563 
   12400    300.94083    -1118.666    6429.2487    11739.722    1716.9042 
   12500    298.10205   -1117.8055    6450.3805    11701.068    1798.9164 
   12600    303.08736   -1119.4755    6384.3692     11739.89      1739.82 
   12700    294.29792   -1118.6512    6452.5188    11621.091    1737.9012 
   12800    299.68586   -1121.5201    6382.1344    11662.943    1758.0445 
   12900    301.27183   -1127.2403    6419.9829    11728.953    1870.4887 
   13000    294.32029   -1129.2006    6452.0294     11610.53    1858.0545 
   13100    296.84605   -1131.7078    6303.2915    11513.244    1796.3904 
   13200    304.25585   -1133.7005    6405.9877    11772.247    1834.6493 
   13300    298.60017   -1139.5626    6363.9388    11603.511     1806.584 
   13400    300.56392   -1144.7079    6275.6823    11552.062    1760.6826 
   13500    300.98494   -1154.4917    6454.0154    11729.605    1923.4916 
   13600     301.9271    -1156.291     6321.193    11615.111    1855.0522 
   13700    301.12867   -1162.4672    6328.5234    11599.208    1819.1588 
   13800    307.11636   -1163.8727    6316.0835    11713.281     1891.666 
   13900     303.8251   -1170.7931    6337.5118    11657.476    1925.0045 
   14000    299.75356    -1173.589    6317.5284    11547.714     1848.687 
   14100    300.03571   -1165.8368    6372.1418    11616.107     1862.195 
   14200    295.73277   -1165.3592    6337.5488    11490.067    1806.8483 
   14300    298.59607    -1165.399     6360.992     11574.64    1805.7562 
   14400    298.51509   -1163.5715    6316.3008    11530.046     1804.337 
   14500    299.22185   -1168.6108    6370.8551     11594.66    1839.0909 
   14600    301.35874   -1168.8141    6342.3815    11611.635     1777.638 
   14700    298.93746    -1169.822    6363.1673    11579.685    1755.6375 
   14800     302.4488   -1172.5065    6360.3362    11649.184    1822.6097 
   14900    297.66414   -1166.3892    6372.2214     11564.97     1774.649 
   15000    297.25377   -1157.5069     6405.169    11598.033    1788.4726 
   15100    305.09648   -1155.4597     6376.207    11738.665    1901.9265 
   15200    296.74064   -1154.3548    6340.7124    11525.766    1821.2985 
   15300    298.47204   -1144.6542    6350.2435    11581.987     1795.026 
   15400    304.17165   -1143.8637    6376.6263    11730.923    1852.3379 
   15500    296.04543   -1136.5492    6454.9359    11642.943    1876.2093 
   15600    300.83997   -1134.7313    6374.1048    11666.358    1770.7927 
   15700    297.47721   -1131.7783    6373.6163    11596.982    1866.3736 
   15800    307.03542   -1129.3778    6340.6218    11770.585    1892.1814 
   15900    300.52017   -1123.3344    6458.7612    11755.579    1865.5574 
   16000    298.39531   -1123.2347    6429.7036    11681.227    1786.9969 
   16100    302.27433   -1127.4285    6401.9035    11732.102    1844.2816 
   16200    298.41387   -1127.6714     6436.117      11683.6     1877.602 
   16300    301.50229   -1131.9667    6321.9497    11631.117    1769.8804 
   16400    298.98254    -1132.849    6430.2346    11684.689    1835.7935 
   16500     300.6519   -1135.7628      6471.05    11758.254    1821.3645 
   16600    302.32024   -1137.2571    6409.5109    11730.862    1801.4581 
   16700    297.40372   -1144.3289    6250.5923    11459.838    1820.5185 
   16800    301.91206   -1150.3392    6259.0451    11558.594    1812.3545 
   16900    298.53443   -1150.9048    6509.4629    11736.288    1823.5685 
   17000    301.82446   -1157.7081    6345.3706    11635.679    1803.0813 
   17100    297.16067   -1154.8554    6294.2795    11487.806    1815.6503 
   17200    301.41848   -1161.5385    6461.1248     11738.93     1853.713 
   17300    295.23686   -1169.3972    6355.8916    11493.777    1771.1852 
   17400    303.97258    -1170.045    6298.1429    11622.006    1870.8075 
   17500    301.11467   -1165.3118     6384.826    11652.367     1913.639 
   17600    297.68524   -1170.7081    6195.1941    11384.074    1773.1282 
   17700    298.92426   -1162.9714    6399.8041    11622.891    1879.8653 
   17800    301.39278   -1159.5881    6431.3765    11710.583    1900.4206 
   17900    294.89132   -1168.5195    6383.8057    11515.187    1751.1331 
   18000    302.00538   -1168.2454    6423.2775    11706.914    1826.8753 
   18100    300.05029    -1170.435    6409.8251    11649.504    1858.8933 
   18200    301.28799   -1166.6651     6145.558    11415.448    1766.4918 
   18300    300.32521   -1168.8228    6355.2748    11602.439    1880.7344 
   18400    305.13313    -1156.821    6463.4953    11825.375    1867.8957 
   18500    298.75784   -1148.9051    6449.6425     11683.24    1857.2699 
   18600    301.41788   -1152.9135    6317.6961    11604.113    1802.5453 
   18700    299.43154    -1147.591    6386.6061     11635.91    1825.7068 
   18800    297.42361   -1140.1912    6452.2639    11666.072    1885.4619 
   18900    301.67283   -1130.9781     6347.358    11661.157    1822.7084 
   19000    300.09707   -1135.4092    6327.8158     11603.52    1844.4585 
   19100     298.2315   -1136.2357    6387.6928    11622.715    1823.6034 
   19200    306.06344   -1133.2035     6479.214    11884.586    1848.5342 
   19300    295.43943   -1126.5897    6360.2321    11545.253    1762.5382 
   19400    300.69474   -1119.2807     6400.747    11705.348    1784.4148 
   19500    296.38707    -1123.911    6470.4731    11678.417    1802.7345 
   19600    305.32524   -1123.6381    6434.5054    11833.673    1811.2703 
   19700    298.50574   -1112.6466    6423.2935    11687.764    1805.9553 
   19800    296.15184   -1114.2629    6420.1383    11632.705    1788.8276 
   19900    298.95043   -1114.1589    6474.0311    11746.489    1799.9919 
   20000     295.7414   -1111.6934    6576.1294    11782.497    1861.3005 
   20100    299.71435   -1111.5059    6461.9864    11753.418     1766.344 
   20200    302.75787   -1111.9588    6505.2909    11861.289    1869.9348 
   20300    298.72775   -1116.5325    6332.6011    11597.929    1784.7822 
   20400    302.42211   -1116.3346     6408.165    11752.615    1801.3134 
   20500    300.79946   -1119.2576    6495.9888     11802.85    1816.1583 
   20600    298.20401    -1116.968    6512.5242    11766.227    1809.6252 
   20700    300.83815   -1117.8481    6490.7927     11799.89    1840.1871 
   20800    303.44959     -1116.83    6403.6202    11769.525    1860.8737 
   20900    297.78356   -1121.3618    6368.9662    11609.293    1846.5697 
   21000    302.85754   -1115.6704    6483.0615    11837.478    1888.6951 
   21100    297.81834   -1118.2872    6381.8755     11626.02    1846.5669 
   21200    307.42814   -1122.1873    6342.4938    11788.037    1863.8196 
   21300    300.95736   -1122.2922    6405.7285    11712.929    1841.5925 
   21400     297.6543   -1120.8938    6417.8709    11655.904    1834.0756 
   21500    302.84405   -1124.3014    6453.5465    11799.043    1878.7776 
   21600    297.36656   -1126.2076    6401.2409    11627.814    1832.5111 
   21700    299.69207   -1130.0972     6423.577    11695.941    1940.9809 
   21800    299.38166   -1132.9288    6423.7259    11686.627    1907.6385 
   21900    298.79972   -1127.9491    6505.6357    11761.084    1884.2855 
   22000    297.54892   -1137.0697    6467.5885    11687.195    1837.4319 
   22100    302.00814   -1138.2376    6483.5287    11797.232    1941.1548 
   22200    296.98021   -1142.9402    6338.4184    11540.005    1818.3016 
   22300    298.82272   -1144.4688    6358.5081    11597.928    1848.2906 
   22400    301.06056   -1145.6538    6440.4316    11726.475    1899.7287 
   22500    298.08106   -1144.5656    6410.5975    11634.076    1844.2807 
   22600    300.99241   -1143.3764    6379.0519    11665.917    1814.4151 
   22700     301.4876   -1144.8734    6317.5479    11613.494    1829.7706 
   22800    296.20028   -1149.2963     6424.789    11603.357    1812.8733 
   22900    299.50358   -1146.6689    6382.2711    11634.037     1826.005 
   23000    303.75291   -1149.2011    6315.7238    11655.738     1809.729 
   23100    301.73183   -1144.4628    6335.8154     11637.39    1806.4757 
   23200    300.52378   -1146.9562    6432.6245    11705.898    1831.7386 
   23300    299.81437   -1143.7225    6460.8339    11722.186    1888.2282 
   23400    300.41671   -1147.7663    6359.2793    11629.455    1821.2797 
   23500     299.5951   -1143.9285    6434.3669    11690.828    1816.2163 
   23600    298.55717   -1144.8756    6419.6696     11653.01    1824.6866 
   23700    300.06274   -1136.6306    6360.0343    11633.784    1837.4557 
   23800    294.99762   -1135.5847    6365.4711    11532.058    1878.6539 
   23900    300.30678   -1138.1859    6416.4441    11693.852    1874.4359 
   24000    297.05033   -1131.0658    6386.9438    11601.902    1828.0636 
   24100    303.36206   -1130.9136    6337.1164    11687.068    1827.8884 
   24200    299.36061   -1131.8475    6493.3848    11756.918    1850.7034 
   24300    298.26123   -1125.3911    6474.8914    11721.394    1723.5902 
   24400    303.98159   -1125.4764    6539.1785    11907.802     1813.874 
   24500    298.23626   -1119.8674    6508.8876     11760.38    1773.3018 
   24600    302.91404   -1116.5325     6370.931    11725.692    1832.8384 
   24700    298.47141   -1117.6549       6331.4    11590.129    1803.8353 
   24800    299.00442   -1117.2133    6481.6566    11752.214    1836.5816 
   24900    302.18012   -1118.0856    6549.2653    11886.794    1902.7039 
   25000     300.4471   -1120.4855    6547.4753    11845.581    1856.3562 
   25100    299.34953   -1118.1316    6459.7708    11736.783    1871.0962 
   25200    300.27121   -1126.3042     6237.594    11526.124    1774.3322 
   25300    297.50812   -1130.4784    6444.5225    11669.849    1847.5529 
   25400    303.28839   -1137.8016    6489.6596    11831.149    1874.2581 
   25500    299.98589   -1142.9868    6422.5774    11688.329    1840.7214 
   25600    296.46395   -1154.6108    6361.7109    11540.597    1810.1538 
   25700    304.29067   -1153.3629    6406.3752    11753.716    1775.9926 
   25800    299.36373   -1153.9456    6421.1447    11662.646    1722.8868 
   25900    301.03874   -1159.3346    6310.2442     11582.14    1785.3829 
   26000    303.26861   -1160.2747    6301.9629    11620.557    1794.1531 
   26100    302.21062   -1167.8746      6373.59    11661.982    1788.2844 
   26200    299.00054   -1165.6607    6377.5042    11599.531     1801.358 
   26300    299.86106   -1169.1725    6401.6487    11638.548    1790.6598 
   26400    301.71691   -1171.8854    6400.4961     11674.33    1776.2047 
   26500    295.20422   -1175.1683    6423.4814    11554.898    1876.1752 
   26600    303.75684   -1183.8983    6345.4014    11650.802    1912.1087 
   26700    299.99569   -1175.8998     6427.756    11660.804    1896.7832 
   26800     303.1538   -1171.7577    6437.6693    11742.327    1840.7152 
   26900    295.65481   -1162.8087    6466.0706    11619.473    1780.4073 
   27000     301.1016   -1170.8743    6411.4261    11673.125    1751.9592 
   27100    300.00392   -1167.6938    6290.4106     11531.84    1783.5235 
   27200    299.32657   -1158.8656    6275.1111    11510.898    1807.8075 
   27300    299.50768   -1156.0503    6473.7413    11716.213    1889.0021 
   27400    299.31801   -1157.6759    6368.7489    11605.543    1806.8415 
   27500     296.4216   -1155.6917    6414.1356    11591.037    1864.0404 
   27600    302.00129   -1142.2327     6435.393    11744.955    1882.5462 
   27700    302.92258   -1140.1249    6457.3809    11788.732    1866.2393 
   27800    296.97711   -1136.1333    6473.4544    11681.781    1855.2553 
   27900     298.2103   -1136.9992    6441.1876    11674.994    1794.6504 
   28000    301.30645   -1124.8477    6408.6072    11720.709    1804.5521 
   28100    297.91141   -1122.2898    6443.8853    11686.016    1788.3184 
   28200    299.27955   -1124.8099    6567.0634    11835.902    1855.4278 
   28300    301.02588   -1124.7294    6404.7816    11711.008     1814.602 
   28400    293.90215   -1121.3129    6411.2368    11568.692    1775.1773 
   28500     308.5635   -1125.7628    6465.3289    11931.552    1789.8863 
   28600    301.53526   -1123.7046    6562.7797    11880.913    1795.5931 
   28700      294.385   -1124.7307    6432.7946    11597.148    1756.8727 
   28800    299.93243   -1124.4385     6410.013    11693.171    1838.2302 
   28900    291.16912   -1130.8744    6432.7867    11522.294    1798.4348 
   29000    302.17488    -1134.484    6475.9782    11796.997    1912.0789 
   29100    300.49912   -1136.8419    6444.1978    11727.058    1830.3381 
   29200    299.43342   -1137.3689    6435.9319    11695.499    1826.9279 
   29300    298.38787   -1140.2887    6423.7974    11658.108    1878.8867 
   29400    303.18665   -1139.1227    6380.5398    11718.535    1854.1198 
   29500    299.50794   -1149.7007    6310.8186    11559.645    1776.2071 
   29600    305.75416   -1139.8035    6301.9516    11694.117    1832.7976 
   29700    295.70072   -1140.3817    6457.3053    11634.116    1855.0677 
   29800    301.63922   -1148.2963    6394.4587    11690.221     1806.165 
   29900    296.29446   -1150.7767    6385.1001      11564.2    1848.3743 
   30000    296.30974   -1152.0198    6365.1522    11543.335    1748.1325 
   30100    304.02423   -1153.8396     6521.639    11862.811     1804.493 
   30200    299.12069   -1154.4869    6452.2837    11688.051    1846.1825 
   30300    302.86561   -1156.8755    6385.2926    11698.676    1782.8759 
   30400     299.5476   -1155.3496     6403.514    11647.539    1811.9548 
   30500    299.43145   -1150.7779    6492.4667    11738.582    1925.7948 
   30600    303.85939    -1154.557    6376.1073     11713.04    1847.1373 
   30700    299.02319   -1150.5092    6403.4913    11641.154    1838.9545 
   30800    304.32188   -1149.5509     6415.668    11767.487    1900.6828 
   30900    302.35298   -1151.0153    6423.4127    11731.705    1856.0439 
   31000    300.52703   -1149.9305    6382.0843    11652.453    1803.9986 
   31100    298.70429   -1148.9993    6350.8644    11583.224    1783.3917 
   31200     304.5086   -1146.1009    6558.0014     11917.26     1904.918 
   31300    294.74059   -1138.8312    6458.6101    11616.459    1838.8714 
   31400    297.85171   -1143.2356    6313.5195    11533.429     1858.797 
   31500    301.67811   -1141.2855    6326.7176    11630.322     1871.384 
   31600    297.61262    -1133.138    6413.1783    11638.077    1859.5847 
   31700    299.30768   -1138.0139    6474.4731    11730.709    1916.9601 
   31800    300.82653   -1136.9364    6389.3969    11679.158    1879.7409 
   31900    303.43504   -1134.5323    6438.7678     11786.66    1884.7812 
   32000    298.13423   -1138.2051    6335.4192    11566.395    1872.2397 
   32100    302.33385   -1136.4656    6547.9827    11870.416    1916.7114 
   32200     300.4035   -1134.6368    6469.7858    11752.809    1879.8614 
   32300    295.85466    -1134.011    6517.4999     11703.97     1865.946 
   32400    299.17083   -1137.6997    6361.5575    11615.183    1841.5821 
   32500     298.7172   -1139.8093    6374.9034    11616.729    1829.3741 
   32600    300.16036   -1138.5897     6479.763    11753.639    1859.5229 
   32700    298.44551   -1138.3979    6427.4921    11664.925    1920.7849 
   32800    296.22107   -1134.1679    6448.8159    11642.957    1863.1314 
   32900    304.52871   -1139.2764    6464.7064    11831.219    1890.3984 
   33000    299.67316   -1143.9269    6382.2108    11640.341    1874.9155 
   33100    298.13523   -1144.0953    6340.7205    11565.827    1817.8233 
   33200    294.65389   -1150.2972    6505.8301    11650.361    1790.6145 
   33300    301.05907    -1159.581    6408.6715    11680.756     1767.567 
   33400    300.63162   -1159.4022    6377.2979    11640.429    1831.9877 
   33500    298.87837   -1157.4876    6420.4122    11648.003    1868.4537 
   33600    300.31377   -1165.2053    6416.6483    11667.186    1908.8671 
   33700     303.4821   -1164.8222    6317.8891    11636.496    1874.6796 
   33800    298.41213   -1166.5657    6410.5102    11619.062    1912.9916 
   33900    304.16811    -1162.983    6437.8618    11772.964    1904.4233 
   34000    304.65573   -1164.8914     6383.242    11726.853    1873.1165 
   34100    300.98059   -1171.4308    6370.8264    11629.384     1852.204 
   34200    295.52274   -1169.8621     6425.256    11568.784    1904.4121 
   34300     302.3901   -1169.0159    6464.3704    11755.455    1918.4345 
   34400    297.05952   -1175.2771    6391.8936    11562.837    1833.8418 
   34500    301.92421    -1171.304    6382.4466     11661.29    1825.9264 
   34600    299.82443   -1168.5256    6334.9995    11571.763    1775.9993 
   34700    302.11928   -1165.9507     6364.256     11652.62    1777.1457 
   34800    294.20792   -1166.3531    6388.5566    11507.504    1795.5926 
   34900    301.79615   -1162.3338    6441.0534    11726.131    1874.3752 
   35000    298.94291     -1163.12    6356.4402    11579.777    1819.8423 
   35100    299.18159   -1158.5987    6327.1252    11560.082     1830.629 
   35200    294.29902   -1157.4479    6358.0201    11487.819    1855.6038 
   35300    305.58896   -1157.0538    6435.8189    11807.204    1855.2361 
   35400    300.16621   -1144.7675    6434.5325    11702.356    1867.8289 
   35500    295.46754   -1144.9178    6393.9103    11561.203    1824.0633 
   35600    301.84089   -1142.5677    6456.8762    11762.676    1846.4416 
   35700    298.03927   -1138.4226    6478.7979    11707.527    1772.5652 
   35800    301.25875   -1133.4295     6525.867    11828.368    1830.9829 
   35900     298.9281   -1133.3668    6357.3526    11610.126    1815.5499 
   36000    306.04712   -1129.9145    6590.3624    11998.675    1898.3073 
   36100    294.32007   -1130.1152     6394.653    11552.235     1798.765 
   36200    301.73778   -1130.2225    6414.7204    11730.663    1793.1994 
   36300    300.38733   -1136.9387    6529.7724    11810.148    1803.6194 
   36400    297.52802   -1136.0192    6382.6009    11602.811    1750.7426 
   36500    299.69712   -1138.8576    6534.5242    11798.236    1844.5285 
   36600     297.7924   -1142.0343     6409.823    11629.666    1847.7009 
   36700    300.41484     -1141.01    6374.2813    11651.173     1840.721 
   36800    300.48513    -1145.882    6503.7272    11777.249    1930.2677 
   36900    295.19651   -1139.7198    6433.9917    11600.692     1817.692 
   37000     297.8319   -1150.5247    6427.9566    11640.154    1853.3177 
   37100    299.52958    -1152.104     6356.356    11603.242    1892.9647 
   37200    302.13236   -1151.3705    6323.8138    11627.037     1908.668 
   37300    300.84881   -1160.1058    6385.3519    11652.419    1930.9519 
   37400     297.8404   -1160.5378    6467.3017    11669.667    1911.3908 
   37500    300.36681    -1158.004    6387.0927    11645.965    1868.8152 
   37600    298.62091   -1161.7165    6301.0147    11518.876    1900.0333 
   37700    303.76738   -1159.2044     6480.108    11810.428    1955.0581 
   37800    296.23589   -1164.7778     6361.477    11525.324    1870.8382 
   37900    301.01523   -1166.1968    6353.1071    11617.639    1884.8649 
   38000     297.7347   -1158.0202    6488.0067    11690.631    1934.7128 
   38100    298.16238   -1160.2614     6343.053    11552.573    1857.6773 
   38200    301.90115   -1169.6542    6390.8822    11670.883    1908.0969 
   38300     300.1298   -1164.2534    6428.2738    11675.833    1904.4099 
   38400    300.02888   -1161.6327    6500.1824    11748.206    1878.2593 
   38500    301.08551   -1157.8728    6428.5514    11702.909    1807.9758 
   38600    303.06877   -1156.8622    6439.2977    11757.035    1840.4461 
   38700    298.74291    -1154.755    6511.5292    11738.958    1865.7627 
   38800    302.18622   -1148.5464    6455.6793    11762.878    1800.7897 
   38900    297.02984   -1142.9997    6408.6986    11611.286     1910.752 
   39000    300.33115   -1139.9302    6429.8388    11706.023    1930.1849 
   39100    298.20578   -1137.3165    6409.5422    11642.935    1794.0078 
   39200     300.1914   -1137.8556    6514.3404    11789.613    1780.8068 
   39300    298.73751   -1139.0277    6551.5124    11794.553    1998.0625 
   39400    296.37838   -1140.5061    6384.7305    11575.894    1881.0602 
   39500    301.04063   -1141.0246     6366.218    11656.464    1867.9524 
   39600    305.30824   -1135.8687    6482.2175    11868.791    1940.4633 
   39700    301.24597   -1139.1808    6587.2675    11883.745    1831.1271 
   39800    296.19842   -1139.3703    6484.2944    11672.749    1845.4915 
   39900    299.47297   -1141.2504    6360.6649    11617.195    1904.3065 
   40000    303.32376   -1143.7209    6427.0518    11763.378    1942.5979 
   40100    297.52021   -1144.3942     6389.146    11600.814    1925.2578 
   40200     302.2395   -1141.7148    6446.3611    11761.529    1983.6433 
   40300    298.80964    -1154.053    6446.4336     11675.99    1947.8724 
   40400    302.65091   -1160.6726    6382.5422    11687.542     1890.151 
   40500    298.78229   -1159.6674    6426.1786    11649.536    1888.6691 
   40600    304.72384   -1165.8817     6397.769    11741.845    1830.0176 
   40700    301.53948   -1159.5117    6396.9707    11679.387    1844.6033 
   40800    300.99146    -1159.547    6326.6919    11597.366    1809.0177 
   40900     293.5214   -1167.4545    6355.2292    11458.409    1833.0743 
   41000    306.25559   -1162.3028     6439.049    11819.427     1921.948 
   41100    298.06698   -1169.7564    6433.3516    11631.339    1857.4562 
   41200    306.71944   -1171.6284    6475.2827    11856.244    1950.5063 
   41300    299.09402    -1176.066    6415.7517    11629.371    1886.5883 
   41400    300.24556   -1177.4089      6382.09    11618.967    1946.4498 
   41500     308.3531   -1175.0942    6392.1922    11804.589    1923.1562 
   41600    297.28511   -1175.6916    6463.9821    11639.331    1923.3458 
   41700    300.81938   -1172.1329    6448.0934    11702.505    1884.0565 
   41800    299.00536    -1159.274    6378.4401    11606.957    1845.8572 
   41900    300.72227   -1165.4697     6444.275    11703.275     1902.529 
   42000    300.44568   -1164.5949    6289.5508    11543.517    1834.5877 
   42100     298.2591   -1165.0298    6340.5903    11547.409    1776.1461 
   42200    306.07352   -1168.4135    6548.7713    11919.149     1880.799 
   42300     298.0725   -1155.9668    6598.4698    11810.365    1881.7527 
   42400    303.49652   -1154.0621    6369.8876    11699.563    1824.7035 
   42500    296.66502   -1155.6689    6329.8713    11511.995    1880.2181 
   42600    303.56882   -1155.5007    6469.3476    11799.129    1946.2362 
   42700    297.49108   -1153.0163    6397.5179    11599.942    1897.9952 
   42800    301.61731   -1151.3222     6413.048    11705.317    1899.1481 
   42900    301.86084   -1154.5461    6434.3605    11728.608    1953.6983 
   43000    295.72299   -1151.6346    6394.9281    11560.961    1865.4296 
   43100    301.62118   -1153.0318    6501.8754    11792.517    1861.0638 
   43200    300.83328   -1150.7446     6452.322    11728.419    1835.8304 
   43300     295.0976   -1152.6943     6373.821    11525.434    1823.0502 
   43400     303.5269   -1148.9726    6457.2052    11792.619    1869.1824 
   43500    300.77706   -1153.1607    6439.5678    11712.048    1876.3412 
   43600    300.15003   -1155.0868    6436.5908    11693.749    1904.4572 
   43700    301.45489   -1159.1864    6474.4604    11755.395    1916.1374 
   43800    303.71477   -1159.3254    6304.4639    11633.539    1802.9573 
   43900    300.54526   -1159.5805    6438.4974    11699.605    1904.7185 
   44000    302.62456   -1159.4298    6481.6152    11787.295    1885.4926 
   44100    298.01554   -1161.5259    6363.0336    11568.152    1875.9051 
   44200    300.05936   -1157.6322    6361.7927    11614.468    1871.3777 
   44300    298.58508   -1157.4385    6579.5751    11800.949    1918.3237 
   44400    299.28472   -1161.4772    6397.5792    11629.861    1848.6708 
   44500    302.52696   -1160.0878    6295.9427    11598.879    1865.3814 
   44600    299.89083   -1151.6367    6422.8441    11677.915    1891.4642 
   44700    302.34786   -1160.3348    6488.0543    11786.918    1908.4347 
   44800     299.5313   -1165.7065    6469.3932    11702.713    1891.6762 
   44900    296.55435   -1160.2401    6492.8555    11668.044    1844.1449 
   45000    304.21105   -1155.4852    6525.5993    11869.116    1907.2413 
   45100    295.16967   -1156.8382    6348.5322    11497.541    1840.4969 
   45200    298.54714   -1155.8338    6385.6946    11607.862    1855.0067 
   45300    305.32961   -1150.8821    6429.7533     11801.77    1835.8142 
   45400    299.95668   -1153.1557    6407.1439    11662.102    1863.9743 
   45500    297.00055   -1157.6549    6396.6179    11583.924    1863.1591 
   45600    301.42044   -1154.1185    6434.7173    11719.984    1833.3147 
   45700    301.48008   -1158.1668    6428.4044    11710.897    1868.5706 
   45800    295.28016   -1158.3547     6377.626    11527.479    1827.2261 
   45900    302.09039   -1159.6127    6484.2047     11778.29    1878.2414 
   46000     296.5514   -1157.6088    6503.2479    11681.005     1925.176 
   46100    299.44662   -1151.4281    6301.9787    11547.768    1878.8996 
   46200    298.50509   -1146.4453    6470.0562    11700.714    1904.1965 
   46300    301.84244   -1148.4384    6393.5496    11693.512    1893.8827 
   46400    295.32525    -1154.673    6453.9866    11608.484    1925.8409 
   46500    298.72557   -1157.3026    6381.6031    11606.114     1820.655 
   46600    300.98449   -1159.3777    6397.7461     11668.44    1804.2544 
   46700    302.47369    -1160.059    6573.5898    11875.417    1944.1366 
   46800    298.34044   -1157.8598    6301.0929    11516.819    1748.1352 
   46900    299.03195   -1156.4556    6346.0598    11577.963    1762.1527 
   47000    304.96546   -1163.1633    6460.4382    11812.394    1945.6433 
   47100    296.31897   -1159.3899    6367.4822    11538.492    1864.8875 
   47200    299.85955   -1158.2368    6366.2641    11614.066    1876.1131 
   47300    304.22533   -1158.3861    6390.8323    11731.754    1999.2198 
   47400    299.69398    -1160.863    6405.2762    11646.915    1880.9433 
   47500    299.17356   -1163.3426    6436.2015    11664.243      1834.52 
   47600    298.84368   -1162.7028    6324.5834    11546.217      1872.85 
   47700    301.33966   -1166.4756    6503.0065     11774.19    1894.7964 
   47800    307.89589   -1163.0769     6453.634     11868.28    1887.1591 
   47900    298.04622   -1170.5449    6441.9236    11638.679    1934.4375 
   48000    300.42318   -1164.3045    6472.5053    11726.281    1974.4692 
   48100     300.6558   -1161.6808    6371.3012     11632.67    1851.0056 
   48200    296.18723   -1166.3495    6348.9193    11510.156    1930.4934 
   48300    304.97575   -1164.9674    6437.1724    11787.544    1957.2199 
   48400    296.97383   -1162.4508    6489.5075    11671.447    1893.0708 
   48500    302.60973   -1167.8344    6404.9782    11701.936    1879.1181 
   48600    299.44163   -1169.3746    6430.1907    11657.927    1966.2867 
   48700    297.65375   -1165.6846    6406.2927    11599.524    1864.9326 
   48800    299.51657   -1165.5239    6422.4093    11655.597    1833.4921 
   48900    302.47347    -1160.104    6405.6847    11707.462    1990.6578 
   49000    297.20296   -1154.9958    6412.8895    11607.179    1930.2529 
   49100     302.6579   -1155.7827    6398.5409     11708.58    1941.4549 
   49200    296.34778   -1162.0472    6361.4412     11530.41    1911.4494 
   49300    301.00406   -1162.9238    6520.5305    11788.097    1912.7615 
   49400    302.31666   -1162.0411     6426.705    11723.195    1852.1735 
   49500    302.29987   -1161.3408    6446.9157    11743.748    1911.1675 
   49600    298.83681   -1163.3209    6356.8903    11577.759    1864.7922 
   49700    296.53373   -1164.8488    6402.2029    11572.342    1851.7319 
   49800    297.25052   -1155.3433    6502.7132    11697.671    1882.3375 
   49900    297.29651   -1156.9499    6445.4785    11639.812    1895.8387 
   50000    304.29503   -1154.4506    6324.5855    11670.931     1847.827 
   50100    298.74601   -1159.3766    6410.0971    11632.971    1850.7581 
   50200    300.98967    -1157.894    6438.6357    11710.924    1913.4046 
   50300    300.35178   -1156.9319    6510.2841    11769.907    1991.5028 
   50400    305.31315   -1161.2895    6448.9669    11810.224    1917.1349 
   50500    302.15042   -1162.2352    6406.4221    11699.167    1899.7794 
   50600    295.08935   -1161.3423     6389.977    11532.766    1897.2207 
   50700      303.931   -1159.6359     6376.826     11710.21    1891.2913 
   50800    298.79527   -1158.6224    6508.3591    11733.039    1863.8324 
   50900    298.10044    -1157.853    6532.7662    11743.372    1903.2222 
   51000    297.74733   -1164.7011    6338.1083    11534.322    1841.0148 
   51100    302.04971   -1162.8482    6406.1649    11696.145    1867.2772 
   51200    298.30873   -1168.8161    6445.5312    11649.623    1891.7263 
   51300    305.09108   -1164.2351    6416.3264    11769.894    1927.5887 
   51400    297.35488   -1161.4678     6385.183    11576.246    1856.3207 
   51500    309.07847   -1164.7577    6468.2649    11906.494    1949.0473 
   51600    299.29641   -1164.0451    6384.2703    11614.234    1904.7449 
   51700    297.57169   -1159.6178    6370.7031    11568.248    1846.0722 
   51800    306.71285      -1168.2    6490.4558    11874.705    1958.8823 
   51900    294.33727   -1165.2448    6381.0024    11503.822    1858.4737 
   52000    299.37125   -1161.9371    6334.8065    11568.477    1842.9519 
   52100    302.56311   -1163.0396    6380.1914    11680.949    1894.5782 
   52200    294.53144   -1161.9169     6463.927    11594.222    1940.9329 
   52300    298.50985   -1163.2522    6381.2699    11595.223    1842.1169 
   52400     302.3733   -1163.5393    6458.2768    11754.479    1916.5891 
   52500    294.13585   -1162.3063    6472.6873    11594.142    1915.3191 
   52600    302.95891   -1161.9239    6392.3687    11702.697    1852.4092 
   52700    297.13247   -1161.1689    6354.6095     11541.22    1820.0376 
   52800    303.66258   -1163.2416    6466.2188    11790.262    1949.2978 
   52900    299.28339   -1161.0781    6464.7621    11697.414    1890.2251 
   53000     301.3195   -1158.3231    6475.3709    11754.277    1947.8344 
   53100    302.74377    -1159.914    6348.7066    11656.449    1870.9666 
   53200    301.31724   -1158.7466    6312.4141    11590.848    1827.4915 
   53300    298.51825   -1158.5712    6359.0858    11577.899    1861.4705 
   53400    302.86664   -1162.4705    6527.8441    11835.655    1918.1407 
   53500    295.22568    -1158.934    6500.4709     11648.58    1843.1754 
   53600    301.09066   -1165.0494    6418.3571    11685.648    1815.7419 
   53700    296.26522   -1165.3681    6404.6095    11568.493    1882.6491 
   53800    298.59358   -1161.9879    6411.7327    11628.738    1876.1888 
   53900    299.83435    -1161.774     6380.072    11623.799     1864.024 
   54000    303.39806   -1156.0971    6391.8985    11717.435    1939.9149 
   54100    298.78688   -1159.0641    6423.4124    11647.472    1898.0328 
   54200    299.88248   -1156.0557    6458.7644    11709.238    1826.0431 
   54300    299.95937   -1159.4353    6394.9874    11643.724    1862.6071 
   54400    300.28465   -1164.8333    6497.9097    11748.197    1955.8652 
   54500    299.94933   -1161.9583    6376.7147    11622.714    1831.2694 
   54600    299.93402   -1165.7277    6337.4966    11579.399    1789.2122 
   54700    299.61265   -1163.0933    6596.3317    11834.003     1949.758 
   54800    298.95752   -1160.9447    6463.9197    11689.744    1905.5909 
   54900    303.21348   -1159.6343    6333.4012    11651.458    1786.5718 
   55000    294.77772   -1156.9267    6438.0054    11578.552    1902.0987 
   55100    297.51664   -1158.2475    6457.2267    11654.966    1923.0464 
   55200    299.58086   -1158.6657    6363.7346    11605.154    1833.4112 
   55300    298.43937   -1158.6259    6455.4556    11672.529    1910.8501 
   55400    305.77377   -1162.6163    6525.4774    11895.249    1943.3588 
   55500    296.19284   -1158.4938    6403.1243    11572.336    1834.6586 
   55600    302.26436   -1158.4757    6353.5035    11652.442    1850.6528 
   55700    300.39237   -1163.4931     6403.757    11657.686    1902.4745 
   55800    298.28137   -1162.0166    6431.9836    11642.291    1848.2863 
   55900     299.6702   -1159.8698    6495.1145    11737.239    1866.2302 
   56000    300.91459   -1158.0865    6497.6418    11768.134    1932.4021 
   56100    298.46779   -1157.8196    6397.2309    11615.718    1929.3902 
   56200     297.8813   -1157.9334    6370.8745    11576.718      1917.99 
   56300    301.42426    -1151.046    6410.7734    11699.194    1868.1716 
   56400    298.38437   -1159.3182    6495.8219    11711.028    1944.0637 
   56500    298.01507   -1158.5492    6388.1522    11596.238    1856.7305 
   56600    300.72688   -1159.0506    6373.1761    11638.694     1920.817 
   56700    296.78781   -1163.1636    6449.1929    11626.446    1905.0885 
   56800    299.86227   -1159.9652    6410.4909    11656.623    1798.2537 
   56900    299.80761   -1163.4747    6429.2625    11670.717    1888.9966 
   57000    303.58788   -1160.3026    6512.6742    11838.061    1975.5531 
   57100    300.91743   -1161.2702    6410.8553    11678.224    1879.0292 
   57200    296.46575   -1156.4052     6356.662    11533.793     1929.311 
   57300    306.61922   -1159.3389    6465.6064    11856.717    1962.0989 
   57400    299.51799   -1164.7451    6515.6677    11749.665    1898.6609 
   57500    299.29142   -1162.5048    6409.0056    11640.403    1857.0268 
   57600    302.85557   -1166.8847    6452.8849    11756.045    2007.5311 
   57700    297.49721   -1170.4549    6313.5842    11498.701    1897.9101 
   57800    299.71888   -1169.8971    6410.6567    11643.794    1866.1794 
   57900    302.91888   -1163.6936    6435.0949    11742.799    1887.7471 
   58000     299.7167   -1155.3163    6550.1504    11797.821    1885.1077 
   58100    300.07362   -1158.7213    6347.0756    11598.967    1785.6999 
   58200    299.55412   -1162.0939    6425.2493     11662.67     1956.783 
   58300    299.82262   -1159.9644    6294.9759    11540.262    1864.3396 
   58400    300.21367   -1162.4244     6443.154    11694.334    1821.4958 
   58500    300.68194    -1167.694    6465.4188    11721.333    1877.6917 
   58600    299.63341   -1163.7179    6485.3409    11722.831    1958.3086 
   58700    301.82903   -1163.0859    6489.1168    11774.145    1904.5779 
   58800    300.54902   -1157.6732    6348.5498    11611.645    1891.0737 
   58900     300.0004   -1161.8417      6357.56    11604.767     1982.959 
   59000    300.77471   -1158.1722    6442.4882    11709.906    1915.6809 
   59100    301.33308   -1155.1329    6512.7386    11795.124    1950.3068 
   59200    305.70209   -1157.7851    6364.0212    11737.092     1896.344 
   59300     297.9147   -1150.1358    6435.2898    11649.645    1898.5791 
   59400    300.59825   -1153.1837    6431.0129    11699.649    1893.5428 
   59500    305.86819   -1151.1986    6393.2808    11776.487      1925.21 
   59600    297.40473   -1148.7985    6423.8503    11628.648    1899.1561 
   59700    299.78994   -1151.3333    6481.8116     11735.03    1906.1772 
   59800    292.58906   -1154.5871    6485.4416    11581.571    1925.6795 
   59900    301.88947   -1156.7338    6459.5079    11752.179     1973.336 
   60000    297.84852   -1156.2931    6360.8027    11567.586    1894.4262 
   60100    298.03301   -1156.9374    6501.4499    11711.531    1910.8151 
   60200    294.83756   -1152.5024    6454.9431    11601.193    1878.8607 
   60300    301.93561   -1158.6852     6418.695    11710.401      1926.36 
   60400    297.56856   -1158.4017    6365.6112    11564.305    1872.9509 
   60500     297.5157    -1159.438    6434.1139    11630.642    1895.5652 
   60600    301.36552   -1164.5032    6515.2417     11788.95     1895.769 
   60700    300.85993   -1166.1758    6404.3545    11665.589    1819.7685 
   60800    296.45414   -1151.4134     6422.376     11604.25    1813.9379 
   60900    297.90197   -1167.8624    6410.6004    11606.956    1832.8684 
   61000     301.7915   -1169.0783     6464.852    11743.086    1880.2095 
   61100    299.13602   -1165.1466    6423.7902    11649.226    1901.6433 
   61200    300.97237   -1163.5465    6393.2052    11659.472    1913.6406 
   61300    298.88321   -1167.4714    6362.9643    11580.674    1837.5644 
   61400    300.49945   -1164.4878    6414.7219    11669.944    1922.3564 
   61500    297.34468   -1175.2165    6445.6703    11622.767    1930.0612 
   61600    301.16154   -1168.2683    6462.9609    11728.547    1892.5846 
   61700    299.01268   -1169.5996     6342.285    11560.633    1890.7058 
   61800    299.97585   -1173.8055    6427.9142    11662.632    1964.8583 
   61900    305.29003   -1174.0194    6377.4888    11725.522    1852.0811 
   62000    296.65354   -1164.4424    6508.3334    11681.439    1876.8671 
   62100     302.1428   -1168.0565     6341.226    11627.987    1914.2663 
   62200    295.58465   -1168.7526    6402.5582    11548.518     1963.097 
   62300    295.13587   -1155.9681    6460.5556    11609.713    1863.0926 
   62400    301.73961   -1160.8416    6403.4743    11688.837    1858.6341 
   62500    298.34071   -1160.0645    6338.3148    11551.842    1848.1885 
   62600    300.92604   -1162.1387    6383.4673    11650.152    1818.7139 
   62700    295.78778   -1160.8511    6499.3181    11657.519     1855.858 
   62800     302.1283   -1155.6466    6419.8496    11718.711    1811.9421 
   62900    294.84746   -1161.1433    6404.1904    11542.011    1823.8123 
   63000    303.75206   -1154.8899    6407.8858    11742.193    1845.2844 
   63100    298.61808   -1154.4571    6446.2835    11671.343    1906.1256 
   63200    304.71104   -1148.2587    6426.7344    11788.159    1928.7114 
   63300    298.08733   -1153.4329    6405.4083    11620.154     1885.583 
   63400    300.24787   -1151.1671    6513.4136    11776.582    1964.0067 
   63500    298.85084   -1156.5998     6513.089    11740.979    1871.8729 
   63600    306.12167   -1158.9706    6399.6371    11780.486    1898.1864 
   63700     297.7873   -1161.2975    6376.5404    11577.012    1837.7596 
   63800    303.26922    -1160.611    6537.9274    11856.198    1900.1773 
   63900    297.77183   -1158.4376     6391.125    11594.126    1825.1345 
   64000    301.04812   -1156.7277    6307.4074    11582.111    1858.7996 
   64100    299.55997    -1155.718    6434.6752    11678.596    1940.5997 
   64200    295.09747   -1155.1002    6449.8849    11599.089    1892.1367 
   64300    300.55536    -1156.185    6446.5605     11711.28    1972.7113 
   64400    297.82769   -1159.9621    6362.8078    11565.477    1867.3688 
   64500    301.45266   -1162.3533    6453.1577    11730.878    1897.6665 
   64600    300.60627   -1167.0909    6365.2845    11620.185    1890.6522 
   64700    295.91549   -1163.9186    6525.0844    11682.946    1957.3955 
   64800    299.39437   -1174.5133    6367.7261    11589.314    1820.0986 
   64900    303.62388   -1173.9945     6401.538    11714.002    1842.1299 
   65000    297.83055   -1172.2271    6531.7566    11722.222    1946.5095 
   65100     301.7495   -1169.9449    6397.3295      11673.8    1881.9468 
   65200    301.25973   -1164.0641    6343.8867    11615.775    1864.9196 
   65300    299.92394   -1161.7546    6436.1081    11681.768    1947.4115 
   65400    304.89782   -1165.7171    6513.5678    11861.525    1975.3427 
   65500       304.45   -1165.5176    6411.4687    11750.058    1901.9169 
   65600    300.58528   -1168.0771    6393.5168    11646.983    1910.4982 
   65700    299.03201   -1168.1934    6414.6906    11634.857    1853.8057 
   65800    302.16502   -1166.0695    6418.5668    11707.789    1867.5914 
   65900    298.49374   -1162.7554    6441.7707    11655.876    1907.1085 
   66000    301.04022   -1165.2963    6447.3429    11713.309    1931.0954 
   66100    296.57278   -1162.8448    6375.2982    11548.276    1789.4816 
   66200    294.04659   -1158.6905    6515.7299    11638.894    1835.5493 
   66300    302.53215   -1162.1223    6411.9175     11712.93    1886.3781 
   66400    294.07014   -1158.8369    6415.0217    11538.542    1864.5817 
   66500     300.8299   -1159.9187    6534.3025    11801.153    1920.9779 
   66600    302.39221   -1153.8004    6428.2077    11734.553    1924.0542 
   66700    297.88126   -1157.8872    6431.1206    11637.009    1900.9551 
   66800    301.61889   -1156.8734    6493.0986     11779.85    1860.7684 
   66900    296.11375   -1159.1811    6376.2875    11543.122    1837.5775 
   67000    301.31238    -1151.952    6379.6653     11664.79     1851.311 
   67100     304.9429     -1157.71    6547.2096    11904.137    1878.6252 
   67200    297.57765   -1159.6522    6442.7966    11640.434    1794.0831 
   67300    304.82768   -1162.8624    6366.8152    11716.129    1917.2885 
   67400     295.3351   -1159.2812     6452.267    11602.367     1870.938 
   67500    303.20964   -1161.2782    6501.7337    11818.064    1886.9854 
   67600    304.45541   -1158.9303    6392.2815    11737.574    1990.7922 
   67700     297.5183   -1161.1892    6370.4537    11565.287    1903.9907 
   67800    303.59738   -1156.9738    6384.7769    11713.695    1854.9345 
   67900    295.01177   -1165.5329    6425.7744    11562.715    1898.7696 
   68000    298.75134    -1165.133    6371.2405    11588.472    1903.0828 
   68100    298.04979    -1168.702     6445.028    11643.702    1852.1094 
   68200    301.82374   -1173.3039    6447.9473    11722.644    1817.7018 
   68300    297.46097    -1170.103    6457.3137    11642.008    1873.9199 
   68400    296.82175   -1170.7114    6377.0932    11547.523    1839.6675 
   68500    299.62202   -1171.4148    6398.5209    11628.071    1895.4462 
   68600    301.80951    -1164.635    6457.0397    11740.102    1925.0569 
   68700    301.54048   -1163.2654    6416.0311    11694.716    1804.1442 
   68800    300.25189   -1166.0341    6468.2238    11716.611    1861.5109 
   68900    301.03052   -1163.4485     6349.088    11616.695    1884.2338 
   69000    298.71503   -1167.5956    6354.3154    11568.308    1891.9057 
   69100    302.90818   -1164.4036    6467.4602    11774.225     1881.329 
   69200    301.09144   -1166.3424    6461.1892    11727.203    1848.1842 
   69300    300.05397    -1169.582    6537.8751    11778.486    1928.2012 
   69400    300.59351     -1165.58    6416.1787    11672.318    1875.5592 
   69500    297.25915   -1161.3343    6337.4037    11526.555    1862.2779 
   69600     301.9141   -1158.4608    6319.3856    11610.856    1912.4629 
   69700    296.58702   -1156.4892    6513.9241    11693.561    1970.0494 
   69800    302.63636   -1154.5723    6414.0344    11724.824    1881.0576 
   69900    299.51256   -1161.0406    6445.9125    11683.498    1957.9801 
   70000    300.50938   -1164.2571    6320.3449     11576.01    1844.9279 
   70100    294.69178   -1162.5283     6516.841     11649.95     1893.915 
   70200    300.67715   -1164.3795    6453.6444    11712.771    1862.7834 
   70300    299.34672   -1164.7624    6487.0295     11717.35    1907.9081 
   70400    300.04633   -1161.6193    6431.8379    11680.248    1831.8413 
   70500     299.9841   -1164.2236    6373.8006    11618.277    1876.3579 
   70600    303.16412   -1157.6283    6414.9069    11733.915    1978.4881 
   70700    297.08447   -1157.3403    6509.8378    11699.251    1868.2745 
   70800    300.25991   -1156.5844    6457.9187    11715.926    1883.0115 
   70900    300.87526   -1164.1093    6353.4996    11617.129    1914.2532 
   71000    305.66241   -1166.8136    6372.9952     11736.19    1803.2732 
   71100    300.61725   -1171.5573    6427.6249    11678.294     1840.685 
   71200    297.79914   -1171.6071    6394.8275    11585.242    1825.6658 
   71300    302.09983   -1165.1061    6494.4688    11783.262     1860.694 
   71400    305.28667    -1168.917     6447.428    11800.492    1901.1114 
   71500    296.42032   -1164.4226    6395.4955    11563.638    1851.1943 
   71600     297.3966   -1164.8973    6459.4374    11647.962    1848.0966 
   71700    300.30608   -1161.0656    6372.8075     11627.32    1809.1935 
   71800    297.31606   -1164.2651    6380.6303    11568.067    1943.2318 
   71900    299.16188   -1170.5169    6426.7708    11647.388    1884.8915 
   72000    304.21486   -1167.3907     6412.096    11743.789    1871.1276 
   72100    299.83585   -1162.8071    6467.1109    11709.837    1872.9065 
   72200    296.53397   -1171.9392    6345.7942    11508.848    1806.5512 
   72300      303.554   -1166.0767    6459.8529    11778.742    1832.7673 
   72400     297.5082   -1162.1068    6460.0335    11653.733     1804.315 
   72500    305.23002   -1161.3647    6434.4144    11793.821    1839.8783 
   72600    299.55963   -1165.6942    6377.4861    11611.424    1861.3999 
   72700    300.22135   -1162.6053    6459.9207    11711.084    1891.6315 
   72800    293.69661   -1157.4006    6473.5121    11590.489    1894.0855 
   72900    301.84464   -1159.1282    6406.7062    11696.026    1899.8229 
   73000    301.95136   -1162.3539    6392.0736    11680.447    1893.4527 
   73100    297.38977   -1165.8071    6337.9322    11525.401    1921.8052 
   73200    300.63414   -1164.2131    6418.9755    11677.349    1888.3292 
   73300    299.06785    -1156.391    6549.0567    11781.791    1865.3209 
   73400     301.7789   -1165.7748    6455.8443    11737.113    1802.3109 
   73500    298.21435   -1157.9634    6445.6153    11658.544    1853.9521 
   73600    302.07496   -1166.5004    6460.5237    11747.391    1901.7835 
   73700    296.01615   -1155.3208    6422.2882    11590.898    1936.2977 
   73800    302.66929   -1162.7998    6311.4522    11614.717    1879.3285 
   73900    299.23734   -1163.8034    6452.3128    11681.256    1943.9296 
   74000    301.70988   -1164.0698    6400.3258    11681.825    1901.5446 
   74100    302.24394    -1163.623    6445.6133    11738.968    1924.5706 
   74200    300.22712   -1167.9617    6496.0843    11742.014    1925.5468 
   74300    298.31938   -1163.1981     6447.007    11656.945    1884.1363 
   74400    303.17328   -1164.9899     6291.053    11602.895    1830.1059 
   74500     299.9726    -1166.427    6547.7858    11789.813    1904.7284 
   74600    302.75716   -1161.5925    6472.9478    11779.297     1885.023 
   74700    296.83939   -1169.3231    6339.3016    11511.497    1868.3471 
   74800    300.58289    -1163.143    6456.3968    11714.746     1888.937 
   74900    294.72944   -1163.1934    6406.6783    11539.927    1860.0364 
   75000    300.12217   -1163.3442    6348.1087    11596.414    1863.0856 
   75100    303.64407   -1164.9866    6378.5665    11700.469    1876.4276 
   75200    299.41893   -1161.0496     6478.678    11714.254    1914.8301 
   75300    299.71833     -1164.22    6404.9781     11643.78    1870.7116 
   75400    298.19315   -1165.0289    6414.8963    11620.307    1880.1146 
   75500    301.16459   -1162.0897    6463.3476    11735.177    1897.4471 
   75600    296.17041   -1166.5991    6339.4008    11500.028    1806.6249 
   75700    294.79693   -1164.2396     6386.836    11520.481    1891.5158 
   75800    298.34525   -1161.5857    6414.4116    11626.514    1913.6117 
   75900    303.30699    -1158.675    6534.4388    11855.452     1962.409 
   76000    297.89924   -1166.8435    6255.0266    11452.343    1840.3736 
   76100    302.22514   -1162.7472    6432.1005     11725.93    1977.8535 
   76200    294.73481   -1160.6345    6517.1681    11653.091    1929.2016 
   76300    300.59801    -1163.127     6413.096    11671.784    1893.6694 
   76400    297.17068   -1162.7948     6313.312    11499.113    1826.6234 
   76500    299.67837    -1163.352     6423.626    11662.443    1810.7883 
   76600     304.6384   -1163.3595    6485.5806    11830.353    1850.0008 
   76700    299.31424    -1158.678    6427.7991    11663.511    1812.2156 
   76800    302.49673   -1163.3783    6410.8586    11709.859    1817.4782 
   76900    296.42227   -1162.0331    6419.4347    11590.009    1779.8924 
   77000    297.89494   -1163.3896    6407.4975    11608.176    1809.1591 
   77100    295.02388   -1167.6527    6429.0432    11564.123    1869.4823 
   77200    299.41243   -1161.3139    6383.4529    11618.626    1787.4102 
   77300    300.34364   -1158.9342    6430.1908    11687.638    1925.4881 
   77400     299.0181   -1157.4668    6407.1727    11637.769    1889.5545 
   77500    298.82698   -1163.6916    6436.2618     11656.55    1827.6096 
   77600    301.55399   -1160.9778    6583.5668    11864.827    1899.3884 
   77700    300.13231     -1153.74    6446.0215    11704.148    1922.7431 
   77800    301.79773   -1161.8087    6300.8665    11586.503    1803.8316 
   77900    296.25656   -1157.6573    6408.5545    11579.964    1858.8405 
   78000    298.39889   -1160.0555    6443.8444    11658.623    1861.9966 
   78100    304.13729   -1162.0873    6482.0507     11817.39    1820.6078 
   78200    298.18889   -1163.5323    6470.6148    11677.431    1903.0108 
   78300    306.66684   -1158.5949    6232.2551    11625.127    1845.1946 
   78400    300.88875   -1154.3035    6360.5323    11634.255    1822.3339 
   78500    295.62034    -1152.236    6496.1805    11659.419    1815.8308 
   78600    302.30047   -1150.9969    6571.1394    11878.328     1909.742 
   78700    297.46334   -1151.1498    6361.6563    11565.354    1865.0965 
   78800    302.06833   -1156.6925    6296.4685    11593.003    1816.9666 
   78900    298.70878   -1160.6501    6503.8054     11724.61    1981.5723 
   79000    301.60997   -1161.1628    6374.5038    11656.775    1847.4467 
   79100    298.53135   -1156.3834    6497.0794     11718.36    1888.0425 
   79200     300.8052   -1152.8104    6420.8611    11694.292    1902.8777 
   79300     301.0254    -1158.776    6403.7365    11675.906    1903.5634 
   79400    297.28556   -1160.7228     6315.347    11505.674    1839.4732 
   79500    305.70851    -1158.504    6495.1501    11867.639    1927.1776 
   79600     300.3368   -1161.5903    6558.3105    11812.955    1938.1846 
   79700    297.70382   -1160.4973    6450.6309    11650.119    1929.3151 
   79800    296.16474   -1160.4351     6397.751    11564.421    1912.0044 
   79900    300.33503   -1167.0761    6414.0524    11663.173    1940.5928 
   80000    300.63844   -1170.3193    6369.8353    11622.195    1822.7053 
   80100    299.69267   -1158.2587    6435.2301    11679.446    1894.7635 
   80200    294.19886   -1164.3841    6389.8626    11510.586    1945.6724 
   80300     301.7809   -1161.2358    6429.4731    11715.323    1890.9464 
   80400    299.97607   -1165.2228    6464.9533    11708.259     1930.507 
   80500    299.49737    -1167.097    6384.3662    11615.571      1976.04 
   80600    300.46578   -1165.7243    6358.7538     11612.02    1904.2806 
   80700    298.89702   -1168.2583    6453.4547    11670.673    1905.4953 
   80800    303.00642   -1171.9537    6448.6602    11749.974    1913.0048 
   80900    298.75507   -1171.6826    6416.7336    11627.495    1784.3411 
   81000    299.13053   -1168.8165    6364.5622     11586.21    1791.1509 
   81100    303.62754   -1164.0636    6365.3708    11687.844    1912.5276 
   81200    298.56604   -1163.3456    6513.9356    11728.995    1921.7754 
   81300    299.50705   -1162.9798    6482.5776    11718.106    1931.8128 
   81400    300.82462   -1153.9284    6297.9553    11570.683      1945.52 
   81500    299.47742   -1162.9872    6411.7309    11646.619    1947.2489 
   81600     298.0444   -1165.3595     6448.229    11650.131    1903.4132 
   81700    304.63084   -1164.9324    6453.9772    11797.015    1907.6753 
   81800    301.38317   -1163.4183    6447.4387    11722.609    1928.8538 
   81900    301.10355   -1161.7756    6439.8227    11710.662    1909.6861 
   82000    294.41017   -1163.5385    6522.9369     11649.02    1899.3242 
   82100    300.39288   -1164.9812    6425.1419    11677.594    1910.3269 
   82200    296.05803    -1157.892    6344.3797    11511.313    1905.0613 
   82300    301.61243   -1156.5988      6355.76    11642.648    1861.3726 
   82400    303.23386   -1157.6725    6381.3143    11701.768    1870.3225 
   82500    297.90064   -1160.3163    6398.5983    11602.472     1883.756 
   82600    299.00438   -1152.1045    6552.9891    11788.654     1947.164 
   82700    302.62118   -1161.1297    6333.2729     11637.18    1867.7738 
   82800    300.95864   -1163.3153    6319.1233    11585.328    1816.4404 
   82900    305.77176   -1161.6077     6466.979    11837.716     1826.482 
   83000    303.89878   -1157.1428     6564.223    11899.411    1923.6398 
   83100    296.93199   -1162.5835    6456.2218    11637.135    1900.0921 
   83200    301.20883    -1156.507    6359.5138    11637.871     1889.883 
   83300    299.00569   -1158.4917    6436.4008    11665.707    1969.2223 
   83400    304.58565   -1159.3104    6353.1839    11700.879     1888.775 
   83500    299.16503   -1169.8827    6437.2427    11658.562    1865.9328 
   83600    300.93898    -1164.445    6464.5468    11729.201     1903.301 
   83700    296.92734   -1157.7224    6499.3587    11685.033    1888.4578 
   83800    298.26656   -1168.8224    6441.3646     11644.55    1862.5179 
   83900    300.96618   -1167.3936    6350.8587    11613.146    1913.6304 
   84000    302.16462   -1169.9147    6415.8369    11701.206     1975.227 
   84100    297.15413    -1165.023    6428.7388    11611.958    1943.5647 
   84200    302.40051   -1163.6167    6484.8737     11781.58    2019.5759 
   84300    299.82854   -1160.4783    6372.5446    11617.443    1913.3956 
   84400    296.65984   -1160.9415    6412.7321    11589.473    1944.1912 
   84500    300.01603   -1166.9686    6398.6568     11641.07     1909.058 
   84600    296.45193   -1163.1462     6403.878    11573.972    1900.6856 
   84700    299.50005   -1170.4844    6423.4624    11651.337    1951.7322 
   84800    300.14862   -1164.3926    6424.5291    11672.351    1894.5783 
   84900    296.28419   -1161.8912    6411.3754    11579.141    1865.8845 
   85000    299.06456   -1164.1612    6392.6136    11617.508    1894.4701 
   85100    297.68151   -1163.5791    6308.2464    11504.176    1877.9405 
   85200    304.31781   -1161.6992    6436.8832    11776.467    1973.9961 
   85300    293.89009   -1165.4498    6392.0112    11505.072    1908.4219 
   85400    297.23355   -1165.4532    6454.4398    11638.925    1915.3147 
   85500    302.18183    -1160.942    6475.2486    11769.958    1974.0279 
   85600    304.24353   -1160.5331    6382.6279    11721.791    1910.3799 
   85700    299.84563   -1161.7068    6423.1674    11667.202    1878.3651 
   85800    302.58645   -1162.2518    6518.1697    11820.213    1927.2036 
   85900    297.77147   -1165.9317     6410.797    11606.296    1947.7146 
   86000    302.25589   -1161.7515    6430.9701    11726.452    1977.9811 
   86100    297.67871   -1162.2721    6415.0726    11612.249    1927.9724 
   86200    300.20197   -1159.4715    6472.7889    11726.672    1967.5235 
   86300    304.03466    -1159.256    6350.4101    11686.388     1880.319 
   86400    302.44318   -1163.6458    6394.0378    11691.627    1954.6277 
   86500    296.28259   -1163.2162    6394.7629     11561.17    1968.2138 
   86600    300.83347   -1156.5231    6485.3362    11755.659    1937.7347 
   86700    302.23446    -1166.185    6465.0634    11755.654     1867.624 
   86800    298.80877   -1165.4152    6430.0348    11648.211    1886.2459 
   86900     297.6506   -1163.2696    6366.9206    11562.499    1915.6108 
   87000    301.12447   -1165.5487    6344.3678    11611.881      1905.12 
   87100    293.48072   -1170.7213    6348.6133    11447.657      1953.38 
   87200    303.36016   -1162.4066    6465.5885    11784.006    2014.4727 
   87300    301.32774   -1161.0525    6578.4182     11854.77    1917.7517 
   87400    301.76844   -1168.8315    6447.7109    11725.699    1909.8941 
   87500    297.25898   -1167.7138    6387.9283    11570.697    1941.9927 
   87600    301.38258   -1165.2993    6429.3024    11702.579    1906.8405 
   87700    301.73562   -1166.8512    6427.3169    11706.584    1932.4375 
   87800      295.887   -1170.8878    6431.7492    11582.033    1881.2509 
   87900    302.38586   -1164.8155    6544.9233    11840.118    1941.3418 
   88000    300.68277   -1166.5159    6428.9279    11686.038    1900.9055 
   88100    299.74935   -1170.3236    6413.7433    11647.105      1916.57 
   88200    293.20041   -1166.5839    6317.6124    11414.805    1868.5968 
   88300    305.66314   -1168.7608    6387.8656    11749.129    1951.5164 
   88400    305.18057   -1168.8971    6423.1473    11773.965    1936.6007 
   88500    297.99511   -1166.7374    6515.1046    11714.576    1972.2297 
   88600    303.10735    -1166.418    6313.5242     11622.53    1889.2629 
   88700    302.65358   -1169.8082    6426.2529    11722.174    1967.3942 
   88800    295.81547   -1164.4052    6430.9978    11586.236    1931.9778 
   88900    302.13219   -1167.8512    6468.2558    11754.995    1908.7488 
   89000    306.88978   -1167.8446    6416.8775    11805.262     1882.833 
   89100    297.02988   -1160.8576    6462.6186    11647.349    1892.5192 
   89200    302.74202   -1165.2589    6338.4059    11640.766    1830.0895 
   89300     298.8966    -1162.305    6414.0403    11637.203    1834.1152 
   89400    300.38004   -1163.7452    6593.2549    11846.668     1942.325 
   89500    302.98864   -1165.0513    6403.9908    11711.827    1875.2962 
   89600    297.64511   -1167.4218    6456.3693    11647.679    1959.5615 
   89700    299.15687   -1163.8156    6389.2744    11616.486    1887.0347 
   89800    301.03167   -1158.1824    6412.0425     11684.94    1870.3101 
   89900    293.03506   -1160.6056    6425.9803    11525.619    1907.6966 
   90000     307.1705   -1159.9538    6442.2984    11844.571    1998.3364 
   90100    298.41508   -1161.3563    6360.2965    11574.121    1984.3641 
   90200    298.86785   -1163.2495     6452.741    11674.344    1989.7229 
   90300     300.4541     -1169.68    6424.3054    11673.366    1945.2095 
   90400     304.1635   -1166.7616    6514.7266    11845.952    1955.7438 
   90500    297.87658    -1163.989    6355.9522    11555.639    1842.9518 
   90600    293.67325    -1169.417    6315.3174    11419.779     1872.766 
   90700    300.37067   -1166.7531    6407.6101    11657.815    1892.1218 
   90800    299.42056   -1163.3322    6479.0087    11712.337    1839.2469 
   90900    302.38494   -1163.3456    6536.9038    11833.549    1908.8493 
   91000    296.35159   -1167.2797    6429.9064    11593.724    1856.6174 
   91100    302.78562   -1161.4167    6382.4587    11689.592    1885.6587 
   91200    298.71647   -1162.1137    6417.8819    11637.387    1962.9378 
   91300    303.66114   -1167.2117    6414.7715    11734.814    1920.4626 
   91400    299.87572   -1169.2418    6476.7941    11713.937    1910.7319 
   91500    304.69049   -1166.5256    6518.4132    11861.133    1954.5747 
   91600     297.5207   -1165.5129    6301.9069    11492.467    1859.5989 
   91700    297.96435   -1169.0527    6404.8566    11601.355    1920.4123 
   91800    299.54121   -1163.5294    6507.7505    11743.459    1919.6928 
   91900    299.14484   -1164.8033    6441.7582    11667.725    1855.8676 
   92000    299.26273   -1164.7169    6399.0676     11627.64    1866.9652 
   92100    304.41925   -1162.4821    6380.1036    11721.072    1825.9776 
   92200    297.13789   -1168.9401    6495.1357    11674.091    1905.1624 
   92300    301.05308   -1161.4497    6408.1862    11678.274    1897.2637 
   92400    306.24432   -1166.7592    6428.8443    11804.525    1918.1906 
   92500    298.06732   -1159.8603    6447.8661    11655.757    1939.2205 
   92600    299.84102   -1168.8008     6377.598     11614.44    1891.2829 
   92700    301.89508   -1164.5986    6417.3026    11702.229    1901.8245 
   92800    305.04749   -1164.0699    6532.2109    11885.012    1968.3904 
   92900    304.26518   -1170.2753    6405.2534    11735.137    2004.5889 
   93000    296.15218   -1165.6782    6269.2227    11430.381    1864.4631 
   93100    302.31847   -1162.0898    6492.5688    11789.049    1970.7546 
   93200    297.81395    -1165.097    6380.2391     11577.48    1917.4144 
   93300    302.43806   -1164.2712     6556.879    11853.733    1956.3293 
   93400     299.6461   -1166.3181    6327.7622    11562.923    1863.5254 
   93500    297.07856   -1165.3145    6406.0074    11587.321    1917.2568 
   93600    298.71938   -1163.6335    6444.6183    11662.666    1847.2388 
   93700    305.95005   -1166.8721    6453.0618    11822.343    1904.7399 
   93800    298.26137   -1167.7767    6416.7862    11620.906    1916.6424 
   93900    304.59534    -1165.411    6432.6611    11774.462    1949.8804 
   94000    298.51408   -1172.1757    6439.9928    11645.112    1906.0732 
   94100     304.5245   -1166.7786    6397.9792    11736.899    1954.8084 
   94200    301.83798   -1164.1308     6390.474    11674.648    1901.9884 
   94300    300.57615   -1170.9453    6381.3552    11631.758    1898.0285 
   94400    296.73027   -1162.5622    6599.1517    11775.776    2026.2495 
   94500    301.86326   -1170.1394     6288.639    11567.345    1869.9599 
   94600    300.76194   -1163.9904     6350.746    11612.073    1910.5548 
   94700    297.14313    -1165.626    6528.2185      11710.6    1993.0734 
   94800    298.74752   -1165.5086    6397.4572    11614.231    1843.5316 
   94900    299.99379   -1166.8608    6300.4402    11542.486    1794.9944 
   95000    297.00946   -1164.5408    6558.5666    11739.177    1943.1194 
   95100    299.64212   -1168.5767    6342.4254    11575.243    1851.7118 
   95200    298.49733   -1167.6059    6303.1074    11512.439    1858.8302 
   95300    297.20326   -1163.6307    6482.7505    11668.411     1914.317 
   95400    298.21659   -1161.4101    6459.3185    11668.848    1886.0159 
   95500    302.45533   -1159.9687    6375.2372    11676.762    1875.0195 
   95600    294.76741   -1163.7897    6404.6292    11538.093    1903.5358 
   95700    296.40028    -1160.224    6532.3904    11704.304    1955.4277 
   95800    298.89361    -1161.571    6323.0626    11546.895    1861.6293 
   95900    301.07282    -1164.871    6389.1767    11656.264    1948.9215 
   96000    299.42204    -1159.714    6467.3065    11704.285    1938.6115 
   96100    305.97673   -1161.4973    6436.3524    11811.578    1916.7967 
   96200     298.4664   -1158.8148    6408.4753    11625.937    1861.8618 
   96300    300.88281   -1157.6148    6465.1402    11735.425    1939.0531 
   96400    302.97528   -1163.6737    6348.1874    11657.116    1880.0414 
   96500    298.37764   -1168.0257    6407.0903    11613.445    1863.9608 
   96600    303.52171   -1164.4955    6500.1797     11819.96    1890.0901 
   96700    299.08216    -1166.519    6530.9161    11753.828    1937.3867 
   96800    300.53058   -1167.6932    6381.4555    11634.137    1857.6001 
   96900    302.17131    -1162.168    6395.2391    11688.497    1944.6198 
   97000    299.31431   -1158.4594    6430.4254    11666.357    1932.3978 
   97100    298.62325   -1165.1809    6451.8271    11666.274    1879.0546 
   97200    301.03511   -1158.5524    6290.1965    11562.797     1875.839 
   97300    301.31175   -1165.8064    6402.4417    11673.698    1949.4578 
   97400    300.06435   -1163.6088    6421.8973    11668.703    1902.1598 
   97500     298.7267   -1162.2747    6443.8412    11663.404    1835.5769 
   97600     302.1217    -1169.602    6492.0696    11776.834    1927.2343 
   97700     299.8578   -1169.8794    6442.7005    11678.823    1837.7986 
   97800    299.21959   -1174.4187    6384.0997    11602.048    1799.8562 
   97900     296.1569   -1169.8617    6356.7307    11513.807    1874.7544 
   98000    304.54407   -1156.6787    6440.4477    11789.886    1918.9453 
   98100    298.00236   -1158.8637    6466.2414    11673.741    1931.1017 
   98200    302.86886    -1161.151    6392.0678    11701.245    1967.5357 
   98300    297.40044   -1156.2245    6371.4517    11568.731    1938.6548 
   98400    305.30681   -1166.2613    6416.5917    11772.742    1964.4059 
   98500    298.02867   -1167.7726    6439.4436    11638.596    1930.5245 
   98600    301.52282   -1160.1528    6467.4431    11748.863    1910.5131 
   98700     301.1318   -1165.5675    6414.5739    11682.225     1877.894 
   98800    304.41918   -1164.9071    6388.0765    11726.618    1937.2562 
   98900    298.12958   -1163.1061     6347.987    11553.962    1856.8375 
   99000    301.11713   -1161.0172    6435.6303    11707.519    1888.6163 
   99100    299.66427   -1155.2384    6466.0681    11712.697    1923.1371 
   99200    301.52725   -1161.7718     6445.277    11725.172    1946.9223 
   99300    301.25694   -1158.5019    6392.7902     11670.18    1888.8868 
   99400    302.53673   -1162.1474    6406.8371    11707.923    1865.1316 
   99500    295.83991    -1164.886    6453.8459    11609.126    1864.5831 
   99600    303.76868   -1164.7043    6527.0974    11851.945    1859.6221 
   99700    294.43205   -1162.1706    6443.6662    11571.585    1840.9481 
   99800    301.36456   -1162.9011    6396.6841    11671.974    1888.9308 
   99900    302.51137    -1168.383    6429.2333    11723.541    1863.9445 
  100000    300.46403   -1168.2208    6403.9766    11654.709    1908.5021 
  100100    299.06599   -1164.1017    6416.7736    11641.758    1898.7412 
  100200    301.34225   -1163.7293    6390.2697    11664.255    1909.6618 
  100300    297.96238   -1161.5158    6370.3699    11574.363    1907.2431 
  100400    299.72968   -1160.0146    6412.1674    11655.418    1958.9668 
  100500    303.04693   -1169.8411    6290.4898    11594.781    1810.0494 
  100600    303.16396   -1167.9994    6475.1278    11783.761     1850.346 
  100700    292.68552   -1168.2299    6483.6402    11568.187     1864.607 
  100800    298.83865   -1171.8524    6378.2042    11590.581    1850.4494 
  100900    294.84206   -1175.2281    6399.1138    11522.734    1897.1097 
  101000    305.40013   -1168.7656    6505.1285    11860.768    1920.0029 
  101100    301.50552   -1166.6857    6376.8376    11651.355    1836.2505 
  101200    295.50011   -1164.1231    6472.3686    11621.152    1911.6476 
  101300    300.47137   -1162.1661    6394.9426    11651.886    1928.0895 
  101400    301.66645   -1159.7872    6404.6005    11689.454    1928.2685 
  101500    298.61925   -1160.8188    6394.8858    11613.609    1913.6987 
  101600    299.90805   -1161.8442    6447.8072    11693.038    1883.8203 
  101700    304.84605   -1159.2162    6461.8252    11815.177    1876.2205 
  101800     297.4764   -1166.5754    6411.7415    11600.293    1847.6717 
  101900    301.02521   -1166.2589    6422.9206    11687.603    1905.8304 
  102000    299.12894   -1155.6893    6431.9094    11666.651    1930.5353 
  102100    300.99403   -1154.4427    6466.3625    11742.195    1962.2621 
  102200    305.54527   -1156.4176    6366.7012     11737.79    1909.1827 
  102300    301.87555   -1151.6339    6389.4627    11686.937    1990.0844 
  102400    298.83321   -1155.1557    6427.8606    11656.818      1888.74 
  102500    302.36217   -1156.1292    6415.3154     11718.69    1884.3127 
  102600    301.07323   -1157.8691    6405.9329    11680.031    1923.9419 
  102700    298.08208   -1159.6279    6474.4381    11682.877    1898.1383 
  102800    305.13214   -1160.7282    6521.2895    11879.241    1886.5189 
  102900    297.31847    -1157.522    6419.6141    11613.845    1887.3697 
  103000    303.03267    -1154.937    6406.4888     11725.38    1903.0513 
  103100    298.87065   -1161.8609    6302.4228    11525.475    1868.7708 
  103200    300.56006   -1158.7528    6450.6893    11712.941    1921.5514 
  103300    296.34685   -1157.3487    6526.4259    11700.073    1872.3243 
  103400    299.07144   -1161.0527    6508.0652    11736.215    1868.1951 
  103500    300.70325   -1163.7156    6337.4838    11597.832    1902.6558 
  103600    299.74784   -1170.0226    6301.0348    11534.665    1905.4516 
  103700    299.27682   -1162.8676    6365.7407    11596.463    1834.6886 
  103800     294.5083   -1172.9917    6513.1747    11631.901    1919.3498 
  103900    299.20543   -1168.0628    6480.0307    11704.033    1915.4085 
  104000    301.05478   -1164.9418    6402.2515    11668.883    1842.1908 
  104100    299.53746   -1165.4539    6330.3336    11564.038     1908.932 
  104200    299.47151    -1170.735    6390.6354     11617.65    1968.3345 
  104300    301.03427   -1163.5195    6422.3379    11689.954    1957.4246 
  104400    297.94779   -1168.2524     6366.673    11563.618    1910.3794 
  104500    305.85193   -1167.3004    6398.6349    11765.392    1909.4676 
  104600    299.36712   -1167.2183     6403.985    11632.286    1834.8556 
  104700     295.9173   -1166.2923     6612.789    11768.316    1952.8638 
  104800    298.01021   -1169.7756    6395.9519    11592.707    1866.6851 
  104900    304.65916   -1166.8383       6426.8    11768.537    1896.7912 
  105000    297.59305   -1171.8894    6434.6964    11620.426     1900.973 
  105100    301.01189   -1162.9177    6350.7503     11618.49    1852.3863 
  105200    305.44338   -1156.5184    6497.5604    11866.371    1917.9131 
  105300    297.92554   -1159.9814      6501.46    11706.201    1919.5233 
  105400    301.16088   -1164.0502    6307.3577    11577.148    1856.2374 
  105500    298.67303    -1159.052    6507.3116    11728.951     1880.095 
  105600    303.46455   -1157.4992    6538.6426    11864.198    1898.0431 
  105700    296.88439   -1164.1195    6483.5057    11661.866    1887.7366 
  105800    297.42597   -1156.3555    6367.0962     11564.79    1853.1289 
  105900    300.44477   -1159.6698    6411.5898    11670.461    1902.8314 
  106000    301.91242   -1154.3501    6454.6526    11750.198    1965.8702 
  106100    304.48814   -1153.6338    6320.6906    11671.979    1884.4358 
  106200    299.02195   -1156.9786    6396.8169    11627.983    1888.4561 
  106300    301.85311   -1155.8292    6372.2801    11665.079    1915.0653 
  106400    301.18611   -1163.0126     6435.051    11706.417    1942.3083 
  106500    300.02111   -1164.3843    6468.3785    11713.485    1898.3288 
  106600    300.58611   -1160.8654    6428.2824    11688.978    1865.3688 
  106700    298.30186   -1168.9474    6415.5285    11619.343    1871.8805 
  106800     301.7513   -1162.6517    6473.1032    11756.905    1935.2202 
  106900    299.24647   -1162.5745    6334.6306    11564.998    1840.7299 
  107000    303.13763   -1168.1115    6438.8043    11746.763    1942.9708 
  107100    297.92519   -1156.1188    6412.3073    11620.903    1871.9609 
  107200    302.64342   -1166.5703    6385.0627    11684.005    1869.6004 
  107300    300.37208   -1167.2485     6326.091    11575.831    1854.1914 
  107400    296.25572   -1169.1604    6448.0396    11607.928    1848.9647 
  107500    301.46765   -1174.9242    6499.7742    11765.244    1858.9457 
  107600    299.76644   -1170.3356    6444.2842    11677.999    1921.9205 
  107700    299.69004   -1172.7728     6414.269    11643.914    1886.8243 
  107800    308.97441   -1167.2248    6476.6559    11910.195    1932.8893 
  107900    298.88035   -1170.5759    6467.2591    11681.803    1875.5031 
  108000    297.24372   -1162.3781    6415.5513    11603.329    1873.1173 
  108100    303.06628   -1164.5084    6402.3319     11712.37    1913.3312 
  108200    303.14451    -1163.754     6345.281    11657.744    1916.8423 
  108300    300.59737    -1161.647     6452.116    11712.271    1935.4859 
  108400    295.85273   -1164.4756    6449.7739    11605.738    1891.1942 
  108500     302.4074   -1168.0145    6406.5704    11699.026    1808.6979 
  108600    301.30922   -1160.4567    6392.1258    11668.678    1795.2486 
  108700    297.12293   -1161.1528    6573.3715    11759.794    1874.0432 
  108800    302.82947   -1161.9047    6449.0066    11756.589    1903.2355 
  108900    295.02554   -1159.2253    6367.6706    11511.213    1837.8234 
  109000    298.68612    -1158.005     6443.133    11666.099    1953.3536 
  109100    303.24414   -1157.1804    6441.4664    11762.632    1947.0866 
  109200    297.36451   -1156.1561     6440.171    11636.751    1930.0922 
  109300    305.82433    -1156.728    6430.0543    11806.794     1923.296 
  109400    300.40414   -1153.2986    6440.1998    11704.575     1868.141 
  109500    297.47675   -1162.6101    6398.0824    11590.607    1809.7149 
  109600    302.19277   -1162.6049    6423.7637    11717.044    1842.2744 
  109700    298.82767   -1162.7333    6468.8599    11690.121    1880.8473 
  109800    301.57278   -1162.9962    6351.4036    11631.047    1829.9653 
  109900    300.03546   -1158.6482    6414.1167    11665.266    1891.7418 
  110000    292.30937   -1159.6552    6466.5597    11551.646    1887.2206 
  110100    303.10736     -1159.91      6388.89    11704.404    1874.5841 
  110200    303.74188   -1154.9739    6436.1022    11770.108    1898.0838 
  110300    300.22529   -1165.3315    6446.2854    11694.807    1937.9296 
  110400     305.3365   -1162.7853    6387.5116    11747.772    1911.1799 
  110500    302.99833   -1165.1084    6439.5205    11747.507    1875.5728 
  110600    296.90178   -1167.4639    6357.1039    11532.491    1827.3647 
  110700    302.60721   -1166.7975    6472.5137    11770.455    1928.5686 
  110800    296.92847   -1174.1947    6429.0406    11598.267     1868.406 
  110900    304.30012   -1164.9838    6457.8522    11793.773    1838.7165 
  111000    294.97749    -1161.405    6427.7072    11568.044    1886.6855 
  111100    301.73576   -1161.9697    6398.9501    11683.102    1899.6633 
  111200    298.13537   -1166.2587    6404.5413    11607.487    1901.0942 
  111300    298.72183   -1159.1336    6479.4571    11702.057    1886.7272 
  111400    300.70015   -1161.1084    6425.0802    11687.969    1857.8639 
  111500    301.02558    -1165.732    6416.1211    11681.339    1770.8597 
  111600    294.02561   -1165.5183    6544.5891    11660.477    1847.3979 
  111700    298.47978   -1168.6395    6417.8396    11625.763    1878.6579 
  111800    303.16159   -1164.7055     6283.962    11595.839    1823.5798 
  111900    302.43749   -1167.5783    6439.2298    11732.764    1934.1347 
  112000    298.80015   -1158.4456     6549.739      11774.7    1946.1523 
  112100    300.88122   -1155.3394    6419.6245    11692.151    1885.6109 
  112200    300.47183   -1155.7959     6372.252    11635.576    1870.8175 
  112300    295.07601   -1154.6928     6384.691    11533.844    1922.7514 
  112400    298.41601   -1160.4703    6356.4379    11571.168     1828.481 
  112500    297.90114   -1161.2798     6418.294    11621.215    1859.1062 
  112600    304.41757   -1160.1493    6384.3174    11727.582     1835.815 
  112700    301.63346   -1164.1172    6536.6508     11816.47    1921.4821 
  112800    298.90635     -1158.77    6490.3845     11717.29    1869.0494 
  112900    302.75626   -1161.4236    6336.2713    11642.771    1832.2614 
  113000    300.16124   -1162.1887    6495.0118    11745.307    1935.9121 
  113100    300.55142   -1161.3517    6374.5485    11634.017    1856.9464 
  113200    300.32997   -1149.9642    6470.5989    11736.724    1888.2589 
  113300    303.11162   -1160.4937    6379.5751    11694.596    1878.0824 
  113400    300.35622   -1162.2077    6451.1343    11705.576     1954.299 
  113500    299.09397   -1158.2023    6398.4565    11629.938     1885.719 
  113600    303.68373   -1166.5022    6400.2061    11721.441    1852.4398 
  113700    300.94759   -1160.3494    6469.4729    11738.407    1837.5277 
  113800    297.63716   -1169.7188    6414.4391    11603.282    1840.3329 
  113900    303.12397    -1169.967    6408.9268    11714.738    1877.5366 
  114000    295.76054   -1164.9387     6408.502    11562.033    1904.0855 
  114100    300.19276   -1165.4822    6400.4732    11648.149    1892.1226 
  114200     298.8811   -1156.4272    6458.2134    11686.922    1853.0717 
  114300    298.93212   -1163.2254    6403.3431    11626.344    1804.9859 
  114400    302.47459   -1164.0943    6397.5537    11695.365    1869.3337 
  114500    300.29892   -1173.5746    6408.8067    11650.658    1926.3152 
  114600    302.64195   -1167.0524    6424.4215     11722.85    1931.0616 
  114700    297.74476   -1169.8741     6445.268    11636.254    1901.7396 
  114800    300.64127   -1167.7556    6476.7735    11731.757    1910.6691 
  114900    303.07124   -1161.6855    6492.0294    11804.996    1875.2185 
  115000     298.0769   -1165.3604    6407.1765    11609.772    1881.3582 
  115100     302.6131   -1166.0662    6412.0007    11710.799    1899.8155 
  115200    297.11625   -1161.6322    6366.6576    11552.458    1894.2796 
  115300    302.34453   -1155.6987    6440.8689    11744.297    1934.7251 
  115400    293.06839   -1163.2185    6458.2602    11555.998    1895.3567 
  115500    301.84863    -1163.049    6362.0875    11647.571    1822.9962 
  115600    299.98141   -1158.9639    6504.8557    11754.534      1869.23 
  115700    300.32316   -1162.7134    6438.2511    11691.481    1947.6815 
  115800    299.73226   -1158.9539    6331.8448    11576.211    1903.9637 
  115900    294.86837   -1163.5408    6369.2375    11505.107    1841.1406 
  116000     301.6588   -1159.9164    6569.3546    11853.916    1944.4671 
  116100    296.32224   -1160.5045    6372.6284    11542.594    1919.2669 
  116200    302.66409   -1156.0944    6409.5488    11719.408    1957.1952 
  116300     300.8355   -1161.9265    6425.2531    11690.215     1945.947 
  116400    305.59733   -1161.3253    6504.2774     11871.57    1934.0711 
  116500    296.51351   -1161.7914    6464.4163    11637.181    1864.5223 
  116600    305.42874    -1164.548    6420.8181    11781.286    1889.5653 
  116700    300.39684   -1166.4202    6358.4996    11609.597    1897.8534 
  116800    293.15599   -1165.5005    6521.5219    11618.849    1887.8985 
  116900    303.06545   -1162.1372    6328.8467    11641.238    1857.5131 
  117000    298.77831   -1159.4551    6475.0613    11698.546    1930.5882 
  117100    297.73633   -1159.2655    6446.5845    11647.999    1888.7893 
  117200    298.64894   -1159.9356    6445.4403    11665.681    1890.7751 
  117300    301.65476   -1165.1519     6413.096    11692.335    1915.5542 
  117400    300.36992    -1165.745    6368.4313    11619.629    1859.1412 
  117500    295.06202   -1169.0239    6392.2764      11526.8    1907.2178 
  117600    301.01622   -1166.2231    6416.4941    11681.021    1877.2016 
  117700    294.71918   -1164.8941    6415.8049    11547.134     1805.943 
  117800    300.73831   -1159.5049    6428.3259    11693.634    1901.0206 
  117900    299.80791   -1162.4179    6355.4508    11597.969    1896.8222 
  118000    299.75488   -1154.2002    6471.6713    11721.274    1915.8484 
  118100    303.81399   -1159.8996    6467.9055    11798.526    1893.9125 
  118200    299.67915    -1162.678    6410.1172    11649.624    1976.0116 
  118300    298.67608   -1163.5063    6322.0888    11539.339    1875.1219 
  118400    300.08158   -1166.0025    6443.5478    11688.328    1880.3543 
  118500    303.76644    -1166.504    6575.2437    11898.244    1971.2401 
  118600    295.97546   -1166.2597    6378.3124    11535.114    1929.5603 
  118700    300.83508   -1160.7704    6391.1283    11657.238     1939.815 
  118800    300.13939   -1163.1953    6494.6384    11743.461    1980.5136 
  118900    302.34588   -1162.0112    6485.8992    11783.044     1906.589 
  119000    296.85384   -1158.8183    6331.6483    11514.657    1848.0675 
  119100    302.08236   -1161.5292    6362.1017    11654.099     1963.764 
  119200    295.85034   -1156.5284    6355.2651    11519.125    1943.8226 
  119300    301.59307   -1164.2864     6448.433     11727.22    1917.5888 
  119400    297.91237   -1162.9326    6590.2522     11791.76    1917.9321 
  119500    297.99811   -1159.3167    6324.4531    11531.409    1869.7285 
  119600    303.77903   -1164.9438    6342.3752    11667.204     1903.334 
  119700    301.05806   -1163.2825    6477.4834    11745.845     1947.022 
  119800    298.96257   -1159.5617    6452.8706    11680.186    1861.4881 
  119900    302.53099   -1160.0848    6409.8965    11712.922    1856.1743 
  120000    294.55541   -1154.8751    6379.1909     11517.04    1922.3544 
  120100    307.19184   -1161.7986    6344.1417    11745.025    1884.8264 
  120200    298.55608   -1166.0116    6482.3888     11694.57    1874.4584 
  120300    305.57363   -1167.2513    6404.5651    11765.425    1907.5074 
  120400    300.67712   -1163.0605    6414.6791    11675.124    1901.7812 
  120500    302.22006   -1163.3648    6365.3235    11658.427    1831.7962 
  120600    300.26778   -1162.5977    6539.0949    11791.257    1926.3791 
  120700     298.8711   -1165.8996    6400.1502    11619.173    1848.9711 
  120800    297.36673   -1161.7933    6355.7652    11546.756    1852.3235 
  120900    303.10011   -1163.7144    6321.4521    11633.006    1940.1498 
  121000    296.01852   -1163.4765    6493.4509    11653.956    1904.1352 
  121100     301.9607   -1165.0167    6472.3442    11758.255    1866.5065 
  121200     298.4109   -1160.1962    6414.7974    11629.692    1879.0957 
  121300    307.67152   -1163.5669     6327.114    11736.477    1896.6095 
  121400    300.08445   -1162.8502    6394.9053    11642.899    1900.4926 
  121500    298.62502   -1157.5227    6354.7972     11576.94     1845.597 
  121600    299.71678   -1162.4407    6500.3866    11740.935    1884.7528 
  121700    298.81288   -1159.3348    6441.7221    11666.066    1901.5058 
  121800    299.16879   -1163.7892     6387.989    11615.482    1869.7167 
  121900    301.37381   -1162.0374     6350.447    11626.799    1838.2928 
  122000    295.80792   -1162.3953    6413.0908    11570.178    1873.4651 
  122100    292.82265   -1160.6378    6485.5175    11580.586    1887.3582 
  122200    299.83885   -1159.4787    6424.2412    11670.359     1944.234 
  122300    295.63062   -1162.6442    6352.8871    11505.938    1909.2148 
  122400    301.30101   -1161.8108    6518.0661    11793.089    1935.6101 
  122500    304.56195   -1158.8622    6478.7369    11826.373    1883.2884 
  122600    293.87863    -1155.603    6363.4745    11486.137     1892.437 
  122700    301.42872   -1158.7129     6389.742    11670.591    1912.6782 
  122800    301.65738    -1160.814    6500.2445    11783.878    1874.0478 
  122900     298.1717   -1162.0937    6486.2931     11694.18     1874.994 
  123000    300.35344   -1157.7096    6391.1564    11650.037    1843.4147 
  123100    300.67526     -1160.72    6441.4463    11704.192    1855.1819 
  123200    295.97407   -1160.1373    6356.4987    11519.393    1770.2524 
  123300    299.39921   -1161.5493    6377.9861    11612.642    1884.9035 
  123400    300.26267   -1158.1153    6437.0686    11693.605    1883.1047 
  123500    291.74603   -1163.2873    6435.0765    11504.496    1827.9495 
  123600    306.18861   -1160.4468     6444.269    11825.072    2002.2189 
  123700    297.60124   -1160.7943     6373.037    11570.037    1914.5424 
  123800    302.58778   -1161.0272    6415.5773    11718.874    1931.2836 
  123900     298.9251   -1160.8229    6355.3075    11580.561    1903.0373 
  124000    298.95858   -1165.6146     6356.919    11578.096    1873.5938 
  124100    303.62425   -1161.4935    6457.9666    11782.939     1879.923 
  124200    297.69463   -1162.6397    6467.4799    11664.629    1849.3716 
  124300     302.9353    -1167.799    6449.6794    11753.628     1939.331 
  124400    297.63261   -1160.5114    6328.0888    11526.042    1884.6217 
  124500    300.17001   -1165.9529    6463.9959    11710.715    1957.2999 
  124600    301.59221   -1166.3499    6406.3002    11683.005    1935.8781 
  124700     294.1548   -1165.0866     6423.342    11542.421    1884.5612 
  124800    303.34463    -1169.933    6497.7442    11808.304    1900.4765 
  124900    296.79999   -1162.8228      6399.62    11577.473     1889.919 
  125000     302.7498   -1164.3602    6367.3703    11670.795    1922.3987 
  125100    298.63926   -1165.4281    6439.5029    11654.044    1911.3702 
  125200    302.83346   -1159.7369     6423.588    11733.423    1816.9294 
  125300    297.39316   -1165.7968    6369.2018    11556.754    1815.7702 
  125400     299.9634   -1162.0686    6483.5119    11729.701    1862.3022 
  125500    300.17993   -1165.4633    6441.4392    11688.859     1914.434 
  125600    301.50775   -1161.7495    6375.5179    11655.019    1900.4528 
  125700    297.82944   -1168.5286    6487.6835    11681.824    1857.3799 
  125800    306.12314   -1163.3002    6403.4293     11779.98    1840.5296 
  125900     298.4058   -1163.6096    6335.1271      11546.5    1854.3482 
  126000    297.21417    -1158.741    6408.7829    11599.567    1871.2011 
  126100    301.80075   -1159.4452     6482.943    11771.008    1897.5587 
  126200    303.07289   -1156.6907    6460.8458    11778.842    1937.8153 
  126300    299.34255   -1159.8974    6397.6732     11632.77    1947.8214 
  126400    303.16938   -1158.6262    6340.5235    11658.646    1932.5726 
  126500    301.74667   -1160.9176    6408.3852    11693.822    1863.0512 
  126600    300.11671   -1162.3752    6419.7821     11668.94    1873.1343 
  126700    299.50178   -1154.8908    6439.3328    11682.838    1860.2353 
  126800    295.41661   -1161.4498    6439.7482    11589.421    1898.0769 
  126900     302.1658   -1158.8735    6429.2649      11725.7    1929.8308 
  127000    300.29633   -1163.2373    6372.0662    11624.199    1853.2899 
  127100    303.04886   -1159.3066    6453.6418    11768.509    1924.3521 
  127200    296.29016   -1157.2871     6451.901    11624.398    1881.2244 
  127300    308.47028   -1161.1774    6414.1254    11842.942    1920.3196 
  127400    298.52948   -1160.1596    6483.8363    11701.301    1930.1403 
  127500    300.12637   -1160.2421    6437.0726     11688.57    1884.9964 
  127600    305.48859   -1167.8421    6371.0488    11729.502    1830.3464 
  127700    300.52264    -1167.308    6399.6707    11652.568    1887.7467 
  127800    300.17228   -1163.7832    6493.1944    11742.131    1929.5343 
  127900    299.00218   -1166.8522    6323.5025    11544.373    1853.5972 
  128000    301.53392   -1165.9687    6443.8952    11719.736    1941.9243 
  128100    298.60426   -1167.0406    6391.5692     11603.75    1810.5887 
  128200    302.53473   -1166.0678    6525.4214    11822.544    1899.4325 
  128300    296.21833   -1171.4377    6440.2828    11597.095    1915.9076 
  128400    300.41395   -1169.9738    6332.4837    11580.393    1913.6002 
  128500    296.07889   -1170.8768    6382.2746    11536.669    1911.1795 
  128600    298.06037   -1170.8506    6398.8062    11595.558      1860.33 
  128700    304.73896   -1167.3262    6506.7709    11849.725    1963.9801 
  128800    301.85862   -1163.7441    6437.7081     11722.71    1949.0508 
  128900    300.65073   -1168.4883    6325.6826    11580.136    1893.9226 
  129000    304.29182   -1166.5186    6485.6874    11819.897     1948.142 
  129100    298.06079   -1165.2852    6412.3013    11614.628    1887.8121 
  129200    300.37843   -1168.3497    6479.6852     11728.46    1913.2964 
  129300    299.80202   -1168.6757     6412.091    11648.225    1891.9135 
  129400    308.41432   -1168.4635    6420.1966    11840.532    1911.9745 
  129500    296.99734   -1162.4364    6517.8736     11700.33    1943.8073 
  129600    300.21267   -1161.4392    6420.0516    11672.196     1908.664 
  129700    301.51652   -1154.2768    6383.8374    11670.998    1886.8082 
  129800    301.45135   -1158.1685     6529.483     11811.36    1950.8398 
  129900    296.63755   -1159.9553    6297.9359    11475.187    1889.4408 
  130000    300.46867   -1158.1175    6426.4008    11687.335    1961.0332 
  130100    297.14616   -1155.8131     6549.579    11741.838    1966.7794 
  130200    301.22177   -1155.1428     6339.988    11619.986     1873.612 
  130300    300.02061   -1154.4278     6460.772    11715.824    1919.5922 
  130400    292.13804    -1158.423    6501.5628    11584.221    1926.6979 
  130500    303.07973   -1158.5427    6483.0705    11799.361    1957.5743 
  130600    295.97419   -1156.5225    6438.9744    11605.486    1867.7769 
  130700    301.19559   -1155.4271    6537.1328    11816.287    1955.0889 
  130800    301.60339   -1157.4709    6417.5401    11703.363    1901.4708 
  130900    298.03929   -1155.6423    6478.3272    11689.837    1964.2217 
  131000    302.22859   -1161.0137    6394.8363    11690.473    1893.7273 
  131100     295.3853   -1163.9478    6431.0873    11577.593    1912.5084 
  131200     304.6333    -1166.589    6434.8017    11776.236    1910.2825 
  131300    302.69713   -1159.5502    6385.5415    11692.651    1868.5779 
  131400    300.17345   -1165.0079    6393.4734    11641.211    1882.1121 
  131500    304.36573   -1163.7874    6388.3338    11726.853    1892.2486 
  131600    298.11322   -1163.7055    6422.7833    11627.809    1852.3914 
  131700    302.85359   -1165.8678     6439.412    11743.547    1947.0308 
  131800    296.18056   -1170.8848    6343.2887    11499.847     1948.698 
  131900    297.42328   -1163.1333    6496.6452    11687.504    1934.7902 
  132000    299.26601   -1167.0024    6471.1274    11697.484    1902.4891 
  132100    300.58825   -1166.1893    6342.8817    11598.299    1863.5276 
  132200    298.70293   -1162.6881     6480.152    11698.794    1869.5996 
  132300    301.95028    -1167.372    6375.2168    11658.549    1823.2658 
  132400    298.42133   -1167.1977     6522.661    11730.777    1938.5984 
  132500    296.68356   -1169.6678      6429.45    11597.971    1944.0549 
  132600    297.60316   -1165.1158    6337.5996    11530.319    1905.0306 
  132700    297.68141   -1169.9184    6338.2413    11527.829    1907.6618 
  132800    301.14762   -1164.0492    6407.5392    11677.047    1896.0078 
  132900    298.91547   -1163.4369    6540.3196    11762.753    1864.7524 
  133000    294.41245   -1160.7579    6480.6056    11609.518    1892.1419 
  133100    302.91333   -1164.8815    6324.8353    11631.232    1920.3176 
  133200    299.19403   -1164.9829    6315.3304    11542.169    1855.4903 
  133300    304.90723   -1166.1114    6494.2152    11841.979    1936.2951 
  133400    301.98074   -1163.0196    6476.0475    11764.383    1886.1259 
  133500    301.12856   -1160.2699    6476.5277    11749.407      1798.25 
  133600    296.57608   -1152.3078    6437.4239    11621.009    1877.2209 
  133700     297.1884   -1156.8345    6386.3708    11578.511    1924.2033 
  133800     299.2697   -1154.9089    6397.2939    11635.823    1864.7164 
  133900    297.67608   -1159.4237    6455.7596    11655.729     1898.985 
  134000     298.5327   -1157.8949    6471.6027    11691.401     1935.984 
  134100     301.2373   -1156.0599    6481.3477     11760.76    1936.2655 
  134200    301.19954   -1162.6632    6384.0258    11656.029    1894.3015 
  134300    293.38008   -1158.5838    6382.1432    11491.175    1968.8597 
  134400    305.60089   -1163.4673    6412.6749    11777.902    1860.9605 
  134500    298.22504   -1164.5627    6555.2304    11761.788     1886.865 
  134600    299.35948   -1162.0879    6428.3556    11661.624     1837.267 
  134700    303.57738   -1164.9813    6323.7987    11644.282    1867.0811 
  134800    300.57599    -1161.484    6493.8701    11753.731    1949.0506 
  134900    297.75764   -1160.3041    6388.7549    11589.586    1844.6951 
  135000    300.33786   -1165.3412    6484.8853    11735.802     1942.644 
  135100    297.37744   -1163.3826    6313.3579    11502.988    1864.1162 
  135200     301.7309   -1165.0949    6430.3757    11711.299    1897.4817 
  135300    299.61669   -1165.1353    6545.9575    11781.673     1925.076 
  135400    299.46714   -1170.2247    6457.9802    11685.412    1909.6583 
  135500    304.04019   -1171.0569    6343.7408    11668.036    1915.7681 
  135600    299.28889   -1167.0064    6411.8609    11638.703    1939.3683 
  135700    302.90612   -1160.1521    6379.0093    11689.982     1851.459 
  135800    302.15056   -1165.2745    6392.8915      11682.6    1873.1635 
  135900    298.74278   -1159.3773    6392.2692    11615.073    1903.0765 
  136000    303.98532   -1162.6218    6371.5958    11703.154    1902.4583 
  136100    294.75648   -1171.0957    6464.6308    11590.555    1921.2723 
  136200    301.88535   -1167.2632     6473.481    11755.535     1948.298 
  136300    302.57622   -1166.4026    6359.7123    11657.386    1883.3637 
  136400    298.53082   -1170.3393     6346.853    11554.167    1849.2318 
  136500    302.01757   -1170.2391    6477.5126    11759.415    1925.8436 
  136600    300.76511   -1158.7893    6511.5957    11778.192    1916.0058 
  136700    294.74442   -1162.5494    6442.5176     11576.73    1967.5026 
  136800    300.40635   -1160.9432    6269.8717    11526.649    1969.7903 
  136900    302.72564   -1158.2917    6313.5094    11622.486    1857.3439 
  137000    300.41984   -1155.6215    6518.2385    11780.626    1884.9393 
  137100    300.00486    -1151.278    6451.8631    11709.729    1891.2781 
  137200    306.33111   -1158.5531    6297.1477    11682.889    1815.5961 
  137300    300.80423   -1164.4154    6423.4838    11685.289    1861.8207 
  137400    301.66528   -1163.4613    6515.8572    11797.012    1847.4707 
  137500    294.25495    -1166.769    6401.1642    11520.701    1771.1429 
  137600    295.47513   -1167.2109    6472.9854    11618.147    1963.7714 
  137700    300.13935   -1161.3768    6381.1373    11631.777    1913.9363 
  137800    299.96642   -1159.4846      6390.84    11639.678      1904.27 
  137900    299.94257   -1158.9398    6413.6194    11662.492    1920.8024 
  138000    301.08246   -1153.2735    6316.1705    11595.062    1885.7044 
  138100    304.93184   -1156.8334    6367.2848    11724.852    1907.3895 
  138200    296.95941   -1164.0496    6466.6224    11646.655    1907.2303 
  138300     298.9233   -1163.4158    6511.1502    11733.772    1917.7455 
  138400    298.27008   -1165.5251    6428.0459    11634.603    1875.1793 
  138500     295.8774   -1170.7043    6441.0745    11591.337    1829.6768 
  138600    303.10144   -1166.1477    6402.1148    11711.264    1894.2359 
  138700    299.44624   -1165.0755    6437.8739    11670.008    1919.6551 
  138800    294.72851   -1158.3161    6485.8161    11623.922    1909.7838 
  138900    302.79528   -1161.4672    6460.7267    11768.016    1868.7157 
  139000    297.55493   -1150.5292    6357.1157    11563.391    1904.2539 
  139100    304.71527   -1152.4116    6478.9238    11836.286    1989.5159 
  139200    299.39496   -1166.8079    6412.8678    11642.174    1900.5824 
  139300    301.56534   -1165.9713    6456.6663    11733.176    1921.9257 
  139400    299.42188   -1173.8252    6398.0531    11620.917    1894.3491 
  139500    295.80668   -1171.3454    6412.3944    11560.505    1885.3871 
  139600    298.83781   -1163.8418    6363.5438    11583.913    1864.6924 
  139700    298.87084   -1162.7931    6483.3537    11705.477    1914.7777 
  139800    296.92338   -1163.7104    6496.3704    11675.972    1932.6389 
  139900    302.67221   -1157.8031    6351.3133    11659.638    1931.0005 
  140000    300.56714   -1157.7227    6357.5372     11620.97    1972.1934 
  140100    298.15071   -1158.9463    6433.7759    11644.362    1953.9377 
  140200    302.84399   -1159.2677    6458.6804     11769.21    1902.1532 
  140300    293.89217   -1160.4414    6479.7585    11597.872    1846.2834 
  140400    297.62941   -1168.9366     6409.152    11598.611     1890.373 
  140500    295.92464   -1168.0391    6419.2613    11573.198    1910.5473 
  140600    304.45194   -1169.5168    6389.9054    11724.537    1870.9661 
  140700    300.57159   -1161.2413    6486.7596    11746.769    1883.9012 
  140800     297.9473    -1159.348    6577.1753    11783.014    2003.9349 
  140900    300.42786   -1158.5009    6295.4824    11555.162    1820.6379 
  141000    299.39235   -1148.1552     6386.512    11634.415    1922.5275 
  141100    302.23313   -1163.0521    6345.8948     11639.59      1939.52 
  141200    292.48259   -1161.8686    6367.5622    11454.135    1859.8339 
  141300    294.93006    -1165.607    6492.3897    11627.511    1899.8066 
  141400    299.60221   -1163.6648    6495.4752    11732.352     1892.892 
  141500    300.28468   -1166.7079    6469.8287    11718.242    1896.5592 
  141600    302.29924   -1163.0339    6385.5497    11680.675    1897.8264 
  141700    300.56119   -1166.2282    6429.4965    11684.297    1970.2162 
  141800    306.26137   -1151.3877    6538.2697    11929.686    1981.5678 
  141900    297.22669   -1154.3196    6459.5208    11654.993    1870.3526 
  142000    297.86666   -1164.0815    6271.6914    11471.074    1809.7015 
  142100    297.15438   -1158.4729    6410.3055     11600.08    1900.6952 
  142200    300.28928   -1160.8855    6513.6994    11768.034    1907.0198 
  142300     301.4715   -1160.8663     6383.032    11662.642    1878.3177 
  142400     298.3885   -1163.2969    6448.3568    11659.672    1947.2765 
  142500    302.75907   -1160.8659    6468.0249    11775.142    1964.2779 
  142600    300.59773   -1154.7325     6392.921    11659.998    1909.0533 
  142700    301.27218   -1158.2792    6423.6096    11701.548    1914.6663 
  142800    299.42214   -1159.4726    6426.9883     11664.21    1860.6067 
  142900    296.14656    -1158.181    6449.8814    11618.417     1849.708 
  143000     303.6637   -1156.9422    6380.1042    11710.471    1859.8448 
  143100    295.24416   -1163.3516     6420.931    11565.018     1884.885 
  143200    304.70867   -1161.0735    6375.7579    11724.318    1876.0968 
  143300    299.44228   -1160.2657    6419.5744    11656.434    1865.2025 
  143400    301.11393   -1155.9485     6512.513    11789.402    1944.3022 
  143500    299.64724   -1161.3891    6407.9468    11648.061    1862.0857 
  143600    304.04965   -1162.9409    6349.6176    11682.231    1862.7349 
  143700    295.17709   -1164.8712    6454.1734    11595.308    1945.1519 
  143800    299.32468   -1163.1757    6417.8969    11649.334    1884.7715 
  143900    299.52711   -1161.7055    6479.5066    11716.738    1881.5852 
  144000    302.61917   -1159.2494    6384.5295    11690.274    1907.2625 
  144100    297.69119   -1165.6274     6421.127    11615.215    1966.5627 
  144200    299.99237   -1170.6383    6465.1007    11703.339    1965.5503 
  144300    300.55994    -1167.644     6347.141    11600.499    1955.1876 
  144400    300.54069   -1163.5293    6430.7712    11687.833    1927.4252 
  144500    298.67594   -1158.4243    6502.2242    11724.553    1925.9695 
  144600    300.17554   -1160.9249    6375.0079    11626.873    1884.8231 
  144700    301.93676   -1160.4899    6360.4787    11650.404    1914.3224 
  144800    296.98469   -1162.9412    6374.7912    11556.472    1946.3579 
  144900    301.11332   -1161.9372    6546.6537    11817.541    1928.9497 
  145000    302.27791   -1172.2204    6405.0995    11690.583    1882.5574 
  145100    298.60078   -1168.9007    6362.2118    11572.459    1884.2376 
  145200    302.20458   -1159.4002    6470.7734     11767.51    1873.2463 
  145300    300.50384   -1162.9699    6436.4803    11693.314    1865.3202 
  145400    300.50782   -1163.7245    6457.5281    11713.692     1924.705 
  145500    301.64337   -1158.1064    6352.0436    11638.085    1872.2334 
  145600     297.1543   -1160.7035    6373.5269    11561.069    1875.1695 
  145700    302.48578   -1164.0695    6362.1972    11660.272    1865.1604 
  145800    302.80368   -1160.7067    6588.3397    11896.569    1940.6876 
  145900    298.17309   -1164.4504    6436.3508    11641.911    1836.9487 
  146000    296.95678   -1160.8169    6461.2236    11644.433    1863.5527 
  146100    300.78795   -1160.7759    6377.5915    11642.689    1855.1083 
  146200    300.54851   -1162.4796    6396.2236    11654.502    1859.9449 
  146300    296.72148   -1160.9841    6366.8364    11544.851    1770.8571 
  146400    301.38077   -1158.6319    6450.6532    11730.559    1836.4473 
  146500    297.00582   -1162.8195     6518.717    11700.971    1877.8319 
  146600    299.95494   -1159.5201    6388.2028     11636.76    1783.7318 
  146700    298.20812   -1163.6883    6390.5998     11597.67    1785.4523 
  146800    301.94237   -1156.9619    6436.9404    11730.514    1870.9669 
  146900    298.22955   -1159.7229    6428.7322    11640.226      1901.43 
  147000    300.10477   -1155.7259    6368.6216    11624.174    1861.8894 
  147100    302.77774   -1159.4525    6436.8269    11745.756    1946.2359 
  147200     297.5551   -1154.1642    6405.2088    11607.853    1915.0332 
  147300    297.90165   -1150.4612     6387.939     11601.69    1857.2193 
  147400    303.46369   -1160.2105    6381.2787    11704.104    1861.2497 
  147500    294.97558   -1157.8315    6399.5633    11543.433    1905.5724 
  147600     301.3034   -1158.7165    6444.7074    11722.876    1873.5155 
  147700    294.97512   -1153.2374    6480.1913    11628.645    1815.5303 
  147800    299.62138   -1159.5218    6467.9513     11709.38    1888.6625 
  147900    298.79531   -1156.7607    6439.7991    11666.342    1845.7848 
  148000    297.96778   -1153.1972    6378.7833    11591.211    1812.5044 
  148100    302.99071   -1158.5014    6435.1444    11749.575    1868.0693 
  148200    301.66238   -1156.7991    6429.3208    11717.075    1886.8231 
  148300    296.51936   -1158.9535    6516.1937    11691.921    1918.6249 
  148400    305.63157   -1156.8703    6376.2719    11748.751    1906.2024 
  148500    299.24109   -1158.8202      6391.56    11625.567    1883.6044 
  148600    301.24438   -1165.5546    6313.8696    11583.939     1780.489 
  148700    301.06758   -1158.7953    6478.3232    11751.375    1849.2275 
  148800    300.58714   -1160.1176     6513.714    11775.179    1900.0231 
  148900    300.52843   -1157.2271    6437.4057    11700.507    1819.4305 
  149000    298.67258   -1162.9715    6431.4072    11649.117    1822.9512 
  149100    306.86827   -1161.4568    6407.9769     11802.29    1847.8853 
  149200    292.01742   -1164.7685    6395.1322    11468.868    1795.2644 
  149300    301.48063   -1169.5264    6401.3923    11672.537     1845.498 
  149400    301.40519   -1164.3449    6509.8934    11784.608    1899.1944 
  149500    303.94292    -1168.024    6350.3951    11675.645    1849.8701 
  149600    298.03355   -1170.5495    6384.8951    11581.375    1862.8714 
  149700    301.87983   -1158.7681    6433.2321    11723.663    1893.8515 
  149800    298.63638   -1164.4301    6391.7376    11607.215    1900.8812 
  149900    301.18316   -1163.5663    6412.8261    11683.576    1892.7187 
  150000    304.06359   -1160.2964    6378.9341     11714.49    1879.1045 
  150100    297.71913   -1167.4531    6403.5835    11596.443    1828.7307 
  150200    304.39655   -1160.5434    6474.6835    11817.105    1899.3156 
  150300    299.60295   -1169.6067    6383.0246    11613.975    1901.6492 
  150400    294.82053   -1168.1126    6466.5322    11596.808    1865.2866 
  150500    294.93168   -1173.7975    6414.3479    11541.313    1864.2929 
  150600    303.16376   -1165.9339     6384.793    11695.488    1938.3712 
  150700    298.01426   -1159.3121    6437.8095    11645.115    1923.5456 
  150800    301.32011   -1161.9951    6470.2439    11745.491    1885.0429 
  150900    296.86571   -1158.6069    6438.3047    11621.778    1933.0967 
  151000    300.05949   -1163.6015    6382.0374    11628.746    1943.9727 
  151100    303.15602   -1160.5687    6280.7164    11596.611    1830.4202 
  151200    297.42975   -1158.9584    6440.8646    11636.036    1846.7046 
  151300    304.45993   -1154.3978    6507.2101    11857.132    1885.9547 
  151400    297.06023   -1157.7444    6492.8806    11681.372    1780.5641 
  151500     299.1566   -1157.7011    6454.5926    11687.913    1808.5965 
  151600    297.00254   -1161.8929    6430.5741    11613.685    1887.7249 
  151700    308.63575   -1155.2134    6373.8191    11812.135    1857.8904 
  151800    298.30514   -1155.5106    6447.0335    11664.354    1865.4495 
  151900     300.4229    -1156.312    6338.4362    11600.198    1873.4129 
  152000    300.19648   -1155.4471    6422.6734    11680.463    1848.3189 
  152100    299.80502   -1150.4318    6611.4218    11865.864    1925.1939 
  152200    300.16149   -1158.3644    6477.5945     11731.72    1922.8488 
  152300    299.60124   -1159.1896    6306.9886     11548.32    1811.7212 
  152400    297.19491   -1157.2731    6430.5813    11622.421      1828.78 
  152500    296.93474   -1152.9338    6567.7467    11758.368    1959.2135 
  152600    302.83222   -1155.6045    6414.1854    11728.127    1897.0695 
  152700    296.88012   -1159.0372    6371.5791     11554.93    1869.8841 
  152800      302.543   -1156.4526    6350.0687    11656.983    1833.2915 
  152900    298.66803   -1161.1461    6430.9683    11650.406    1896.9633 
  153000    297.25816   -1163.1841    6451.0392    11638.319     1878.875 
  153100    295.95584   -1158.0022    6442.1545    11606.795    1858.0843 
  153200    304.27404   -1159.7087    6386.9142    11727.554    1861.4822 
  153300    297.80998   -1161.3595    6414.6545    11615.548    1920.4985 
  153400    301.66884    -1163.483    6297.9962    11579.205    1863.2404 
  153500    296.65859   -1166.3029     6379.102    11550.455    1854.3041 
  153600    298.25102   -1160.4059     6458.804    11670.073    1839.7686 
  153700    302.66979   -1166.6441    6438.9451    11738.377    1869.4521 
  153800    294.27295   -1166.3923    6496.0177    11616.315    1920.7239 
  153900    298.63572   -1163.7588    6364.1679    11580.303    1950.4611 
  154000    296.51755   -1168.0728    6242.9221    11409.492    1904.2143 
  154100    303.32266   -1164.1553    6451.3504    11767.218    1972.7807 
  154200    297.35531   -1162.8695    6547.5756    11737.246    1915.3877 
  154300    300.11219   -1164.2388    6402.5772    11649.775    1939.1878 
  154400    301.70173    -1164.698    6319.3006    11599.997    1930.0401 
  154500    299.09276   -1164.8188    6385.8729    11610.712    1894.5183 
  154600    307.03959   -1159.6651    6463.6041    11863.369    1924.8046 
  154700    297.69794   -1161.5436    6449.3133    11647.629    1913.2912 
  154800    302.50265    -1163.782    6429.9191    11728.642    1896.8393 
  154900    297.07384   -1163.6435    6276.4245    11459.308    1840.9544 
  155000    297.15698   -1167.0299    6462.9188    11644.192    1871.3426 
  155100    297.52498   -1164.9611    6486.2769    11677.481     1861.964 
  155200    297.26768   -1160.3245    6410.8882    11601.231    1836.0201 
  155300    298.95196   -1160.2551    6332.1683    11558.563    1799.5733 
  155400    298.81467   -1157.0846      6457.48    11684.112    1858.4993 
  155500    298.74504   -1158.2894    6436.8953    11660.835    1788.6244 
  155600    294.57825   -1165.1632    6482.8361    11610.885    1878.5576 
  155700    299.19494   -1163.2844    6331.5996    11560.156      1835.87 
  155800    300.90288    -1157.748     6427.768    11698.348    1887.6762 
  155900    299.71641   -1158.1585    6396.3467    11641.169    1922.3334 
  156000    298.37183   -1157.7826    6447.5528    11664.027    1872.6422 
  156100    301.45526   -1157.6556    6397.4976    11679.971    1891.7531 
  156200    298.38904   -1163.9492    6400.7372    11611.412     1909.132 
  156300    299.78728   -1162.0306     6396.338    11638.803    1845.3167 
  156400    304.54914   -1156.8476     6552.564    11901.942    1913.2759 
  156500    301.35761   -1160.6471    6469.2701    11746.666    1919.7641 
  156600    298.15322   -1166.6092    6279.7745    11482.751    1798.0096 
  156700    303.31932   -1153.1263     6473.487    11800.313    1926.6239 
  156800     297.6482   -1157.7365    6388.0024    11589.063    1794.3675 
  156900    302.23205   -1162.4182    6482.1118    11776.418    1919.4509 
  157000    300.35335   -1160.4601    6389.3332    11645.461    1845.8873 
  157100    297.60149   -1162.2236    6529.6103    11725.186    1963.3854 
  157200    301.50662   -1162.9304    6363.2523    11641.548    1928.9749 
  157300    297.94443   -1163.8077    6466.5222     11667.84    1887.9005 
  157400    304.18836   -1163.9091    6317.4274    11652.036    1857.8649 
  157500    301.74267   -1161.3791    6506.5542    11791.444    1940.2372 
  157600    302.70081   -1162.3594    6361.2695    11665.648    1813.9511 
  157700    299.59274   -1163.8005    6412.9702    11649.509    1819.9809 
  157800    299.61046   -1162.1949    6435.7114    11674.234    1924.8083 
  157900    300.30955   -1164.3388    6370.5353    11621.849    1846.0489 
  158000    297.77685   -1169.0103    6525.0905    11717.626    1924.9897 
  158100    302.71263   -1162.9661    6399.3265    11703.351    1879.1337 
  158200    307.10559   -1160.2353    6447.1618    11847.766         1938 
  158300    301.09727   -1161.7099    6334.7644    11605.536    1793.3057 
  158400    303.43021   -1161.2321    6497.3296    11818.418    1953.9003 
  158500    298.52854   -1168.6561    6474.2595    11683.208    1889.9078 
  158600    305.14139   -1167.2869    6336.7703    11688.361    1841.7482 
  158700    300.72575   -1168.0924     6421.699    11678.151    1875.1897 
  158800    297.98034   -1163.6057    6432.9934     11635.28     1904.846 
  158900    299.01794   -1165.0817    6317.9416    11540.919    1819.5394 
  159000    300.49615   -1160.0896     6570.595    11830.145    1915.9517 
  159100    302.87561   -1163.3864    6379.1067    11686.193    1847.4613 
  159200    298.17315   -1157.9894    6475.6599    11687.682    1867.9941 
  159300    299.16388    -1154.826     6444.977    11681.328     1866.534 
  159400     296.1891   -1158.8236    6395.0579     11563.86    1896.9174 
  159500    302.38339   -1160.6002    6450.5401    11749.897    1886.6353 
  159600    298.63362   -1159.4003    6459.5211     11679.97    1841.6219 
  159700    298.81527   -1152.6409    6411.0617    11642.151    1833.4516 
  159800    304.42918   -1161.4576    6370.1248     11712.33    1923.4806 
  159900    297.50448   -1155.5722    6409.3214    11609.476    1802.5313 
  160000    301.83296   -1161.4378    6516.7259    11803.486    1831.6353 
  160100    298.63246   -1162.1461    6459.4988    11677.177    1846.6672 
  160200    301.74865   -1152.7381    6379.9305    11673.589    1835.5109 
  160300    298.93668    -1155.707    6331.9823    11562.599    1829.5543 
  160400    304.26787   -1156.3886     6538.893     11882.72    1931.6544 
  160500    297.83074   -1158.8785    6423.9264    11627.745    1797.6957 
  160600    301.77043   -1160.4381    6413.8761      11700.3    1845.7378 
  160700    299.18685   -1157.6928    6440.8943     11674.87    1892.6044 
  160800    299.93072   -1164.5419    6512.6116    11755.629    1861.7463 
  160900    299.55302   -1162.2731    6327.1008    11564.318    1794.4001 
  161000    298.41733    -1164.974    6435.6271    11645.882    1864.7883 
  161100    296.49352   -1163.7597    6465.0062    11635.376    1848.2707 
  161200    300.13607   -1166.6431    6377.0763     11622.38    1831.8325 
  161300    296.85663    -1161.289    6439.2333    11619.831    1937.6575 
  161400    301.41443   -1163.0671    6439.6172    11715.807    1894.6365 
  161500    296.50653   -1161.9053    6420.3523    11592.854    1794.8452 
  161600    302.82153   -1162.8116    6405.2119    11711.718    1851.9808 
  161700    294.91643    -1167.946    6370.4688     11502.96    1876.9366 
  161800    300.00947   -1171.0948    6378.4448    11616.592     1840.555 
  161900    301.29435   -1168.4544    6365.6764    11633.913    1769.8722 
  162000    298.53891    -1168.689    6683.7651    11892.902    1976.6494 
  162100    301.95202   -1169.9339    6366.2759    11647.084    1878.1213 
  162200     301.0628    -1165.414    6288.8205    11555.151    1891.0061 
  162300    297.91714   -1162.8636    6446.7305    11648.409    1931.8253 
  162400    304.17559   -1161.1343    6495.3681    11832.479    1968.3024 
  162500    298.32201   -1163.5529    6431.6613      11641.3    1944.0075 
  162600    307.06105   -1167.6205    6302.5496    11694.817    1817.1705 
  162700    296.08513   -1167.7376    6518.7589    11676.426     1888.736 
  162800    303.99539   -1168.5109    6434.1257     11760.01    1908.1718 
  162900    296.73725   -1168.3192     6446.291    11617.308    1939.3293 
  163000    296.17409   -1170.7427     6393.388     11549.95    1901.3184 
  163100    307.79988   -1166.2591     6510.435    11919.848    1917.9271 
  163200    299.21834   -1162.3326    6375.6225    11605.631    1832.0573 
  163300    301.30105   -1159.4749    6403.5914    11680.951    1897.4704 
  163400    298.16386   -1150.8026    6466.9452    11685.956    1934.2195 
  163500    302.82214   -1162.1008    6476.9465    11784.176    1878.6425 
  163600    296.47158   -1157.7203    6374.3246    11550.265    1870.2863 
  163700    301.67373   -1162.3033    6394.1515    11676.645    1898.9315 
  163800    297.12889   -1161.4128    6377.0314    11563.321    1841.9809 
  163900    297.52022   -1160.4084      6474.96    11670.615    1879.6038 
  164000    301.25983   -1169.1558     6511.988    11778.786    1945.2714 
  164100    298.82435   -1161.8338    6383.6429    11605.733    1847.3124 
  164200    300.29324   -1154.8395    6468.2844    11728.749    1927.9078 
  164300    299.42599   -1157.3863    6383.1011    11622.492    1928.1294 
  164400    301.91898   -1153.7784    6487.8688    11784.126     1872.577 
  164500    298.80359   -1156.9416     6406.183    11632.722    1777.7502 
  164600    300.59425   -1159.2205    6361.6237    11624.138    1892.3473 
  164700    299.50376   -1160.4134    6392.3613    11630.386    1869.4107 
  164800    306.01486    -1166.303    6527.1884    11898.423    1921.2333 
  164900     301.6615   -1166.0227     6493.472    11771.984    1931.8988 
  165000    295.84925   -1164.4458    6420.7083    11576.628    1861.2986 
  165100    302.03015   -1163.1039    6386.4934      11675.8    1870.0799 
  165200    298.93643   -1162.1451    6467.0317    11691.205    1922.6248 
  165300    296.38461   -1162.7075      6499.22    11668.315    1981.2594 
  165400    298.59349   -1163.8943    6366.9243    11582.022     1871.078 
  165500    303.68909   -1167.2836    6447.8354    11768.403    1947.9988 
  165600    299.48387   -1160.1788    6479.1367    11716.971    1987.2495 
  165700    302.51874   -1164.9858    6410.4247    11708.288    1922.7921 
  165800    298.95161   -1167.2126    6460.7031    11680.133    1903.9015 
  165900     304.7078   -1172.2307    6370.6208    11708.005    1901.7834 
  166000    297.78795   -1170.9726    6456.9269    11647.737    1889.1027 
  166100    297.05363   -1169.3873    6479.5219     11656.23    1900.4767 
  166200    303.61216   -1165.6582    6418.4923    11739.042    1908.0714 
  166300     297.3449   -1166.7963    6348.6543    11534.176    1903.1851 
  166400    298.79787   -1166.5003    6406.7718    11623.629    1910.7999 
  166500    308.39943   -1161.4377    6426.9867     11854.03    1917.2138 
  166600    298.59421   -1166.8906    6418.3758    11630.492    1835.3727 
  166700    305.60992   -1165.8769    6519.8322    11882.842    1906.8646 
  166800    297.81403   -1161.8319    6516.2913    11716.799    1936.6257 
  166900    300.81821   -1163.0498    6378.0608     11641.53    1928.6965 
  167000     297.9046   -1164.7532    6368.0953    11567.617    1899.8875 
  167100    302.20975   -1164.0128    6490.9113    11783.146    1958.0329 
  167200    295.68468   -1160.0691    6419.7331    11576.513    1898.0376 
  167300    302.13549   -1159.9099    6536.0006    11830.752    1970.5891 
  167400    298.07403   -1157.5913    6449.3545    11659.657    1985.6994 
  167500    300.67726   -1157.7458    6381.2248    11646.987    1938.2059 
  167600    297.48083   -1159.5264    6406.6604    11602.355    1918.2879 
  167700    302.72675   -1159.2591    6555.5954    11863.629    1915.5185 
  167800    299.60234   -1156.1739    6493.5491    11737.919    1891.8611 
  167900     300.0611   -1160.1589     6370.428    11620.614    1908.8509 
  168000     298.2335    -1160.831    6327.3303      11537.8    1846.1932 
  168100    301.24332   -1155.5211    6484.9153    11764.996    1950.1433 
  168200    305.42765    -1157.201    6471.3945    11839.187    1935.2251 
  168300    296.37109   -1162.7891    6319.9761    11488.701    1877.0681 
  168400    305.86238   -1155.2427    6432.1602    11811.198     1952.656 
  168500    296.60314   -1158.8362    6411.6447    11589.279    1922.6196 
  168600    303.35836   -1162.8948    6419.9189     11737.81    1916.4766 
  168700    301.40919   -1163.8472    6479.3672    11754.665    1898.3428 
  168800    304.00669   -1158.9113    6453.2339    11788.959    1894.7073 
  168900    297.79956   -1163.9499     6452.846    11650.927    1844.2106 
  169000     298.8078   -1168.7802    6389.1393    11603.929    1851.2932 
  169100    297.94065   -1165.6074    6385.2906    11584.728    1889.5021 
  169200    305.40978    -1167.757    6441.1696    11798.024    1888.2304 
  169300    301.46609   -1167.1009      6456.76    11730.019    1864.8803 
  169400    300.24573   -1164.3277    6400.4227    11650.384    1878.8732 
  169500    302.83493   -1170.1413    6429.4215    11728.884     1943.483 
  169600    301.40978   -1169.3522    6372.8086    11642.614    1928.6481 
  169700    298.30223   -1173.8832    6347.6307    11546.517    1862.9194 
  169800    299.80647   -1168.6139    6492.0057    11728.297    1910.6472 
  169900    299.14402   -1169.0743    6410.9832    11632.662    1918.6313 
  170000     299.0766   -1175.7764    6336.5767    11550.113    1853.1228 
  170100    301.85373   -1171.8905    6431.2671    11708.018    1840.4486 
  170200    299.69131   -1168.6164     6475.909    11709.738    1862.4026 
  170300    301.21864   -1166.4654    6397.3238    11665.932    1879.2477 
  170400    298.13855   -1170.0083    6406.4174    11605.682    1916.3221 
  170500    302.29127   -1163.7969    6388.2247    11682.417    1873.6448 
  170600     296.0997   -1163.4756    6484.9598      11647.2    1941.2887 
  170700    304.08723   -1162.7964    6372.6531    11706.214    1824.4251 
  170800    296.35639   -1160.2695    6402.8919    11573.822    1850.2995 
  170900    303.46417   -1162.6826    6450.6611    11771.025    1916.2802 
  171000    294.69069   -1160.7698    6391.3059    11526.151     1893.146 
  171100    299.98285   -1159.9011    6412.9435    11661.716    1932.3767 
  171200    298.13407    -1159.768     6322.602    11532.011    1889.1551 
  171300    298.89321   -1161.8093    6392.3304    11615.916     1896.226 
  171400    302.80875   -1161.5464    6445.7782    11753.276    1885.0913 
  171500      297.562   -1149.9757    6539.1611    11746.141    1895.7121 
  171600    302.60335   -1154.5239    6495.3772     11805.51     1917.825 
  171700    301.27274    -1157.036    6327.5023    11606.696    1857.1356 
  171800       297.55   -1155.8546    6320.0935    11520.938    1922.8505 
  171900       300.54   -1155.9387    6390.9565    11655.594      1885.25 
  172000    299.16915   -1152.6492    6585.1343    11823.775    1891.4006 
  172100    300.50806   -1153.4536     6446.219    11712.659    1831.9944 
  172200    300.01371   -1158.7336     6405.107    11655.706    1856.1173 
  172300    299.70526   -1154.3173    6437.3273    11685.753     1872.003 
  172400    302.29536   -1157.8556    6347.4074    11647.628    1847.8888 
  172500    300.26501   -1161.8727    6421.4182    11674.247    1856.2271 
  172600    301.57338   -1157.0839    6503.0866    11788.655    1843.0199 
  172700     301.2491   -1164.3181    6453.2652    11724.672    1877.5635 
  172800    297.07018   -1166.5554    6350.7509    11530.644    1873.3785 
  172900    301.65209   -1167.6922    6426.4983     11703.14    1916.2655 
  173000    300.15163   -1157.4188    6383.9778    11638.838    1817.9556 
  173100    302.02038   -1162.5276    6402.9405    11692.615    1906.1397 
  173200    294.94384   -1170.9149    6388.7522     11518.86    1893.0636 
  173300    296.46513    -1170.242    6354.6031    11517.884    1834.7204 
  173400    303.30873   -1163.7995    6386.3432    11702.269    1884.4388 
  173500    300.42225   -1165.4658    6390.0466    11642.641    1856.9197 
  173600    296.83426   -1171.7762    6524.6324    11694.265    1874.7513 
  173700    302.96471    -1163.212    6324.0951    11633.259     1845.917 
  173800    298.27062   -1169.7412    6370.8965    11573.249    1829.6822 
  173900    304.30215   -1169.9086    6520.4545    11851.494    1897.3423 
  174000    298.67794    -1171.435    6557.2831    11766.644    1923.2317 
  174100    302.74111   -1170.8305    6348.4691    11645.238    1902.9809 
  174200     300.1758   -1163.0023    6334.7905    11584.584    1908.2274 
  174300    298.27775   -1162.6303    6403.9483    11613.564    1910.7794 
  174400    298.56072   -1159.8625    6453.5569    11671.986    1891.2568 
  174500    298.94113    -1164.483    6560.8846     11782.82    2027.4587 
  174600    299.42076   -1165.0798    6299.3029    11530.888      1899.96 
  174700    304.28086   -1164.8892     6435.835     11771.44    1906.9304 
  174800    296.27998   -1161.9149     6483.322    11650.974    1890.2535 
  174900     300.3576   -1163.3011    6466.5067    11719.885    1875.2819 
  175000    297.83821   -1163.7363     6417.072    11616.192    1855.5401 
  175100    302.12597   -1157.9651    6458.0651    11754.558    1849.6967 
  175200    298.26321   -1148.3533    6488.9842    11712.567     1875.914 
  175300    300.89808   -1152.7823    6430.2905    11705.734    1835.3267 
  175400    304.75129   -1155.9157    6348.6656    11703.294    1821.9031 
  175500    298.27168   -1159.0273    6434.7498    11647.839    1878.7686 
  175600    296.96861   -1156.6153    6356.8138    11544.477    1753.8285 
  175700    302.00849   -1160.1522    6541.3861    11833.182    1897.8693 
  175800    297.47046   -1159.4924    6414.0222     11609.53    1872.2557 
  175900    298.54973   -1157.2554    6390.7201    11611.522    1897.7317 
  176000    300.26712   -1157.5108    6429.3183    11686.554    1869.3818 
  176100    304.47934   -1158.6844     6433.597    11779.646    1940.0217 
  176200    297.02044    -1158.328    6512.4081    11699.466    1925.1247 
  176300    302.61971    -1160.934    6421.1551    11725.227    1914.4036 
  176400    299.49099    -1161.948     6373.488    11609.705    1860.5514 
  176500    302.82034    -1160.176     6525.846    11834.962    1874.2086 
  176600    300.27642   -1167.9886    6408.6159    11655.572    1807.4417 
  176700    299.92534   -1165.8972    6452.3072    11693.855    1885.2211 
  176800    299.60794   -1166.9805    6409.6145    11643.298    1855.5884 
  176900    302.31001   -1168.3275    6477.6339    11767.696    1905.5668 
  177000    297.43062   -1173.2986    6476.0762    11656.926    1988.4865 
  177100    299.66521   -1169.7034    6317.6384    11549.823    1853.8379 
  177200    299.45061   -1159.8786    6524.4725    11761.897     1931.361 
  177300      300.607   -1166.0048    6375.7864    11631.789    1894.6991 
  177400    299.52593   -1174.5663    6302.2375    11526.583    1817.4947 
  177500      299.104   -1169.8066    6475.6472    11695.739     1869.324 
  177600    300.71551   -1169.2507    6494.9305    11750.005    1956.5683 
  177700    298.24462   -1170.6876    6375.2125    11576.063    1874.6048 
  177800    299.27421   -1165.9389    6441.6354    11669.231    1836.3532 
  177900    299.89407    -1169.713     6504.898    11741.962    1863.1693 
  178000    298.54762    -1167.423    6426.9534    11637.542    1854.6949 
  178100    302.08491   -1163.6347    6370.5071    11660.453    1852.0115 
  178200    296.27595   -1162.2137    6485.9287    11653.196    1938.3181 
  178300    299.42701   -1162.3638    6431.3356     11665.77     1908.972 
  178400    302.60783   -1162.8131    6332.3538    11634.293    1867.4005 
  178500     294.9442   -1164.6452    6401.4611    11537.846    1939.2059 
  178600    302.13727    -1157.727    6414.8895    11711.862    1861.5354 
  178700    297.72399   -1161.6578    6466.9087    11665.667    1812.5251 
  178800    301.20252   -1162.1264    6550.8227    11823.426    1870.3088 
  178900    299.10501   -1161.4034    6391.1264    11619.642    1860.7692 
  179000    297.37495    -1156.839    6299.8067    11495.927     1841.853 
  179100    304.87936   -1157.9075    6282.1519    11637.524    1845.5695 
  179200    298.56002   -1153.1687    6508.4305    11733.539    1944.1407 
  179300    297.83252   -1154.4707    6506.0939    11714.358    1946.5481 
  179400    300.01766   -1160.0577    6311.7345    11561.094    1861.2053 
  179500    297.31977   -1158.4226    6403.6625    11597.021    1910.3106 
  179600     298.6992   -1158.5224    6429.6076    11652.335    1906.2099 
  179700    297.80556   -1156.1007    6490.6039    11696.662    1893.2087 
  179800    298.69666   -1157.4042    6458.8841    11682.676    1856.5598 
  179900    304.58912   -1159.9612    6486.1651    11833.283    1880.3011 
  180000    298.20206   -1153.4386    6429.0603    11646.251     1919.161 
  180100    299.92834   -1161.9343    6325.4834    11571.058    1872.0826 
  180200    302.95523   -1158.8855    6471.1985    11784.487     1981.562 
  180300    297.36856   -1156.7323    6336.6005    11532.691    1859.5545 
  180400     299.8918   -1159.0274    6348.2546    11595.955    1860.1644 
  180500    295.93213   -1161.5441    6485.1221    11645.714     1887.437 
  180600    302.87149   -1161.8781    6372.5947    11681.101    1926.3658 
  180700    298.82899   -1168.5847    6427.9864    11643.425    1920.0226 
  180800    299.06824   -1160.6843    6361.1966    11589.646    1861.7675 
  180900    297.01217   -1163.6458     6470.413    11651.977    1874.5976 
  181000    303.93033   -1160.1302    6457.5941    11790.469    1870.4311 
  181100    299.87269    -1165.739     6376.238    11616.819    1841.7763 
  181200    298.71183   -1163.3408    6486.0671    11704.246    1967.2649 
  181300    307.06593   -1166.6076     6362.552    11755.937    1936.6345 
  181400    303.29006   -1165.9919    6393.2476    11706.582    1983.4643 
  181500    299.02346   -1166.4776    6399.0184    11620.718    1985.9517 
  181600    297.83552   -1162.1278    6537.8754    11738.547    1967.7782 
  181700    296.80671    -1163.756    6444.5059     11621.57    1874.4803 
  181800    298.97114   -1162.7227    6385.6856    11610.022    1913.0889 
  181900    301.81362   -1163.9123    6417.3432    11701.216    1958.5274 
  182000    293.05668   -1162.6037    6452.6056    11550.708     1864.246 
  182100    302.34745   -1157.7555    6387.9954    11689.429    1910.2446 
  182200    298.57282   -1160.8205    6460.5963    11678.326    1961.8015 
  182300    299.42297   -1161.8423    6460.0609    11694.931    1943.5007 
  182400    303.14476   -1162.8639    6283.9471    11597.306    1833.3796 
  182500    300.39664    -1163.847    6413.3289    11666.995    1890.4271 
  182600    299.94508   -1156.7831    6520.8609    11771.944    1934.5561 
  182700    301.71341   -1158.8858    6395.3821     11682.14    1885.3593 
  182800    300.41788   -1153.5549    6491.1811    11755.593    1922.2371 
  182900    302.62282   -1153.6282    6440.9198    11752.364    1871.1577 
  183000    297.25326   -1160.0031    6384.9492    11575.306    1832.6394 
  183100    300.70785   -1154.2799    6413.3002    11683.182     1857.988 
  183200    300.28081   -1158.3643    6357.4336    11614.108    1815.1685 
  183300     303.0408   -1159.1479    6550.8851    11865.739    1958.7636 
  183400     299.4949   -1159.2583    6420.3691     11659.36    1954.6094 
  183500    298.96269   -1155.6318    6406.5543    11637.802    1933.9036 
  183600    299.00328   -1155.2931    6390.3589    11622.812    1917.4607 
  183700      299.759   -1158.9342    6387.6634     11632.62    1922.2017 
  183800     298.3595   -1158.6867      6509.76    11725.066    1940.8791 
  183900    304.44484   -1163.1002    6449.2484    11790.145    1910.6987 
  184000    299.34051   -1160.2949    6432.0314    11666.687    1913.0181 
  184100     299.7232   -1163.3729     6444.468    11684.221    1805.3187 
  184200    298.65652   -1164.2031    6352.2006    11568.336    1822.7701 
  184300    297.35198   -1163.3681     6411.687    11600.788    1993.6667 
  184400    301.08825   -1168.8121    6405.1902    11668.666    1876.4651 
  184500    301.67191   -1162.8215    6373.7706    11655.707    1926.0985 
  184600    298.21658   -1161.1428    6383.0466    11592.843    1916.2918 
  184700     304.4667   -1163.8772    6432.7995    11773.386    1936.1941 
  184800    297.41811   -1160.9694    6433.6635    11626.576         1937 
  184900    301.17027   -1164.3515    6344.7059    11614.395    1899.1727 
  185000    294.69866    -1170.287    6439.7225     11565.22    1936.6795 
  185100    301.50398   -1164.7916    6328.0097    11604.388    1806.5549 
  185200    293.75969    -1165.673    6541.0999    11651.152    1878.6133 
  185300    300.79464    -1165.572    6480.4385    11740.882    1896.9558 
  185400    302.00655   -1169.3197    6397.6985    11680.285    1828.5226 
  185500    298.55516   -1170.3079    6446.7681    11654.633    1940.1565 
  185600    299.80638   -1165.0747    6285.2704    11525.099    1846.2583 
  185700    297.45844   -1161.6669    6398.1177    11591.194    1838.3797 
  185800     301.1542   -1155.1469    6476.5088    11755.059     1867.791 
  185900    301.08542   -1162.7414    6459.0069    11728.493    1914.3304 
  186000     301.2788   -1162.5211    6421.6031    11695.441    1907.6081 
  186100    302.94148   -1158.4495    6392.4503    11705.881    1952.2108 
  186200     298.6548   -1162.3883    6364.4888    11582.402    1937.6319 
  186300    304.83277   -1164.2172    6446.0681    11794.135    1827.5652 
  186400    298.50971   -1161.3601    6494.2313    11710.073    1839.6873 
  186500    304.61201   -1160.8389    6423.3864    11770.116    1858.4777 
  186600    302.45298   -1162.2508    6461.0328    11760.226    1864.9988 
  186700    298.85676   -1154.7683    6424.7429    11654.591    1867.0411 
  186800    304.98482   -1158.0766    6462.1406    11819.597    1945.3557 
  186900    299.14554   -1158.7949    6466.2951    11698.286    1898.1949 
  187000    302.21595   -1154.3764    6446.6079    11748.612    1906.7339 
  187100    296.05271   -1158.8576    6401.5742    11567.429    1921.4021 
  187200    303.14965   -1162.4571    6375.6051    11689.475     1928.769 
  187300    296.22528   -1161.9195    6451.0156    11617.495    1874.3672 
  187400    297.88509   -1161.1683    6488.5699    11691.259     1918.446 
  187500    300.42351   -1159.3452    6435.3963    11694.139    1932.1523 
  187600    303.59569   -1166.1162    6503.7233    11823.463    1951.8781 
  187700    296.02939   -1163.4859    6430.5689    11591.297    1849.3421 
  187800    301.12065   -1163.7043    6294.1707    11563.447    1880.8978 
  187900    304.16268   -1165.6823    6334.9912    11667.278    1859.7624 
  188000    295.05925   -1164.7074    6521.0531    11659.834    1891.9156 
  188100    301.08708   -1164.4414    6485.9838    11753.806    1939.4466 
  188200    301.13123   -1166.5722     6314.346     11580.98    1883.8835 
  188300    303.60171   -1165.2792    6406.0507    11726.756    1882.1574 
  188400    297.58454   -1164.6683    6379.6017    11572.371    1890.2325 
  188500    306.71865   -1167.3495    6419.9924    11805.216    1882.0191 
  188600    300.63836   -1164.6336    6528.3172    11786.361    1859.9064 
  188700    301.34164   -1169.4232    6430.9963    11699.275    1849.3116 
  188800    300.58893   -1168.0689    6327.8393    11581.392     1864.109 
  188900    297.10554   -1166.4309    6462.0805    11642.854    1908.9357 
  189000    304.14544   -1170.4057     6495.424    11822.619    1919.9089 
  189100     298.2103   -1166.4026    6354.1775     11558.58    1903.4514 
  189200    297.99111   -1171.3833    6419.9044    11614.644    1898.0737 
  189300    302.41668   -1166.1119    6451.8238     11746.38    1896.6697 
  189400    297.15055   -1160.9902    6507.4841    11694.659    1939.9355 
  189500    301.39589   -1162.4511    6396.3781    11672.788    1905.9776 
  189600    299.89284   -1166.1243    6477.7471    11718.373    1946.0333 
  189700    297.13032   -1167.9331    6292.5128    11472.313    1854.5408 
  189800    300.02827   -1162.4214    6511.9284    11759.151    1951.3709 
  189900    305.42446   -1159.2966    6441.6682    11807.296    1965.6321 
  190000    300.73252   -1160.5606    6387.7806    11651.909    1906.7607 
  190100    295.33659   -1162.4354    6501.0523     11648.03    1965.8761 
  190200    303.24957   -1159.3446    6432.3342    11751.451    1882.7976 
  190300    308.12546    -1157.784    6397.3805    11822.224    1870.4851 
  190400     297.8001     -1165.57    6455.1889    11651.661    1901.3977 
  190500    304.08973    -1158.824    6508.5123    11846.099    1949.0649 
  190600    301.57767   -1158.3947    6441.0122    11725.362    1896.1816 
  190700    295.91073   -1164.1691    6318.4523    11475.962    1876.6348 
  190800    297.70473   -1161.5578    6471.4237    11669.871    1882.3972 
  190900    301.30267   -1161.2477     6580.304    11855.926    1872.2934 
  191000    299.13529   -1162.6593    6407.5496    11635.457    1856.3685 
  191100    299.79596   -1167.3658    6434.8275    11672.142    1902.6979 
  191200    298.43345   -1160.5988    6450.9611    11665.935    1883.0919 
  191300    302.51517   -1156.1986    6446.2448    11752.819    1944.0017 
  191400    297.63508   -1158.4955    6456.6021    11656.623    1925.6291 
  191500    299.49784   -1158.9355    6395.8631     11635.24    1873.4517 
  191600    300.35211   -1155.5821    6449.2898     11710.27    1876.5678 
  191700    295.70907   -1163.6071    6392.0443    11545.808    1900.4036 
  191800     301.7599   -1163.3979    6496.6654    11779.905    1895.4074 
  191900    304.70112   -1157.7507    6435.5855    11787.307    1931.8624 
  192000    298.38066    -1170.651    6321.6436    11525.437    1854.4893 
  192100    305.62902   -1164.0535    6494.6351    11859.877     1911.629 
  192200    301.58427   -1163.8898    6507.6648     11786.66    1929.2721 
  192300    299.44507   -1164.7774    6340.4219    11572.829    1852.6382 
  192400    297.51918   -1163.4032    6410.8311    11603.469     1934.337 
  192500    298.63779   -1166.1644    6417.9414    11631.715    1950.0995 
  192600    304.74468   -1163.4386     6494.217    11841.181    1920.9342 
  192700    300.20895   -1164.3973    6444.8244    11693.931    1871.2219 
  192800    299.88711   -1174.7482    6433.5436    11665.423    1854.2728 
  192900    295.29948    -1172.396     6430.832    11567.056    1929.1653 
  193000    303.01015   -1161.3152     6501.367    11813.399    1983.6874 
  193100     297.6936   -1163.4113    6366.5817    11562.937    1866.3725 
  193200    299.99584   -1165.4265    6438.7138    11682.238    1875.0828 
  193300    292.58981   -1169.6538    6426.0926    11507.171    1876.8815 
  193400    302.49064   -1159.2238    6413.4102    11716.435    1922.4977 
  193500     297.7654   -1163.4954     6425.923    11623.729    1952.6051 
  193600    298.83424   -1167.8844    6364.4263    11580.677    1927.6897 
  193700    299.56321   -1169.1478    6363.4079    11593.969    1905.1595 
  193800    296.85405   -1167.0154    6503.9489    11678.765    1916.4051 
  193900    297.88835   -1167.2719    6479.5124    11676.168    1882.1453 
  194000    301.22486   -1159.3144    6428.3219    11704.214    1880.5501 
  194100    296.97035   -1164.1032    6377.6196    11557.832    1859.6197 
  194200    302.79948   -1161.7115    6550.3614    11857.496    1992.9365 
  194300    299.00751   -1163.1206     6452.878    11677.594    1942.7335 
  194400    303.54756     -1157.73    6388.9216    11716.019    1906.4202 
  194500    298.21662   -1159.9483    6431.6849    11642.677    1887.5191 
  194600    301.04695   -1160.3036    6402.8151    11673.918    1885.6301 
  194700    301.60576   -1158.2009    6411.6747    11696.818    1883.8956 
  194800    293.28663   -1156.3186    6517.8232    11627.123    1885.0764 
  194900    300.71183   -1160.4966    6426.5334    11690.284    1885.5399 
  195000    298.19314   -1154.7153    6478.7331    11694.457    1881.7367 
  195100    306.12677   -1158.9032    6336.0767    11717.102    1870.3419 
  195200    300.30326   -1163.6284    6460.7282    11712.618    1938.9346 
  195300    301.84455    -1160.105    6447.2157    11735.557    1896.4439 
  195400    295.02108   -1160.9826    6416.9353    11558.625    1869.9377 
  195500    299.99871   -1160.5368    6395.6263    11644.102    1884.4044 
  195600    301.90568   -1160.3448    6432.9272    11722.334    1982.5536 
  195700    296.85571   -1161.8668    6382.9325    11562.933    1891.3017 
  195800    300.33046   -1163.2658    6464.3587    11717.192    1919.9375 
  195900    292.99698   -1162.4652    6411.5283    11508.494    1883.5135 
  196000    300.11398   -1163.4529    6394.6307    11642.653    1916.7025 
  196100    300.57134    -1167.449    6425.8855    11679.682    1919.1693 
  196200    299.62336   -1166.4523    6375.3308    11609.872    1897.3694 
  196300    297.94843   -1160.3238    6428.4813    11633.369    1906.0473 
  196400    302.67685   -1168.0339    6405.2224    11703.415    1893.9907 
  196500    299.17017   -1168.1919    6406.6343    11629.754    1891.1234 
  196600    298.77238   -1172.8603    6414.7195    11624.673    1934.8606 
  196700    302.87577   -1168.6587    6421.0236    11722.841    1862.1915 
  196800    296.21821   -1169.3197     6457.683    11616.611    1887.7812 
  196900    297.23606   -1167.6363    6438.0868    11620.443    1877.5494 
  197000    300.00636   -1173.0675    6434.0319     11670.14    1836.2563 
  197100    301.06799   -1166.7544     6375.006    11640.107    1832.6277 
  197200    297.57349   -1166.8875    6508.1701    11698.484    1915.4555 
  197300    300.90529   -1169.8005    6538.7467    11797.326    1919.1407 
  197400    298.96963   -1165.7591    6406.2738    11627.542    1879.3906 
  197500    297.18108   -1160.8392    6355.6025    11543.581    1867.6638 
  197600      300.771   -1161.4075    6425.8236    11689.927    1893.1433 
  197700     300.7105   -1158.8892    6462.9733    11728.303     1849.994 
  197800    303.34747   -1162.9854    6301.4374    11619.005    1865.9552 
  197900    299.26625   -1159.3627    6439.8255    11673.827    1913.2986 
  198000    298.30406   -1157.7481    6422.2092     11637.27    1886.4311 
  198100    300.83928   -1159.7184    6465.5242    11732.775     1881.717 
  198200    298.16739   -1158.7361    6406.5248    11617.678    1876.6963 
  198300    300.48694    -1154.382     6444.244    11709.304    1872.7093 
  198400    302.39477   -1156.6782    6411.2291    11714.751    1893.5338 
  198500    295.57886   -1156.9455    6444.1674    11601.811     1901.992 
  198600    301.38933   -1158.4313    6363.4726    11643.762    1870.0614 
  198700    303.20402   -1159.1884    6504.7225    11823.023    1965.0256 
  198800    295.47983   -1160.1115    6404.5364    11556.898    1910.8144 
  198900    300.58516    -1158.261    6341.2698     11604.55    1775.8412 
  199000    300.77239   -1157.9808     6559.699    11827.259     1840.218 
  199100    299.26843   -1161.6603    6413.1908    11644.941    1796.3867 
  199200    304.01209   -1160.3781    6378.2407    11712.614    1825.2697 
  199300    295.64355   -1160.4627    6516.7955    11672.304    1868.0095 
  199400    296.97653    -1165.455    6426.7941    11605.787    1839.6519 
  199500    301.13082   -1169.7643    6313.3219    11576.756     1824.301 
  199600    294.54127   -1165.9602    6429.3448    11555.807     1841.523 
  199700    302.51269   -1163.9316    6512.1065    11810.894    1866.4588 
  199800    299.16819    -1171.981    6396.1722    11615.461    1843.9221 
  199900    308.75101   -1169.9267    6448.8164    11874.881    1835.9124 
  200000    297.71465   -1169.4161    6419.1063    11609.907    1776.7139 
  200100    297.91548    -1166.614    6310.0667     11507.96    1827.4235 
  200200    302.33199   -1168.6407    6372.9674    11663.186    1922.4666 
  200300    305.23136   -1168.7707    6506.9309     11858.96    1930.8479 
  200400    299.10969   -1166.1664    6465.8037    11689.657    1883.1957 
  200500    298.28937   -1170.5294     6378.746    11580.711     1893.329 
  200600    301.17836   -1167.6752    6348.1028    11614.641    1889.9112 
  200700    301.90578   -1166.8642    6354.0199    11636.909    1931.4094 
  200800    296.17226   -1163.8698     6485.308    11648.704    1928.2325 
  200900    303.09126   -1164.8979    6468.5765    11778.758    1895.4774 
  201000    295.46604   -1163.1987    6464.5191    11613.499    1899.7406 
  201100    299.87566   -1167.3272    6402.8445    11641.901    1901.8252 
  201200     302.1506    -1162.498    6468.6398    11761.126    1915.4223 
  201300    292.91291   -1161.0886    6436.9404    11533.487    1862.6939 
  201400    301.58208   -1159.1916    6439.7465    11723.393    1883.4599 
  201500    301.59833   -1160.9196    6377.9442     11660.21    1832.7102 
  201600    295.65057    -1157.602    6462.0091    11620.528    1855.2621 
  201700    301.21875   -1155.1182    6495.3978    11775.356     1917.239 
  201800    299.82632   -1155.9931    6312.4025    11561.739    1863.6698 
  201900    296.54083   -1156.7172    6438.7408    11617.164    1903.3605 
  202000    299.42112   -1157.3767    6473.4693    11712.765     1865.508 
  202100    302.66824   -1156.6676    6603.0623    11912.437    1904.7999 
  202200    294.95662   -1158.9785    6403.8223    11546.139    1685.6384 
  202300    300.02948   -1165.1508    6344.3238    11588.842    1848.1858 
  202400    294.82184   -1161.9236    6422.8131    11559.306    1886.5267 
  202500    302.77984   -1156.9841    6429.0882    11740.531    1815.9026 
  202600    299.47233   -1160.1167    6482.8673    11720.517    1899.2843 
  202700    298.18672   -1161.9147    6437.5016    11645.889    1891.8662 
  202800    301.02943   -1163.8007    6356.2055    11623.437    1822.6733 
  202900    299.22978   -1160.0471    6402.9785    11635.517    1838.1325 
  203000    296.26201   -1164.2622    6454.5787      11619.5    1869.1802 
  203100    303.63381   -1168.4122    6528.5128    11846.771    1847.9855 
  203200    297.06523   -1174.5538    6416.1554    11587.944      1784.88 
  203300    299.70803    -1171.586    6291.3713    11522.588    1832.6348 
  203400    298.58606   -1165.2343     6461.246    11674.845    1896.2564 
  203500    300.15778   -1161.0931    6412.0314    11663.349    1840.0304 
  203600    299.25165   -1162.8528    6449.8302     11680.03    1889.1106 
  203700    296.87845   -1165.3384    6455.3902    11632.404    1871.5126 
  203800    301.90677   -1174.5222    6315.2188    11590.471    1859.6483 
  203900     297.4293   -1173.4447    6466.1171    11646.793    1940.9899 
  204000    302.15178   -1172.0782    6417.6034    11700.534    1870.6101 
  204100    297.19432   -1168.0105    6490.5981    11671.688    1900.6227 
  204200    302.88604   -1166.7852    6438.1284    11742.039    1936.6446 
  204300    301.75301   -1167.1262    6421.2034    11700.567    1912.3204 
  204400    297.24219   -1161.6212    6393.0554    11581.557    1914.1563 
  204500    302.41691   -1157.1275    6377.1802    11680.726     1861.453 
  204600    303.90338   -1159.0644    6456.7177    11790.083    1919.5794 
  204700    299.40994   -1160.3454    6426.1245    11662.213    1878.0241 
  204800    300.74415   -1161.5615    6460.0976    11723.473    1918.0908 
  204900    297.97243   -1164.8263    6361.3862    11562.284    1859.9472 
  205000    298.91606   -1164.0757    6407.9965    11629.804     1801.731 
  205100    302.52355   -1157.2951    6545.3331    11850.989    1910.3623 
  205200    300.69002    -1161.934    6441.5337    11703.381    1875.5516 
  205300     304.8338   -1158.9699    6536.4588    11889.795    1965.0544 
  205400    297.06617   -1149.8731    6393.6398     11590.13    1895.7727 
  205500    301.03439   -1159.4706    6366.0513    11637.719    1900.1178 
  205600     300.7552   -1160.6327    6504.2799    11768.821    1870.4708 
  205700    298.18289    -1160.173    6467.8542    11677.901    1826.2596 
  205800    302.74414   -1163.1987    6358.7364    11663.202    1831.1133 
  205900    301.32089   -1166.5671    6452.2915    11722.983    1799.3522 
  206000    297.93921   -1166.1059    6547.9566    11746.865    1802.7931 
  206100    305.80505   -1161.3844    6340.6023    11712.274    1808.4825 
  206200     297.3477    -1164.062    6371.9973    11560.313    1871.5872 
  206300    304.52155   -1164.1382    6420.9727     11762.47    1853.1269 
  206400    300.60137   -1167.1236    6464.3602    11719.124    1879.6774 
  206500    296.70336   -1164.4183    6396.4133    11570.607    1879.3648 
  206600    302.98358   -1166.3489    6384.2049    11690.635    1841.6865 
  206700     300.6283   -1164.9287    6432.1643    11689.698    1904.0291 
  206800    299.72679   -1169.8022    6289.0772    11522.478    1921.3659 
  206900    296.21564    -1164.057    6429.5042     11593.64    1918.6015 
  207000    300.84454     -1171.38    6451.9181     11707.62    1899.1283 
  207100    305.47611   -1168.4647    6413.6326    11771.196    1872.4567 
  207200    301.40406   -1174.4007    6424.5678    11689.202    1822.7011 
  207300     303.3206   -1170.5562    6459.8868     11769.31    1857.8475 
  207400    297.21829    -1165.039    6456.1772    11640.751    1862.5515 
  207500    306.97499   -1167.9597    6479.7371    11869.827    1877.9944 
  207600    297.90884    -1163.442    6391.1411    11592.064    1813.4213 
  207700    298.82183   -1165.7576    6401.3068    11619.419    1947.7837 
  207800    294.73888   -1167.3333    6280.3876    11409.698    1860.5692 
  207900    303.65646   -1159.2636    6402.9952    11730.886    1775.5033 
  208000     300.0327   -1157.0303    6588.8698    11841.578    1794.9296 
  208100    299.81095   -1164.4391    6411.0879     11651.65    1845.6523 
  208200    295.20422   -1162.5188    6280.0503    11424.117    1778.0099 
  208300    300.13946   -1157.8484    6427.9873    11682.158    1815.6969 
  208400    300.68442   -1160.4978    6493.9793    11757.143    1854.6662 
  208500    299.86027   -1157.5054    6464.3557    11712.905    1839.0829 
  208600    299.03998   -1156.3968    6496.3097    11728.443    1880.0805 
  208700    301.63376   -1155.7433    6433.4388    11721.638    1945.7027 
  208800    297.96509    -1155.398    6320.8549    11531.024    1909.0241 
  208900    301.06349   -1154.8873    6434.7763    11711.649    1861.7964 
  209000    298.92306     -1157.64    6459.1972     11687.59    1892.1073 
  209100    299.83118   -1161.2151    6497.2986    11741.517    1934.4987 
  209200    299.88581   -1165.1544    6392.3956    11633.841    1781.7844 
  209300    297.98524   -1167.2386    6478.4054    11677.164    1840.1289 
  209400    296.83126   -1162.5461    6501.0615     11679.86    1886.2647 
  209500    301.38951   -1168.2044    6447.3593    11717.879    1882.6656 
  209600    299.33793   -1162.0251    6349.4528    11582.323    1932.5342 
  209700    307.46728   -1160.7535    6395.0836    11802.897    1979.1056 
  209800    296.60573   -1163.5839    6479.0114    11651.954    1904.6001 
  209900    298.11496   -1167.0053     6485.737      11687.5    1904.5039 
  210000    300.86531   -1173.1608    6332.7122    11587.077    1845.9095 
  210100    297.99579   -1171.4801    6387.5738    11582.316    1848.0437 
  210200    304.57344   -1172.1975    6499.0141    11833.561    1878.3072 
  210300    299.73682   -1165.7293    6395.8535    11633.542    1865.6937 
  210400    300.52619   -1174.4609    6459.0711    11704.891    1908.3879 
  210500    301.62992   -1164.2806    6388.6609    11668.241     1909.215 
  210600    299.26026   -1166.2662    6382.5578    11609.528    1868.6447 
  210700    291.79423   -1166.5141    6505.3021    11572.524    1863.5139 
  210800    300.76326   -1170.0187    6421.6988    11677.026    1876.5057 
  210900    301.74966   -1168.1387    6449.0408    11727.321    1846.6309 
  211000    297.34136   -1169.3262     6333.222    11516.138    1876.3829 
  211100    307.03486   -1166.9436    6336.7985    11729.184    1956.2102 
  211200    298.89964   -1162.3596     6448.939    11672.112     1897.717 
  211300    300.94064   -1158.1288    6523.9619    11794.968      1946.05 
  211400    299.82159   -1159.8289     6393.838    11639.237    1924.3583 
  211500    293.80053   -1157.6312    6490.2212    11609.188    1857.4933 
  211600    304.77143   -1154.0703    6449.7286    11806.632    1848.7628 
  211700    295.71234   -1157.7801     6460.234    11619.894    1891.0171 
  211800      298.129     -1155.43    6495.9516     11709.59    1896.2955 
  211900    300.78566    -1153.098    6469.8067    11742.533    1824.0703 
  212000    300.86983   -1155.6236    6415.5958    11687.594     1878.993 
  212100    295.18549   -1156.7298    6540.8969    11690.352    1910.9081 
  212200     297.9552   -1160.1953    6543.3057    11748.466     1910.247 
  212300    303.04787   -1156.3373    6369.7364    11687.552    1953.1259 
  212400    297.31742   -1161.2488    6326.6757    11517.157    1879.3904 
  212500    303.05203   -1154.9681    6539.9138    11859.187    1971.5483 
  212600    296.07581     -1160.17    6442.5085    11607.544    1885.4139 
  212700    302.42699   -1156.8402    6466.2333    11770.282    1964.3038 
  212800     301.2639   -1161.7984    6287.1232    11561.366    1891.5929 
  212900    293.49624   -1165.7139    6364.9411    11469.324     1975.128 
  213000    306.41129   -1162.5573    6444.1296    11827.579    2001.2713 
  213100     300.4258   -1167.8816    6433.6046    11683.859    1917.5403 
  213200     300.2399   -1164.5964    6430.8625    11680.431    1883.0736 
  213300    304.87447   -1166.4699    6417.5556    11764.261    1964.6357 
  213400    300.99222   -1164.2313    6269.5108    11535.516    1869.8741 
  213500    298.75214   -1159.5923     6389.954    11612.743    1946.2578 
  213600    301.55638   -1168.6926    6456.2213    11729.818    1958.8505 
  213700     301.4016   -1168.8976    6289.4431    11559.528    1853.6062 
  213800    303.09218   -1170.4744     6510.733    11815.358    1917.2516 
  213900    296.10649   -1171.4781    6478.6615    11633.044    1960.4963 
  214000    301.74374   -1171.4147    6373.7273    11648.605    1926.8118 
  214100    294.74248   -1169.3753    6347.5985    11474.944    1873.6725 
  214200     302.2405   -1167.5518    6459.5904    11748.943    1884.1864 
  214300    293.07767   -1160.9238    6424.2671    11524.498    1807.8035 
  214400    301.31496   -1167.0974    6487.3057     11757.34    1848.8889 
  214500    294.81481   -1168.2377    6374.8219     11504.85    1865.4746 
  214600    300.76991   -1160.5373    6312.8664    11577.817    1891.3098 
  214700    306.65043   -1160.2895    6472.2105    11863.037    1945.9699 
  214800    294.58345   -1155.5662     6605.251    11743.008    1957.1683 
  214900    305.30306   -1162.3918    6430.8183    11790.758    1961.4579 
  215000    297.39847   -1161.8006    6374.8786     11566.54    1894.4816 
  215100    302.76695   -1161.1487     6472.846    11779.849    1886.9989 
  215200    295.73932   -1159.0911    6478.4011    11637.327    1863.3158 
  215300    296.26684   -1159.9083    6413.1647    11582.543    1873.3408 
  215400    298.86296   -1154.9506     6429.913    11659.711    1878.5694 
  215500    300.64061   -1158.1263    6391.1391    11655.738      1850.55 
  215600    297.76729   -1155.9446     6516.623     11722.02    1863.4127 
  215700    300.56519   -1154.8373    6484.6556    11750.932    1920.3699 
  215800    309.97194   -1157.1237    6320.4548    11785.406     1927.205 
  215900    300.40646   -1151.1202    6365.2486    11631.851    1894.5988 
  216000    300.66928    -1159.839    6511.2807     11774.78    1922.6334 
  216100    299.39088   -1163.4005    6493.2318    11725.858    1851.2917 
  216200    299.65683   -1158.3141    6452.7295    11696.124    1919.4148 
  216300    299.49476   -1166.3721    6327.8776    11559.752    1926.4513 
  216400    296.07038   -1164.9815    6475.8431    11635.951    1904.3223 
  216500     301.1384   -1159.8481    6450.5095    11724.021    1946.5751 
  216600    294.32492   -1166.8681    6395.5155    11516.448    1890.8697 
  216700     295.0359   -1160.8448    6425.8831    11568.027    1852.5623 
  216800    301.74083   -1162.8542    6407.2074    11690.583     1870.799 
  216900    299.23013   -1162.3068    6446.7938     11677.08    1957.7258 
  217000    299.36566   -1169.8904    6336.9336    11562.531    1857.1634 
  217100    305.32183   -1168.6671    6521.8912    11875.957    1959.2011 
  217200    300.77539   -1166.0719    6471.8625    11731.395     1994.957 
  217300    303.46134   -1175.2157    6426.7062    11734.476    1906.2205 
  217400    302.86738   -1163.1401    6437.6473    11744.804     1931.298 
  217500    297.10462    -1160.609    6378.1339    11564.709    1926.2237 
  217600    300.81973    -1169.011    6382.8837    11640.425    1898.0302 
  217700      299.686   -1163.2922    6523.8936    11762.933    1924.9173 
  217800    301.10338   -1163.5288    6396.6922    11665.775    1888.5444 
  217900    297.47629   -1168.3502    6379.7978    11566.572    1840.0893 
  218000    296.62308   -1167.0919    6399.6035    11569.409    1823.1984 
  218100    301.75979   -1159.7101    6520.5883    11807.513    1952.2688 
  218200    299.08081   -1164.3934    6502.7045    11727.714    1960.7979 
  218300    302.57077    -1165.061    6373.0344    11671.934    1916.6478 
  218400    298.46269   -1161.8326    6399.2187    11613.583    1882.4401 
  218500    299.24309   -1162.3629    6429.3217    11659.828     1891.963 
  218600    303.58053   -1156.4297    6507.7045    11836.807    1924.7999 
  218700     299.5131   -1156.7058    6464.9784     11706.91    1877.2738 
  218800    303.64134   -1157.0895    6275.2747    11605.017    1879.2857 
  218900    298.55514   -1158.2892    6449.8738    11669.757    1861.9979 
  219000    298.28988   -1158.8383    6468.4296    11682.097    1824.1495 
  219100    301.07853     -1158.08    6492.9567    11766.958    1897.6447 
  219200    302.85894   -1161.9302    6375.3911    11683.577    1863.9425 
  219300    300.39521   -1159.6252    6427.5941    11685.452    1922.8474 
  219400    298.00099   -1161.2219    6430.8346    11635.947    1965.4738 
  219500    298.55397   -1161.3965    6335.3724    11552.124    1902.4143 
  219600    300.85438   -1164.5586    6484.8185    11747.552    1955.4343 
  219700    297.73566   -1161.6833     6526.895    11725.877     1971.095 
  219800    301.54546   -1168.0802    6362.1646    11636.141    1943.2341 
  219900    302.34197   -1161.4767    6423.0948     11720.69    1919.3052 
  220000     304.3108   -1163.5069    6515.5076    11853.134    1964.7751 
  220100     302.0493   -1168.7273    6405.8098    11689.902    1961.4524 
  220200    301.52678   -1169.6036    6446.0247    11718.078    1936.5667 
  220300    299.42032   -1167.3378    6497.0667    11726.385    1963.4653 
  220400    299.51211   -1171.5817    6420.6289    11647.664    1971.7289 
  220500    304.97574   -1169.0665    6326.9951    11673.267    1933.2669 
  220600    298.15374   -1161.1507    6481.6689    11690.115    1984.3141 
  220700    301.03953   -1168.5351    6427.9009    11690.613    1945.9881 
  220800    299.08318   -1164.8314    6386.8584     11611.48    1945.6422 
  220900    300.47048   -1164.2291     6401.544    11656.406    1890.3179 
  221000    294.61664   -1169.3764    6406.1439      11530.8    1885.2971 
  221100    302.83197   -1165.2095    6491.2394     11795.57     1957.609 
  221200    298.82271   -1165.5889    6456.6818    11674.982    1908.8085 
  221300    300.10891   -1165.5931    6360.3782    11606.152    1903.7121 
  221400    298.74838    -1166.259    6428.8233    11644.865    1966.2636 
  221500    296.44549   -1159.7847    6504.2442    11677.563    1990.8654 
  221600    299.22192   -1165.0486     6346.207    11573.576    1897.9493 
  221700    296.54428   -1163.4719    6372.2688     11544.01    1891.4798 
  221800    300.75733   -1157.5795    6489.8638    11757.503    1968.9993 
  221900    299.70078   -1162.3327    6492.6166    11732.931    1924.2055 
  222000    300.30112   -1165.3297    6329.9237    11580.067     1887.133 
  222100    303.04547   -1164.1379     6272.175    11582.139    1879.1419 
  222200    300.12632   -1162.3143    6450.3241    11699.748    1942.2557 
  222300    299.14265   -1158.8781    6549.5405    11781.386    1955.1424 
  222400    304.38247   -1154.8132    6478.8767    11826.728    1942.5981 
  222500    298.01189   -1159.5312    6430.9182    11637.954    1883.0993 
  222600    298.76793   -1157.6843    6361.3263     11586.36    1879.0107 
  222700    295.89325   -1156.0755    6338.1526    11503.382    1915.7531 
  222800    304.00424   -1161.9194    6443.1622    11775.827    1969.7311 
  222900    299.63059   -1164.0628    6426.7924    11663.877    1906.0896 
  223000    296.47018   -1162.2199    6456.9598     11628.37     1916.477 
  223100    304.36722   -1163.9266    6464.3871    11802.799    1948.6946 
  223200    299.02246   -1168.0635    6414.1809    11634.273    1918.4295 
  223300    302.41062   -1168.9862     6372.536    11664.089    1926.7975 
  223400    300.58383   -1164.6604    6432.0005    11688.852    1977.3545 
  223500    300.40827   -1161.4336    6532.5999    11788.928    2061.6151 
  223600    298.33118   -1164.7399    6343.3286    11551.977    1905.6775 
  223700    299.71421    -1163.367    6385.9136    11625.481    1942.4199 
  223800    296.28297   -1164.1576     6397.967    11563.441    1919.3687 
  223900    301.92792   -1171.6565    6402.4401     11681.01    1936.8633 
  224000    301.04833   -1176.1599    6425.2361    11680.512    1910.6398 
  224100     293.4207   -1165.9981    6379.8909    11482.376    1810.9877 
  224200     303.9941   -1167.7802     6423.778    11750.365    1917.5404 
  224300    296.42231   -1169.1456    6351.2165    11514.679    1848.1055 
  224400    302.80356   -1166.0721    6475.9982     11778.86    1876.7834 
  224500    297.45026   -1165.5748    6503.5985    11692.592    1941.9524 
  224600    306.84187   -1157.9329    6303.1383    11700.411    1904.2907 
  224700    297.35347   -1160.0463    6353.3981    11545.852    1891.1419 
  224800    308.16296   -1165.4462    6456.9382    11874.921    1890.1622 
  224900    299.92356   -1166.0367    6489.6997     11731.07    1918.9322 
  225000    296.87654    -1163.188    6401.8787    11581.002    1886.6934 
  225100    305.53782   -1161.7055    6458.2752    11823.916    1885.2067 
  225200    297.00679   -1162.3764    6451.0355    11633.753    1955.3278 
  225300    302.62471   -1154.0585    6433.4575    11744.512    1994.8474 
  225400    302.27134   -1160.3808    6432.9646    11730.147    1953.6492 
  225500    304.10576   -1154.8173    6422.4076    11764.343     1951.309 
  225600    300.39767   -1158.9057    6359.1108     11617.74    1898.3275 
  225700    301.44151   -1157.1245    6433.3816    11716.092    1864.3444 
  225800    298.08452    -1162.869    6502.8017    11708.051    1850.8112 
  225900    299.06546   -1163.4988    6400.2316    11625.808    1871.5518 
  226000    302.32929   -1165.6225    6402.0924    11695.271    1914.9168 
  226100    299.22597   -1164.0067    6467.1091    11695.606    1911.1375 
  226200      298.937   -1156.6467    6447.5384    11677.222    1928.9007 
  226300    298.02213   -1158.2492    6367.0948    11575.631    1876.3322 
  226400    299.23531   -1160.5295    6392.8029    11624.977    1881.7849 
  226500    304.44409     -1161.25      6466.89    11809.621    1920.4328 
  226600    295.33132   -1167.7529    6402.0604    11543.608    1872.2796 
  226700     304.0185   -1165.2141    6424.3548     11754.03    1899.3419 
  226800    303.65147   -1169.0616    6443.3102    11761.296    1848.8389 
  226900    302.62495   -1173.5674    6455.5318    11747.082    1866.1501 
  227000    301.91272   -1168.6307    6420.9339    11702.205    1843.5594 
  227100    296.64714   -1166.6221    6444.1241    11614.913    1841.7951 
  227200    302.67425   -1164.9195     6391.837    11693.088    1926.4587 
  227300    294.62877   -1164.1168    6427.2438    11557.418    1899.5168 
  227400    294.82041   -1168.8636    6380.4989    11510.021    1906.9548 
  227500    302.62276   -1163.2813    6497.3259    11799.116     1979.985 
  227600    301.70189   -1162.2208     6482.774    11765.951    1928.4312 
  227700    303.65334   -1172.7037    6409.5755     11723.96    1926.5828 
  227800    297.75857   -1165.8885    6346.7536     11542.02    1965.7885 
  227900    302.79461   -1168.5797    6440.4905    11740.653    1934.7953 
  228000    297.40678   -1161.3667    6414.4182    11606.691    1879.8362 
  228100    301.82055   -1164.9194    6419.7033    11702.717    1893.9064 
  228200    299.32608   -1166.2646    6421.9568    11650.335    1945.2187 
  228300    302.92215   -1157.2939    6389.0397    11703.213    1826.2806 
  228400    299.34559   -1157.6212     6418.988    11656.426    1830.3122 
  228500    299.19404   -1158.2564    6443.7328    11677.298    1892.2317 
  228600     305.5618   -1162.4673    6505.0342    11870.426    1903.4166 
  228700    298.53663   -1157.2347    6419.0598    11639.602    1870.6974 
  228800     298.4144   -1160.3598    6493.6092    11708.415    1944.7023 
  228900     300.1574   -1159.6012     6444.135    11696.936    1903.8393 
  229000    299.48543   -1158.6939    6440.8407    11680.193    1861.4859 
  229100    298.60174    -1156.901    6412.2549    11634.522    1867.0248 
  229200    306.50821   -1153.3269    6513.1553    11907.906    1883.5781 
  229300    298.16188   -1160.1894    6432.3102    11641.892    1838.4475 
  229400     305.1253    -1154.879    6390.1318    11753.787    1928.7499 
  229500    299.38304   -1156.6443    6477.3498    11716.565    1938.8214 
  229600    294.84532   -1160.7331    6432.5163    11570.701    1862.9707 
  229700    301.75956   -1164.3839    6327.9764    11610.222    1867.7937 
  229800    295.81631   -1166.0175    6430.0838    11583.728    1864.3595 
  229900    306.35213   -1162.5548    6437.9256    11820.114    1780.9752 
  230000    305.01931   -1163.2818    6414.4294    11767.417    1913.6305 
  230100    295.63369   -1162.3349    6365.1634    11518.589    1916.3669 
  230200    301.25107   -1157.8344     6301.032    11578.965    1858.7899 
  230300    299.33073   -1160.8318    6478.6332    11712.543    1971.2199 
  230400     300.2714   -1163.4394    6417.0377    11668.436     1913.758 
  230500    304.42521   -1163.8343    6376.8842    11716.627    1852.9677 
  230600    300.37956   -1160.9879    6541.7231    11797.884    1908.7238 
  230700    300.13908   -1174.2952    6464.0541     11701.77    1872.8708 
  230800    296.45158   -1170.5893    6315.1241    11477.768    1764.1659 
  230900    298.80011   -1166.0742    6379.4282     11596.76    1835.5245 
  231000      302.299   -1160.5309    6540.9457    11838.569    1932.5331 
  231100    296.53989   -1164.5222    6366.2134    11536.811    1816.6906 
  231200    305.37552   -1165.7448    6352.6829    11710.818    1888.3761 
  231300     300.3872   -1165.9164    6452.9181    11704.313    1895.1151 
  231400     297.3848   -1163.7245    6377.9593    11567.405    1827.6154 
  231500    305.99276   -1167.6637    6390.0198    11759.422    1875.4867 
  231600    299.14951   -1158.5383     6433.951    11666.283    1862.2015 
  231700    299.64125   -1165.7814    6461.7616    11697.356     1917.528 
  231800    301.95986   -1164.5725    6479.9491    11766.286    1963.3947 
  231900    294.72738   -1161.7375    6368.3158    11502.977    1921.4066 
  232000    300.78526   -1160.3192    6463.0347    11728.531    1961.6744 
  232100    300.40962   -1161.4415    6485.4558    11741.805    1867.4503 
  232200     299.3637   -1165.1736    6478.3394    11708.612    1854.5306 
  232300    297.39092   -1158.9458    6331.7553     11526.11    1826.5096 
  232400    303.90355   -1163.0226     6476.713    11806.123    1925.3915 
  232500    302.90494   -1159.2783    6437.0515    11748.872    1828.4188 
  232600    295.93053   -1160.4456    6551.9491    11713.605     1856.246 
  232700    297.07164   -1162.6012    6441.3071    11625.186     1839.025 
  232800    301.37514   -1163.2281     6340.012    11615.201    1813.4414 
  232900    297.04267   -1165.9202    6476.1414    11656.082    1869.4999 
  233000    300.11734   -1162.4395     6474.558    11723.665    1922.3328 
  233100    302.56783   -1163.7127    6398.8795    11699.064    1830.8445 
  233200    296.75854   -1162.9747    6434.9275    11611.744    1841.0286 
  233300    296.92225   -1165.8671    6467.3792      11644.8    1884.8188 
  233400    297.68176    -1164.731    6410.0803    11604.863    1822.2405 
  233500    301.36859     -1162.82    6452.2793    11727.737    1871.5691 
  233600    296.37278   -1167.0164    6374.4704    11539.004    1865.4865 
  233700    295.57638   -1165.7713    6375.7013    11524.466    1879.9932 
  233800    300.91657   -1162.6465    6436.9695    11702.944    1924.3266 
  233900    301.46783   -1164.1379    6353.8961    11630.156    1946.2647 
  234000    300.39313   -1164.2391    6435.1938    11688.393     1930.288 
  234100    299.30604    -1165.654    6415.7404    11644.301    1828.0507 
  234200     299.9274   -1169.1251     6452.424    11690.788    1873.4136 
  234300    299.34745   -1158.4202    6362.2306    11598.909    1915.9769 
  234400    300.75517   -1165.7958    6434.8515    11694.228    1936.8311 
  234500    295.85222   -1168.5263     6432.675    11584.577    1933.9999 
  234600    301.26041   -1163.9748    6463.6526    11735.644    1965.8917 
  234700    300.11163   -1165.9289    6425.1891    11670.685    1910.3534 
  234800     293.6433   -1166.9024    6398.6975    11505.034    1853.1158 
  234900     300.0817   -1168.9177    6416.8887    11658.756    1894.5256 
  235000    303.13773   -1167.4339    6462.3617        11771    1867.3061 
  235100      298.189    -1163.177    6373.6892    11580.863    1794.7585 
  235200    296.54757   -1164.6883    6598.9953    11769.591    1982.1784 
  235300    299.84567   -1167.9308    6441.8797    11679.692    1913.3101 
  235400    298.45686   -1165.4744    6374.9349    11585.533    1865.3331 
  235500    303.89053   -1162.6607    6448.3575    11777.852    1933.4162 
  235600    299.73854   -1165.9078    6440.2616    11677.808    1947.8542 
  235700    297.23636   -1162.7798    6399.1541    11586.373    1887.5248 
  235800    303.59603   -1165.1793     6490.318    11811.002    1939.1505 
  235900    300.73839   -1165.1916    6449.4686    11709.091     1948.246 
  236000    298.91246   -1167.6324    6300.0841    11518.258     1834.234 
  236100    303.42162   -1159.3817    6438.1607    11760.916    1916.4401 
  236200    300.04156   -1161.3579    6515.7638    11764.334    1923.5918 
  236300    300.21288   -1161.1431    6394.5352     11646.98    1901.5357 
  236400     300.0743   -1169.2057    6359.2298    11600.651    1885.4527 
  236500    299.78887   -1165.8871    6496.9311    11735.573    1920.9091 
  236600    297.23552   -1161.0749    6479.9967    11668.903    1923.3038 
  236700    302.92578   -1165.8207     6405.424    11711.148    1832.1417 
  236800    299.80116   -1156.7443    6463.8872    11711.935    1902.1216 
  236900    299.75169   -1159.0071    6389.3975    11634.125    1883.2881 
  237000     302.5468    -1164.131     6460.087    11759.404    1843.6075 
  237100     299.4873    -1160.151    6509.6357    11747.571    1912.0327 
  237200    295.41644   -1161.1842    6490.5047     11640.44    1916.5045 
  237300    303.76082   -1167.6351    6386.0481    11707.797    1846.2143 
  237400    295.11137   -1162.5187    6480.5358    11622.619    1903.9435 
  237500    304.33908   -1164.2831    6351.2317    11688.686    1868.1688 
  237600    296.36849   -1160.2429    6396.5352     11567.75    1840.4543 
  237700    301.04348   -1163.3141    6444.7081    11712.726    1862.3285 
  237800    300.16607   -1162.1762    6457.6345    11708.046     1900.881 
  237900    299.76675   -1159.2703    6454.3984    11699.185    1894.0325 
  238000     297.6566   -1161.5741     6437.825    11635.227    1926.8485 
  238100    299.50823   -1166.3229    6419.2389     11651.45    1930.4985 
  238200    296.78495   -1167.5748    6365.9195      11538.7    1868.9781 
  238300    305.98484   -1170.7345    6332.3278     11698.49    1828.3172 
  238400    299.11334   -1162.7913    6525.2752    11752.581    1915.4592 
  238500    300.56206   -1162.7798    6471.3568    11729.624    1886.7143 
  238600    300.57025   -1162.7476    6449.6004    11708.075     1896.437 
  238700    294.64277   -1159.6008    6343.7169    11478.707    1846.9988 
  238800    301.97902   -1157.5438     6415.544    11709.319    1964.5675 
  238900    303.32202   -1161.4093    6440.8347    11759.435    1916.2951 
  239000    304.29247    -1171.155    6540.8026    11870.389     1952.809 
  239100    300.83591    -1162.984     6465.246     11729.16    1932.5667 
  239200      297.772   -1166.5305    6381.2526    11576.164    1901.2523 
  239300    298.86289   -1169.7595    6325.9396    11540.927    1879.0153 
  239400    299.97425   -1166.5993      6455.93     11697.82    1929.8205 
  239500    301.48201   -1162.4076    6423.4479    11701.741    1833.1414 
  239600    294.86763    -1161.339    6473.9583    11612.014    1855.9113 
  239700    301.64835   -1156.9434     6463.001    11750.312    1918.0675 
  239800    297.89121   -1159.0222    6523.7324    11728.699    1989.6252 
  239900    301.75202      -1158.6    6361.3384    11649.207    1904.4185 
  240000    301.01682    -1159.504    6445.5745    11716.833    1939.7295 
  240100    296.45074   -1162.8449    6411.2089    11581.579    2011.2621 
  240200    295.36068   -1167.3942    6427.1169     11569.65    1923.2443 
  240300    297.88026    -1163.978    6392.7715    11592.548    1896.1333 
  240400    295.55474   -1160.2643    6436.3871    11590.196     1925.538 
  240500    302.08892   -1159.6509    6528.9616    11822.977    1958.0801 
  240600    302.74517   -1155.7686    6407.5036    11719.421    1890.1467 
  240700    292.02944   -1157.5352    6398.6413    11479.867    1927.9063 
  240800    309.48026   -1155.6179    6426.4374     11882.39    1926.1792 
  240900    297.90894   -1158.2763    6497.7753    11703.866     1815.908 
  241000    301.14419   -1166.1912    6510.2904    11777.583     1887.966 
  241100    299.49492   -1169.6685    6333.2901    11561.871    1862.9899 
  241200     298.2026   -1170.7458    6404.4157    11604.311    1826.5235 
  241300    300.29725   -1166.0425    6518.7015    11768.049    1938.9411 
  241400    300.51212   -1165.0818    6450.8443    11705.743    1890.6003 
  241500    301.41026   -1162.2058    6495.7569    11772.719    1872.6852 
  241600    297.65861   -1163.3922    6318.8215    11514.449    1867.4301 
  241700    303.02744   -1159.2414    6364.8173    11679.292    1921.0731 
  241800    298.79921   -1162.0386    6517.1745    11738.523    1826.1548 
  241900     301.2708   -1169.4041    6386.7514    11653.536    1821.4374 
  242000     299.9006   -1167.0903    6354.1703    11593.996    1853.9292 
  242100    301.75076   -1166.5997    6576.9138    11856.756    1873.4574 
  242200    296.14838   -1173.5634    6434.1896    11587.382    1847.5226 
  242300     297.5273   -1170.4776    6323.7395    11509.476    1934.4202 
  242400    299.28948   -1163.5294    6471.2742    11701.605     1972.809 
  242500    298.05129   -1165.3128    6398.5012    11600.597    1878.6864 
  242600    298.28365   -1159.1543     6453.566    11666.784    1947.1625 
  242700    298.85189   -1158.7868    6423.6342    11649.359    1905.6824 
  242800     305.3431   -1159.5449    6414.2866    11777.928    1895.2104 
  242900    293.39779    -1161.416    6414.2966    11520.874     1939.203 
  243000    302.57377     -1163.48    6369.2617    11669.806    1883.2669 
  243100    301.44434   -1162.6794    6435.0298    11712.246    1834.8767 
  243200    300.70233   -1157.6214     6487.495    11753.917    1865.6263 
  243300    295.83029   -1160.3039    6418.3928    11578.049    1791.0176 
  243400     304.1844   -1162.0202    6396.5524    11732.965    1805.7263 
  243500    299.27778   -1164.9081    6363.5764    11592.279    1836.4922 
  243600    306.54827   -1157.5919    6449.9958    11841.337    1941.1581 
  243700     297.2498   -1149.9425    6448.7159    11649.059    1881.9615 
  243800    303.40813   -1149.5254     6567.689    11900.013    2026.1957 
  243900    298.17367   -1157.4091     6420.848    11633.462    1946.0957 
  244000    295.83922   -1157.0027    6304.4415     11467.59    1863.7887 
  244100    301.78964   -1157.0728    6443.6822    11733.882    1917.6811 
  244200    296.10845   -1162.4895    6478.7207    11642.134     1897.633 
  244300    299.34666   -1166.9193    6588.6315    11816.794    1949.0229 
  244400    298.64977   -1167.7166    6485.8515    11698.329    1891.8379 
  244500    308.25928   -1160.5045     6373.817    11798.799    1852.6489 
  244600    298.28441   -1159.1141    6341.0268    11554.301    1889.1582 
  244700    299.97431   -1157.3054    6397.9455    11649.131    1912.9489 
  244800     303.2973   -1156.1224    6528.8288    11852.188    1934.8655 
  244900    296.71027   -1162.4344    6371.6499    11547.975    1824.0822 
  245000    297.77699   -1163.7243    6351.0089    11548.833     1870.962 
  245100    301.81874   -1174.1017    6482.7986    11756.591    1922.3278 
  245200    300.36981   -1173.1052    6426.3087    11670.144    1905.4558 
  245300    297.78451   -1172.6427    6332.6237     11521.69    1832.5056 
  245400    300.57451   -1170.0025     6428.837    11680.148    1824.0062 
  245500    303.68001   -1170.7199    6529.9434    11846.881    1929.3904 
  245600    300.81037   -1164.4864    6367.0826    11628.948    1965.2759 
  245700    300.72251   -1163.2365    6299.0361    11560.275    1971.7429 
  245800     302.3704   -1161.6534    6463.3306    11761.357    1948.1632 
  245900    299.64243   -1161.4236    6430.9012    11670.878    1866.8147 
  246000    300.43377   -1161.1911    6496.1465    11753.262    1929.8273 
  246100    301.92305   -1168.7567    6390.2608    11671.627     1882.798 
  246200    297.62208   -1170.0804    6410.6875    11598.846    1826.6885 
  246300    299.77858   -1170.2029    6472.4437     11706.55    1895.7548 
  246400    301.35748   -1167.8125    6357.7388    11627.966    1880.1455 
  246500    300.76489    -1163.686    6430.9852     11692.68    1916.1895 
  246600    295.19972   -1158.7677    6446.1739    11593.895    1894.4645 
  246700    299.34917    -1157.038     6386.088    11624.186    1983.0093 
  246800     302.9231   -1156.8178    6348.0982    11662.767     1933.258 
  246900    297.59188   -1158.6087    6529.1006    11728.086    1945.0399 
  247000    302.12875   -1160.2521    6464.8593    11759.124    1945.9956 
  247100    295.94685   -1158.6216    6414.4221    11578.251    1834.5179 
  247200    299.83156   -1157.3209    6489.8657    11737.986    1832.0682 
  247300    299.86894   -1161.9544    6396.4586    11640.744    1836.4667 
  247400    301.86016   -1165.6071     6446.101    11729.273    1883.8354 
  247500    293.92233   -1161.4438    6553.8015    11671.557    1828.0053 
  247600    299.70981   -1163.5801    6446.8273    11686.087    1862.2573 
  247700    300.96968   -1160.9589    6337.4525    11606.249    1814.9113 
  247800    298.02581    -1163.465    6507.0355    11710.435    1882.8255 
  247900    303.07007   -1162.9291    6393.5386    11705.236    1924.6617 
  248000    298.35896    -1162.298    6398.7946    11610.478    1984.2839 
  248100    299.43165   -1164.7182    6397.1787    11629.358      1891.02 
  248200    294.06299    -1166.862    6498.3504    11613.693    1866.4527 
  248300    301.68729    -1173.421    6343.2331    11614.898    1878.3502 
  248400    297.80123   -1172.2083    6462.9957    11652.854    1943.3023 
  248500    301.27535    -1172.525    6395.1592     11658.92    1859.4237 
  248600    301.93534   -1169.9199    6414.7715    11695.237    1861.8573 
  248700    295.60673   -1169.9073    6469.5207    11614.798     1923.519 
  248800    303.47427   -1168.2592    6396.2953    11711.298    1885.6937 
  248900    298.99571   -1172.4465    6341.9857    11557.124    1888.8231 
  249000    296.62793   -1164.6917     6446.455    11618.764    1980.3835 
  249100    300.98936   -1169.5224    6338.6937    11599.347    1875.8703 
  249200    297.74619   -1161.7708    6402.0254    11601.145    1858.6118 
  249300    300.91407   -1168.0208    6424.0902    11684.637     1914.376 
  249400    300.45179   -1173.8013    6398.7865    11643.677    1866.9905 
  249500    301.53516   -1167.4471    6481.0445    11755.433    1846.2712 
  249600    298.36464   -1167.1974    6460.4353    11667.341    1854.8308 
  249700    298.41917   -1168.5661     6400.888     11607.59    1903.8268 
  249800    298.22149   -1162.2039    6277.1953    11486.036    1779.6008 
  249900    298.40548   -1157.8532    6507.2397    11724.362    1801.8446 
  250000    302.74632     -1154.91    6545.2462    11858.047    1846.6934 
  250100    297.05846   -1158.5823    6486.8323    11674.448    1920.5263 
  250200    302.80813   -1158.1086    6298.4268    11609.349    1913.7309 
  250300    299.71608   -1155.9644    6400.9623    11647.972    1941.6991 
  250400    299.82878   -1155.4137    6536.7361    11786.704    1903.0125 
  250500    302.68602   -1157.1188    6478.3578    11787.662    1891.5251 
  250600    300.13332   -1154.4963    6472.0661    11729.458    1888.7878 
  250700    301.64856   -1156.8671    6423.0467    11710.438    1928.6987 
  250800    298.26573   -1152.1312    6373.9833    11593.842    1880.4126 
  250900    304.79359    -1160.033    6494.5923    11846.007    1888.2778 
  251000    303.92415   -1154.1979    6426.3346     11765.01    1859.0837 
  251100    294.93003   -1153.4681    6488.7538    11636.013    1908.8354 
  251200    300.22353   -1158.1222    6308.6236    11564.317    1889.5421 
  251300    298.60892   -1161.8954    6428.4777    11645.904    1854.4736 
  251400    301.74716   -1160.2615     6516.467    11802.571    1898.6499 
  251500    300.20718    -1162.142    6411.3631    11662.687    1876.0515 
  251600    304.95602   -1163.7705    6446.4931     11797.64    1842.1491 
  251700    291.60334    -1165.433    6457.4959    11521.721    1883.8073 
  251800    299.40677    -1167.915    6361.9698    11590.421    1873.9109 
  251900    300.54497   -1169.2272    6357.4782    11608.933    1788.6885 
  252000    299.19206   -1169.4451    6510.2277    11732.562     1854.781 
  252100    303.34434   -1167.8373    6424.8394    11737.489    1878.3398 
  252200    298.32879   -1165.0691    6345.5055    11553.773    1879.9443 
  252300    301.60662   -1169.6593    6422.3302    11696.034    1932.9222 
  252400     298.4859    -1160.151    6394.0584    11610.601    1935.6297 
  252500    299.54601   -1169.9959    6289.9758    11519.321    1902.3813 
  252600    304.68178   -1168.8942    6555.4464    11895.611    1999.6725 
  252700    299.39057   -1169.0783     6370.922    11597.864    1880.6825 
  252800     299.1169   -1174.9523    6440.4816    11655.703    1928.6685 
  252900    297.43945   -1170.6129    6438.4822    11622.207    1846.4703 
  253000    300.77493   -1166.7322    6453.2109    11712.074    1817.3192 
  253100    300.23423   -1170.1692    6374.5463    11618.421    1839.1636 
  253200    302.90768   -1164.5847    6451.8988    11758.472    1955.6997 
  253300    294.32568   -1166.3326    6458.3374    11579.821    1924.1158 
  253400    299.19069    -1164.782    6335.8248    11562.793     1863.393 
  253500     298.0247    -1162.449    6432.6086        11637    1919.1649 
  253600    302.72832   -1163.9356    6487.3367    11790.727    1970.8383 
  253700    300.14837   -1159.4701    6371.4302    11624.169    1925.1999 
  253800    297.65175    -1160.347    6412.7732    11611.299    1980.3714 
  253900    299.89723   -1161.9579    6386.9125    11631.799    1921.2036 
  254000     300.4627   -1159.1958    6551.9245    11811.653    1873.1479 
  254100     302.3767    -1160.336    6510.5695    11810.048    1895.2668 
  254200    299.85206   -1166.1406    6370.2173    11609.956     1906.692 
  254300    304.87328   -1159.8538    6417.2491    11770.545     1956.252 
  254400    297.88093   -1161.4988    6327.9207    11530.191    1873.9469 
  254500    299.24412   -1162.4025    6457.3642    11687.853    1973.0136 
  254600    303.53189   -1154.0784    6419.2114    11749.626    1896.0823 
  254700    303.45559   -1164.8827    6449.8336    11767.814    1953.5321 
  254800     298.9198   -1164.9213    6380.8851    11601.927    1967.4423 
  254900    301.24326    -1153.687    6424.4515    11706.365    1974.1703 
  255000    296.08929   -1162.5739    6470.4541    11633.374     1946.755 
  255100    299.51304   -1166.0542    6489.3849    11721.967    2005.3149 
  255200    303.68235    -1167.643    6455.8658     11775.93    1969.5306 
  255300    304.88541    -1171.009    6412.5541    11754.954    1873.9947 
  255400    300.18057   -1174.0175    6427.6426    11666.522    1955.1977 
  255500    297.10091   -1177.0518     6421.927     11591.98    1938.2291 
  255600    299.31828   -1165.2586    6366.6626     11595.88    1885.7008 
  255700    296.93594    -1169.602    6388.8949    11562.874    1891.9617 
  255800    305.18524   -1159.4262     6496.701    11857.089    1936.4241 
  255900    301.96484   -1164.9444    6435.5345    11721.605    1842.3189 
  256000    299.89777   -1170.7032    6323.6975     11559.85    1841.1953 
  256100    294.37307   -1171.4758    6441.4404    11558.793    1891.0519 
  256200    301.02046   -1170.1496    6537.2271    11797.918    1893.2276 
  256300    301.49122   -1168.8863    6414.1677    11686.179    1809.6108 
  256400    301.16476   -1166.2824    6492.3984    11760.039    1891.6509 
  256500    298.04468   -1165.4386    6358.0567    11559.885    1900.8482 
  256600    300.37005   -1161.0336    6343.9883      11599.9    1886.2927 
  256700    295.10956   -1163.0285    6429.2914    11570.826    1872.3859 
  256800    298.73573   -1157.5175    6423.5668     11648.08    1855.7453 
  256900    305.55293   -1160.6068    6530.7462    11897.809    1953.0008 
  257000    299.56979   -1167.1928    6362.0335     11594.69    1889.0633 
  257100    303.68174   -1162.8678    6491.8835     11816.71    1920.0521 
  257200    304.32703   -1161.2417    6462.8157    11803.054    1837.2304 
  257300     302.2606   -1161.8331    6416.9335    11712.434    1845.0113 
  257400    295.76597   -1160.9896    6411.8048    11569.401    1869.6011 
  257500    301.44697   -1157.9641    6471.5642    11753.552    1922.3669 
  257600     302.4602   -1155.1492    6372.4533    11678.902    1884.5893 
  257700    299.72235    -1150.727    6400.4599    11652.841    1899.4914 
  257800    299.17457   -1160.8093    6398.8382    11629.434    1934.3688 
  257900    304.93765   -1162.2741    6476.8318    11829.083    1956.1038 
  258000    298.72211   -1162.7256    6525.7692    11744.783    1912.2048 
  258100    302.21054   -1168.6606    6407.0072    11694.611    1842.3048 
  258200    299.39663    -1165.158    6416.0288    11647.021    1861.6694 
  258300      305.801   -1165.4274    6414.6933    11782.235    1909.1714 
  258400    299.95626    -1165.066    6438.5451    11681.584    1925.9902 
  258500    296.56256   -1163.7724    6472.8192    11644.651     1969.844 
  258600    304.18408   -1163.0069    6383.2108     11718.63    1958.1412 
  258700    300.18984   -1163.1285    6418.8796    11668.846    1936.6857 
  258800    298.02063   -1166.1266    6449.5508    11650.178    1878.2708 
  258900     304.1942   -1169.2854     6382.018    11711.375    1882.7274 
  259000    302.38763   -1170.4199    6493.8458    11783.474    1919.3537 
  259100    299.51504   -1165.3182    6331.2448    11564.606     1839.087 
  259200    298.95549   -1175.1835    6395.3564    11606.898    1882.7579 
  259300    300.34604   -1173.0557    6495.7712    11739.148    1953.1559 
  259400    295.96899   -1161.3638    6427.9298     11589.49    1930.5009 
  259500    304.09776   -1162.2656    6504.3838      11838.7    1935.3668 
  259600     296.2549   -1163.9557    6392.6742     11557.75     1903.139 
  259700    301.36206   -1167.3532    6340.2981    11611.083    1880.2289 
  259800    302.19864   -1166.3979    6350.7781     11640.39    1861.9712 
  259900    300.42019   -1171.0205    6372.9516    11619.948    1864.8968 
  260000    302.84319   -1166.8827    6513.0995    11815.997     1957.715 
  260100    292.34891   -1167.4756    6439.1056    11517.216    1866.2837 
  260200     300.2511    -1163.824    6352.8782    11603.458    1880.8237 
  260300     299.4168   -1160.4328    6385.6707    11621.818    1925.8513 
  260400    300.67699   -1157.6161    6414.8925    11680.779    1933.0935 
  260500    300.52554   -1158.1568    6503.6964    11765.807    1892.7256 
  260600    299.07355   -1157.3435    6416.6639    11648.568    1871.1665 
  260700    304.97742   -1163.5744    6317.8388    11669.639    1926.4208 
  260800    297.59927   -1161.7934    6402.3504    11598.309    1870.1136 
  260900    301.49803   -1164.4912    6410.3069    11686.859    1892.8401 
  261000    298.21284   -1161.1202    6495.1865    11704.926    1917.3216 
  261100    298.38847   -1162.3896    6303.2552    11515.477    1777.3022 
  261200    303.92098   -1159.4461    6514.8192    11848.178    1901.9458 
  261300     296.9349   -1158.5477    6413.3673    11598.378    1910.8877 
  261400    298.35824   -1163.2628    6430.5349    11641.238    1892.0083 
  261500    297.85051    -1159.539     6401.906    11605.486    1856.4299 
  261600    302.67108   -1168.3674    6411.1412    11708.877    1881.1585 
  261700    297.64984   -1164.3607    6505.9079    11700.379    1915.3925 
  261800    303.32748   -1166.9781    6384.7975    11697.946    1866.3599 
  261900    301.86023   -1173.0887    6402.3184     11678.01    1873.4176 
  262000    298.01184   -1169.6408    6476.5205    11673.445    1937.7739 
  262100    303.00243   -1171.2611    6381.7052    11683.626    1875.3302 
  262200    297.67386   -1165.1574    6447.1807    11641.368    1894.6785 
  262300    295.79077   -1164.0616    6437.1874    11592.242     1897.225 
  262400    303.17639   -1165.0036    6308.7546    11620.649    1890.0741 
  262500    297.79291   -1159.0616    6520.0969    11722.924    1976.0419 
  262600    300.25687    -1166.509    6408.4444    11656.463    1866.8617 
  262700     302.9655   -1168.0031     6403.086    11707.476    1914.9986 
  262800    295.23449   -1169.8328    6499.7597    11637.159    1870.7496 
  262900    300.96451    -1167.729    6356.5003    11618.416     1811.785 
  263000    301.77799    -1159.569    6448.8306    11736.285    1957.4197 
  263100    299.75924   -1160.0272    6455.5826    11699.452    1970.0921 
  263200    299.49246   -1157.7802    6434.2025    11674.619    1930.3391 
  263300     299.8746   -1158.0697    6402.8889     11651.18    1882.8313 
  263400    296.38062   -1161.6267    6501.6224    11671.713    1874.0803 
  263500    300.73056   -1164.4117    6397.3109    11657.546     1828.299 
  263600    300.09044   -1165.0073    6319.2981    11565.263    1888.7885 
  263700    298.89768   -1161.7777    6445.2084    11668.921    1865.6718 
  263800    303.01026   -1155.6367    6524.4153    11842.128     1828.783 
  263900    295.68975   -1164.2581    6465.6085    11618.308    1794.1007 
  264000    299.78477   -1157.4561    6422.8162    11669.802    1819.7787 
  264100    298.04916   -1156.0335    6427.4254    11638.755    1896.3988 
  264200    303.78643   -1157.6382    6292.7699    11625.063    1841.0107 
  264300    298.21242   -1163.2856     6460.632    11668.197    1868.5606 
  264400     298.3826   -1158.1545    6425.6476     11641.98    1900.5443 
  264500    301.99849   -1160.5894    6430.0226    11721.167    1906.0996 
  264600    299.98507    -1167.782     6492.386    11733.325    1977.7465 
  264700    297.41747   -1160.2918     6405.315    11598.891    1913.4539 
  264800    301.68088   -1167.2452    6380.5805    11658.285    1907.2436 
  264900    296.68884   -1161.1539     6437.413    11614.561    1933.3171 
  265000    301.40793    -1163.337    6393.9864    11669.767    1861.9401 
  265100    299.32801    -1165.182    6491.5931    11721.095    1893.4948 
  265200    299.77661   -1166.3516    6448.4481    11686.364    1867.3967 
  265300    301.94899   -1168.0612    6432.3669    11714.983    1896.5061 
  265400    293.31162   -1163.0629    6402.9298     11506.02    1905.7907 
  265500     304.0385   -1170.5666    6304.0277    11628.777    1943.4785 
  265600    296.35713   -1169.8298    6349.3883    11510.774    1934.5863 
  265700    303.51429   -1162.7447    6486.7652    11808.138    1869.5718 
  265800     295.5907   -1167.5614    6454.5336    11601.814    1844.4049 
  265900    300.92836   -1166.5669    6340.4555    11602.761    1884.9287 
  266000    297.16308   -1176.9536    6333.4295    11504.909    1914.8103 
  266100     301.4524   -1169.4723    6437.3887    11707.984    1862.7005 
  266200    299.67074   -1170.1746    6568.1309    11799.962    1925.5408 
  266300    300.47628    -1163.947    6411.1024     11666.37    1914.2295 
  266400    301.55716   -1167.6952    6367.7166    11642.328    1849.9853 
  266500    298.09363   -1163.9008    6399.5882        11604    1906.0065 
  266600     302.9186   -1161.5216    6521.8216    11831.691     1956.869 
  266700    302.40111   -1160.2775    6578.9606    11879.019     1875.439 
  266800    300.64711   -1165.5586    6366.7284    11624.034    1817.6679 
  266900    301.61354   -1169.9565    6328.1266    11601.681    1925.9458 
  267000    298.38771   -1165.4162     6409.338    11618.517    1907.2347 
  267100    296.50927   -1160.6688    6510.9298    11684.727    1924.3855 
  267200    300.98965   -1155.9436    6433.4912     11707.73    1926.2546 
  267300    303.72567   -1157.6376     6451.074    11782.069    1908.1032 
  267400        302.7    -1158.169    6356.7736    11665.326    1835.5741 
  267500     297.8303   -1164.2434    6399.1237    11597.568    1881.5153 
  267600    301.46555   -1165.9706    6475.2759    11749.654    1881.5026 
  267700    303.54103   -1167.4755    6385.1929    11702.406    1775.6538 
  267800    299.20064   -1164.4601    6554.9609    11782.463    1869.9369 
  267900      298.182   -1162.6939    6376.0601    11583.567    1817.2359 
  268000     300.5261    -1165.959    6348.2831    11602.603    1913.3381 
  268100    295.98834   -1163.8047    6354.7052    11514.237    1860.1917 
  268200    303.79799   -1164.7902    6515.8749    11841.263    1916.7886 
  268300    299.38439    -1160.288    6489.1244    11724.725    1858.6247 
  268400    302.69978   -1169.9849    6370.7026    11667.434    1851.3807 
  268500    295.37248   -1169.9226    6350.0664    11490.324    1888.6678 
  268600    296.44292   -1168.5566    6409.8595    11574.351    1909.1937 
  268700    299.52523   -1175.9968    6382.0406    11604.941    1809.8328 
  268800    300.49902   -1177.3897    6434.2216    11676.532    1867.2035 
  268900    297.80164   -1175.4479    6420.1271    11606.754    1908.9484 
  269000    299.76266    -1167.548    6435.5084     11671.93    1982.3919 
  269100    293.82159   -1168.7101    6367.7077    11476.045     1888.253 
  269200    298.95108   -1162.0875    6382.8034    11607.347    1882.1596 
  269300    298.12371    -1160.226    6482.1419    11690.872    1901.9537 
  269400    299.41541   -1165.0519    6406.6704    11638.169    1894.9176 
  269500    299.55327   -1174.4672    6350.2666    11575.295    1942.3759 
  269600    302.09393   -1171.4854    6536.1812    11818.469    1967.0265 
  269700    298.60484   -1170.4543    6422.4282    11631.208    1866.0856 
  269800    298.11215   -1173.1084    6414.4959    11610.096    1902.8721 
  269900     305.4302   -1170.7801    6465.7673    11820.035    1921.3942 
  270000    300.11174   -1161.0632    6498.1141    11748.478    1944.6197 
  270100    304.57259   -1161.5512    6441.0515    11786.226    1964.2592 
  270200    304.89549   -1162.2586     6437.032    11788.398    1955.0009 
  270300    297.50273    -1160.085    6373.2081    11568.812    1877.9553 
  270400    299.00337   -1160.9646    6371.8512    11598.635    1919.1107 
  270500    301.16228   -1160.0212    6451.2905    11725.139    1915.5338 
  270600    301.31448   -1170.8449    6463.7608    11730.038    1887.8584 
  270700    298.59423   -1164.4768    6485.1341    11699.665    1907.1353 
  270800    305.34857   -1166.3093     6468.455    11825.449    1930.6342 
  270900    297.61409   -1163.2693    6416.9939    11611.793    1894.3118 
  271000    305.33111   -1161.4222    6428.5697    11790.078    2001.8155 
  271100     301.8032   -1155.3232    6440.8435    11733.083    1967.3245 
  271200     298.7819   -1158.5694    6402.2762    11626.724    1882.1896 
  271300    302.78082   -1164.9226    6271.8685    11575.394     1850.793 
  271400     299.1465   -1166.6324    6387.3726    11611.546    1905.8482 
  271500    299.18593   -1169.0368     6494.571    11717.183    1868.9217 
  271600    295.40772   -1169.8157    6579.3263    11720.443    1890.1174 
  271700    303.95268   -1170.9583    6301.9256     11624.45    1845.6043 
  271800    296.11333   -1168.9714    6328.6169    11485.652    1835.8482 
  271900    301.20237   -1164.2078    6462.8713     11733.39    1912.0877 
  272000    299.91091   -1162.4769    6472.2221    11716.882    1886.2094 
  272100    298.13768   -1164.5222    6414.1746    11618.906    1913.6564 
  272200    303.32667   -1159.1032    6490.8773    11811.883     2058.389 
  272300    298.68918   -1162.5167    6369.2484    11587.768    1986.1478 
  272400    302.49111   -1167.6377    6395.0788    11689.699     2000.525 
  272500    302.51755   -1167.9987    6459.1578    11753.982    1952.6411 
  272600    297.05736   -1169.2113    6429.2162     11606.18    1932.1743 
  272700    296.98704   -1166.6881    6469.9322    11647.916    1952.0696 
  272800    302.99459   -1163.3333    6485.6473    11795.329    1930.0848 
  272900    299.97811   -1165.2493    6533.2613    11776.584    1965.8677 
  273000     304.4341   -1163.9732    6394.1853     11733.98    1898.4653 
  273100     301.8148   -1158.1603    6303.4277    11593.077    1831.1891 
  273200    299.05026   -1158.5594    6426.5919    11656.783    1979.1589 
  273300    301.99296   -1157.0633    6464.9651    11759.518    2027.2969 
  273400    299.00276   -1157.5641    6413.3463    11643.517    1945.3397 
  273500    302.30758   -1158.3601    6459.4087    11759.386    1948.4095 
  273600    300.27015   -1159.6782    6546.7569     11801.89    1961.6527 
  273700    297.71621   -1166.0036    6436.1081    11630.354    1855.9796 
  273800    299.81116   -1169.4196    6504.4153    11740.001    1884.0539 
  273900     304.6445   -1161.2829    6551.7764    11898.756    1949.6313 
  274000    295.28955   -1162.5207    6320.1933    11466.081    1826.7041 
  274100    298.00274   -1159.8065    6505.0029    11711.568     1987.242 
  274200     292.7206   -1150.7985    6460.6832    11563.411    1862.6058 
  274300     296.8627   -1158.8178    6480.2685    11663.467    1936.0513 
  274400    302.84483   -1159.1376    6364.2094    11674.887    1930.3705 
  274500    301.10098   -1161.1817    6324.0765    11595.455     1818.458 
  274600    304.15209   -1166.5278    6422.6781    11753.893    1891.4929 
  274700    295.14537   -1168.8768    6561.4144    11697.866    1883.9385 
  274800    298.95658   -1173.0886    6515.4299     11729.09    1839.2998 
  274900    299.25452    -1176.558    6349.4567    11566.012    1816.6777 
  275000    299.07971   -1170.3083    6329.4395     11548.51    1899.7478 
  275100    300.26644   -1161.4445    6368.8615    11622.149    1913.8069 
  275200     297.6126   -1163.4227    6469.2169    11663.831    1915.4482 
  275300    299.78845   -1161.5811    6452.5263    11695.465    1899.0579 
  275400    300.87852   -1162.4685    6411.1286    11676.468    1887.8095 
  275500    299.95676   -1170.4571    6380.1029    11617.762    1901.2411 
  275600    301.23917   -1174.3277     6456.185     11717.37    1895.6574 
  275700    299.37976   -1172.3796    6432.5638    11655.973    1849.7127 
  275800     298.1352   -1170.9217     6507.308    11705.587    1842.2819 
  275900    302.36092    -1168.491    6379.6888    11670.675    1821.1867 
  276000    297.80691   -1166.6084    6372.3785    11567.958    1858.7561 
  276100    298.06509   -1155.2953    6404.2099    11616.618    1860.4935 
  276200    303.57807   -1157.7464     6376.139    11703.872     1877.446 
  276300    299.02675   -1158.3828    6464.9218    11694.787    1945.4804 
  276400    298.58547    -1159.347    6464.0265      11683.5      1869.69 
  276500    302.06434   -1163.5817    6358.5553    11648.115    1914.7981 
  276600    297.59745   -1162.6488    6496.0433    11691.107    2002.1732 
  276700    299.36414   -1160.4093    6496.8526    11731.899    1911.2591 
  276800    298.48374   -1160.2606    6360.0889    11576.475    1831.7272 
  276900    300.95714   -1160.6188    6469.8857    11738.754     1946.038 
  277000    302.73569   -1158.8421    6469.0707    11777.712    1881.2025 
  277100    300.49924   -1155.7479    6493.4296    11757.387    1844.2243 
  277200    299.56497   -1155.2384    6383.1504    11627.658     1905.231 
  277300    293.79353   -1159.1438    6364.2802    11481.584    1848.0999 
  277400    304.33602   -1155.9441    6419.8245    11765.553    1796.8378 
  277500    303.83411   -1157.8071    6573.9464    11907.089    1905.6078 
  277600    296.93993   -1158.7371    6361.0088    11545.938    1824.1671 
  277700    297.52802   -1160.1962    6431.9756    11628.009    1874.7111 
  277800    302.77344   -1160.0942    6420.1968    11728.392     1913.235 
  277900    302.72384   -1172.2231     6427.763     11722.77    1936.6513 
  278000     295.7501   -1170.3676    6413.5774    11561.457     1928.565 
  278100    295.97483   -1167.1578    6468.4921    11624.382    1903.0523 
  278200    299.66401   -1163.8808    6489.7406    11727.721    1978.5107 
  278300    295.01343   -1168.3681    6382.1044    11516.246    1924.5803 
  278400     303.2496   -1168.9161    6370.3577    11679.904    1964.2034 
  278500    302.79294   -1165.0019    6354.4562    11658.161    1888.3055 
  278600      295.823   -1160.6957    6453.3752    11612.484    1881.0095 
  278700    304.80437   -1166.8306     6480.701    11825.548    1848.8217 
  278800     300.1493   -1172.2035    6443.2633    11683.289    1912.3119 
  278900    298.14623   -1170.6586    6251.9498    11450.728    1851.3335 
  279000    299.42607   -1168.7352    6514.5149    11742.558     1884.167 
  279100    305.80603   -1169.3003    6490.8855    11854.662    1945.8207 
  279200    298.07067   -1164.7345    6393.7999    11596.888    1880.1739 
  279300     298.5795    -1157.895    6448.8034    11669.601    1937.6827 
  279400    299.15699   -1163.7916    6443.1941    11670.433    1983.0095 
  279500    301.54999   -1158.6401    6333.8898    11617.403    1917.4231 
  279600    299.52583   -1157.0501    6453.1929    11695.053    1888.5216 
  279700    301.23951   -1160.5407    6447.0045    11721.984    1850.6018 
  279800    298.59725   -1164.5742    6447.1662    11661.664    1848.6545 
  279900     298.7739   -1159.5657    6501.7009    11724.981    1864.4701 
  280000    301.16244   -1155.3756    6428.3808    11706.879    1890.8345 
  280100    297.06382   -1162.4471    6335.2623    11519.128    1817.7083 
  280200    301.34127   -1156.0059    6493.7422     11775.43    1887.2102 
  280300    294.76364   -1153.1115    6468.0141    11612.075    1851.1066 
  280400    299.67121   -1152.1329    6379.3839    11629.267    1833.3038 
  280500    299.62527   -1154.7217     6414.393    11660.706    1915.8714 
  280600    298.59145   -1155.3285    6377.5768    11601.197    1976.1713 
  280700    304.18898   -1151.8042    6438.5436     11785.27    1949.0821 
  280800    300.28218   -1155.0526    6436.4903    11696.506    1928.8618 
  280900    301.94118   -1162.6747    6423.1348     11710.97    1847.1161 
  281000    296.60628   -1161.0752     6469.619    11645.082    1854.5781 
  281100    300.26009   -1159.1899     6461.241    11716.647    1891.1055 
  281200    300.07891     -1164.47    6373.1016    11619.357    1862.1752 
  281300    295.17929   -1159.5412    6494.4804    11640.992    1854.9599 
  281400    298.11019   -1161.0976    6388.4622    11596.031    1820.7799 
  281500    297.83132    -1158.602     6278.246    11482.353    1841.9082 
  281600    298.59808   -1162.7753    6427.4006    11643.715     1876.659 
  281700    299.48789   -1163.5496    6497.7795    11732.329    1939.7705 
  281800    297.24508   -1165.1415    6384.2483    11569.292    1842.9243 
  281900    303.80871   -1168.3265    6471.1949    11793.275    1858.1921 
  282000    298.85292   -1168.2754    6453.8531    11670.112    1858.4251 
  282100     299.4659   -1170.6536    6339.2489    11566.225    1825.6951 
  282200    299.09624   -1171.7471    6378.2913    11596.276    1870.9473 
  282300    300.90694   -1166.4764    6450.8134    11712.752    1871.8644 
  282400     300.6359   -1167.8244    6400.9988    11655.799    1878.5367 
  282500    298.84698   -1165.5737    6420.7263     11639.56    1905.5624 
  282600    296.95757   -1162.5458    6432.7129     11614.21     1930.533 
  282700     295.6212   -1162.6299    6330.4261     11483.29    1921.6687 
  282800    303.57758   -1163.9292    6455.7494    11777.289     2032.405 
  282900    298.29071   -1158.2727     6438.429     11652.68    1945.8934 
  283000    297.81736   -1162.4326    6387.0236    11587.002    1865.2325 
  283100    298.25969   -1160.0386      6456.34    11668.162     1921.287 
  283200    301.34231   -1159.3581     6376.854    11655.212    1853.8484 
  283300    297.71872   -1162.8773    6485.6887    11683.115     1931.665 
  283400    309.04799   -1159.1714    6393.4175    11836.582    1875.4706 
  283500    299.32836   -1162.2966    6441.8266    11674.221    1908.1491 
  283600    298.19716   -1157.6688      6447.61    11660.466    1849.8252 
  283700    306.05426   -1158.7989    6466.3308    11845.912    1908.1973 
  283800    297.29673   -1154.3783    6529.0947    11726.005    1899.8963 
  283900    299.46592   -1155.7389     6262.387    11504.278     1794.156 
  284000    301.67614   -1162.7957    6432.2688    11714.321    1878.7244 
  284100    295.25361    -1159.678    6531.9565    11679.919    1885.2449 
  284200    303.82559   -1167.1764    6370.3843    11693.975    1813.4484 
  284300    299.77189   -1157.6767    6475.2604     11721.75    1851.9537 
  284400    299.53685   -1164.1168    6478.8938    11713.922    1939.4402 
  284500     303.2852   -1161.3626    6337.2817    11655.142    1861.7521 
  284600    299.20199   -1160.0667    6344.7883    11576.713    1884.7605 
  284700    301.36161   -1163.4605    6455.0433    11729.711    1943.1139 
  284800    301.52922   -1163.9044    6469.2256     11747.03    1874.6385 
  284900    299.83737    -1170.401    6457.9932    11693.158    1882.3628 
  285000    301.07068   -1170.0311    6385.2899    11647.172    1948.5745 
  285100    297.74489   -1170.2355    6510.7689    11701.396    2001.9791 
  285200    299.47694    -1160.604    6409.9217    11647.183    1903.9955 
  285300    296.30478   -1164.8839     6311.268    11476.481    1901.9341 
  285400     301.6852   -1170.1411    6406.2295     11681.13    1946.4037 
  285500    294.66293    -1162.152    6415.9407     11548.81    1822.7135 
  285600    303.69619   -1167.7381     6450.389    11770.654    1891.7783 
  285700    295.14536   -1169.9374    6384.7114    11520.102    1868.7538 
  285800    300.07529   -1171.0575    6401.6732    11641.264    1824.2144 
  285900    296.25434   -1163.7451    6452.5565    11617.831    1878.9259 
  286000    304.73864   -1167.7867    6459.5208    11802.008    1922.7142 
  286100    299.72603   -1162.2045    6358.7546    11599.737    1819.7192 
  286200     304.6514   -1165.3356    6365.7364     11708.81    1858.2154 
  286300     299.6103   -1162.0114    6472.6252    11711.328    1980.3907 
  286400    300.83968   -1160.0464    6385.1426    11652.074    1941.2438 
  286500     296.0808   -1158.5178    6441.2147    11608.009    1931.6863 
  286600    304.74914   -1149.1338    6409.6985    11771.062    1890.8671 
  286700    294.60061   -1153.6508    6533.2925    11673.332    1921.1032 
  286800     303.5349   -1158.7177    6361.0165    11686.856    1901.3365 
  286900    299.48865   -1154.2637    6396.3578     11640.21    1911.0837 
  287000    297.15867   -1159.4616    6394.7537    11583.631    1899.0532 
  287100     299.9999   -1158.6965    6503.6569    11753.998     1849.409 
  287200    296.56686   -1157.1031    6609.5773     11788.17    1974.6958 
  287300    302.39966   -1158.3245    6365.2115    11667.192    1924.7938 
  287400     300.5118     -1159.37    6263.9771    11524.581    1893.3782 
  287500    295.99977    -1155.063    6500.8037    11669.322    1876.3607 
  287600    302.81791   -1148.4521    6549.8522     11870.64    1901.6666 
  287700     297.8177   -1156.6136    6365.3798    11571.184    1888.0125 
  287800    296.24088   -1156.1817    6468.2993    11640.849    1969.3974 
  287900    301.74671   -1158.8946    6258.1994     11545.66    1883.8793 
  288000    303.16509   -1156.9177    6468.4359    11788.175    1915.4567 
  288100    303.32251   -1159.0581     6553.919    11874.881    1900.7559 
  288200    298.72398   -1164.7659    6386.5696    11603.583    1853.6872 
  288300    304.68014    -1167.512    6477.1659    11818.678    1991.6951 
  288400    299.91875   -1160.6883    6424.1417    11670.757    1934.8102 
  288500    302.37394    -1165.685    6322.4333    11616.504    1852.2117 
  288600    300.35906   -1162.3632      6445.81    11700.157    1949.7414 
  288700    298.86937   -1159.9586    6461.4858    11686.413    1940.6294 
  288800    303.92885   -1161.0365    6436.9952    11768.932    1942.3307 
  288900    304.02206   -1166.3596    6428.0514    11756.657    1916.6809 
  289000    297.60009   -1162.4607    6457.7629    11653.072    1868.2779 
  289100    303.04149   -1168.8673     6419.688    11724.837    1838.7656 
  289200    302.97262   -1171.0372    6299.8171    11601.325    1821.5702 
  289300    297.06831   -1165.9009     6481.063    11661.571    1894.7931 
  289400    299.49329   -1167.9263    6449.8741    11680.162    1854.6628 
  289500     304.9312   -1163.6576    6390.1896    11740.919    1848.7284 
  289600    296.81788   -1163.2678    6373.0511    11550.842    1825.3087 
  289700    300.62145   -1157.9015    6426.5059     11690.92    1812.6954 
  289800    299.02818   -1157.8633    6400.2164    11630.631    1834.2932 
  289900    300.44286   -1160.4403    6348.7981    11606.858    1860.1145 
  290000    299.85648   -1160.9813    6585.4277     11830.42    1961.6069 
  290100    299.69935   -1165.2019    6483.8921    11721.307    1848.6842 
  290200    295.79273   -1157.0307    6451.0192    11613.146    1865.3216 
  290300    296.37768   -1161.0499    6425.0718    11595.676    1885.3238 
  290400    303.46101   -1154.2388    6446.2213    11774.961    1924.3535 
  290500    298.74553   -1154.1203    6429.6726    11657.792    1897.0175 
  290600    301.91761   -1153.3071    6377.2354    11673.935    1951.5648 
  290700     295.2848   -1155.4279    6284.5967    11437.475    1878.3074 
  290800    301.07572   -1154.6344    6544.0839     11821.47    1878.5325 
  290900    298.84197   -1154.2878    6440.3505    11670.363    1789.8869 
  291000    298.86712   -1159.9004    6353.1033     11578.04     1915.138 
  291100    302.46182   -1165.9673    6347.7407    11643.406    1901.3994 
  291200    301.28703   -1156.6193    6485.2973    11765.213    1844.7768 
  291300    301.51659   -1159.2299    6510.5041    11792.714    1878.2198 
  291400    302.97105   -1165.9012    6383.3244    11689.935    1890.7287 
  291500    295.55814   -1159.4949    6433.7707    11588.422     1884.745 
  291600    298.23849   -1161.5832     6404.102    11613.927    1843.1013 
  291700    304.89831   -1164.4891    6472.4737    11821.669    1879.8964 
  291800    298.45683   -1161.5085     6368.518    11583.082    1816.4042 
  291900    307.67769   -1163.7299    6468.6187    11877.951    1910.4485 
  292000    297.73758   -1157.9155     6460.578    11663.369    1842.6553 
  292100     305.9355   -1165.6354    6445.1229     11815.33    1885.6017 
  292200     299.6904   -1170.6835    6359.1352    11590.877    1853.0779 
  292300    300.71465   -1163.5468    6452.7478    11713.508    1893.8855 
  292400    301.51567   -1164.7208    6410.5451    11687.244    1851.9586 
  292500    303.29812   -1167.6743    6454.4359    11766.261    1850.1985 
  292600    295.74954   -1167.6286    6448.6901    11599.297    1890.8245 
  292700    302.34585   -1158.9719    6403.8875    11704.071     1875.618 
  292800     300.5495   -1162.3638    6341.3993    11599.814    1888.1717 
  292900    292.70113   -1157.7048    6455.4835    11550.889    1859.2146 
  293000     303.6401   -1159.7633    6412.7825    11739.824    1848.2192 
  293100    296.17405   -1157.1036    6332.2826    11502.483    1830.1723 
  293200    302.12727   -1156.6411    6433.3861    11731.231    1796.9072 
  293300    300.08007    -1159.635    6534.2122    11785.327    1937.6368 
  293400    301.90398   -1160.4126    6321.5683    11610.871    1874.2419 
  293500    303.68324   -1161.2856    6477.9445    11804.385    1945.3646 
  293600    298.46941   -1151.5769    6496.4622    11721.226    1887.1906 
  293700    305.17166   -1151.9841      6384.47     11752.01    1865.7679 
  293800    295.74067   -1157.8816    6448.4234    11608.587      1824.31 
  293900    303.72754   -1159.3821    6429.3128    11758.604    1854.1722 
  294000    295.55164   -1154.1014    6349.4358    11509.342    1772.0765 
  294100    304.73291   -1158.1444     6526.045    11878.052     1842.529 
  294200    301.61224     -1155.71    6480.4661    11768.239    1869.2881 
  294300    296.60021   -1155.1907    6390.8285    11572.046    1849.0308 
  294400    301.59438   -1155.7098    6408.0799    11695.471    1899.0373 
  294500    299.74904    -1153.426     6375.903    11626.155    1911.9062 
  294600    299.03532   -1156.0242    6436.7691    11669.176    1929.2166 
  294700      302.098   -1158.3809    6488.8326    11784.312    1786.9741 
  294800    301.93429   -1164.8395    6479.2102    11764.733    1781.4217 
  294900    295.97503    -1165.172      6415.25     11573.13    1824.2185 
  295000    298.35776   -1162.3583    6328.1253    11539.723    1780.7823 
  295100    302.48507   -1164.5871    6421.5361    11719.079    1861.0416 
  295200    297.47369   -1163.4895    6452.5463    11644.126    1935.7001 
  295300    301.64933   -1166.4245    6253.6924    11531.543    1791.1648 
  295400    299.56001   -1159.9616    6455.5456    11695.224    1886.7428 
  295500    301.34714   -1165.0904    6449.5206     11722.25    1884.3047 
  295600    303.15168     -1167.52    6399.5339    11708.384    1911.6284 
  295700    297.49644   -1164.2804    6390.8494    11582.124    1835.6914 
  295800    305.45505   -1164.9195    6517.2824    11877.941    1966.4671 
  295900    299.12214   -1168.9124    6354.4489    11575.822    1816.7942 
  296000    299.41065   -1164.9911    6440.0231    11671.481    1861.2074 
  296100    299.45929   -1159.9444     6434.787    11672.331    1834.9736 
  296200    300.69164   -1156.7522    6382.7836    11649.847    1869.1429 
  296300    301.48114   -1162.4036    6400.7365    11679.015    1865.3588 
  296400    295.66709   -1159.2153    6387.0631    11544.321    1800.0427 
  296500    297.98732   -1160.4645    6415.9624     11621.54    1877.3747 
  296600    301.04677   -1161.5512    6408.5805    11678.432    1868.6041 
  296700    303.26926   -1157.6028    6512.3338    11833.613    1925.4341 
  296800     300.7916    -1153.364    6502.6045    11775.191    1869.7342 
  296900    296.88949   -1162.0458    6451.9518    11632.494    1844.1051 
  297000    301.12561   -1160.5742    6318.2874      11590.8    1858.8616 
  297100    298.09026   -1155.3484    6389.4333    11602.326    1887.5067 
  297200    303.35754   -1158.4081    6465.0248    11787.385    1907.3535 
  297300    298.94154   -1156.2962    6438.0205    11668.152    1850.4494 
  297400    304.80312   -1155.3917    6331.4697    11687.729    1847.3439 
  297500    298.60608   -1162.6544    6537.5615    11754.168    1973.0057 
  297600    301.11886   -1154.6116    6469.7748    11748.106    1951.9513 
  297700    300.46447   -1154.1834    6455.5649    11720.344    1910.2205 
  297800    304.38318   -1157.6446    6432.5483    11777.583     1876.898 
  297900    298.92836   -1157.4106    6451.2424    11679.978    1889.0377 
  298000    301.14341   -1160.3319     6378.571    11651.706     1841.461 
  298100      304.062   -1167.2153    6400.9191    11729.522    1838.0832 
  298200     296.1369   -1162.5885    6513.5371    11677.459     1908.378 
  298300    302.76944   -1164.3923    6471.5542    11775.366    1849.1574 
  298400    293.98527   -1163.5897    6458.9217    11575.876    1805.3692 
  298500    298.44718   -1172.7516    6267.4666    11470.581    1936.0731 
  298600     299.1453   -1161.5635    6370.7262    11599.943     1954.288 
  298700    300.52179   -1157.5323     6453.712    11716.367     1890.335 
  298800    300.22143   -1165.8715    6517.7242    11765.623    1924.2271 
  298900    303.05176   -1165.4048    6381.7182    11690.549    1878.6542 
  299000    299.37165   -1167.0367    6371.4331    11600.012    1804.0514 
  299100    297.10458   -1170.6361    6535.7027     11712.25    1907.7758 
  299200    300.52257   -1171.5379    6484.3611    11733.027    1895.7464 
  299300    297.56652   -1167.6846    6354.7712    11544.139    1820.3997 
  299400    303.55216   -1165.5367    6427.7911    11747.181    1916.5273 
  299500    299.37674   -1163.9271    6468.8978    11700.695    1930.2744 
  299600    301.55412   -1161.5864    6354.2345    11634.889    1805.7547 
  299700    297.76358   -1163.3543    6420.0157    11617.924    1847.2555 
  299800    304.43155   -1159.3649    6427.6994    11772.047    1885.0393 
  299900    297.20185   -1160.4229     6478.041     11666.88    1913.7977 
  300000    300.47526   -1154.6585    6314.7092    11579.243    1851.9576 
Loop time of 282.983 on 8 procs for 300000 steps with 7168 atoms

Pair  time (%) = 138.207 (48.8393)
Bond  time (%) = 81.0078 (28.6264)
Neigh time (%) = 19.5497 (6.90841)
Comm  time (%) = 29.4666 (10.4128)
Outpt time (%) = 0.456932 (0.16147)
Other time (%) = 14.2951 (5.05157)

Nlocal:    896 ave 905 max 889 min
Histogram: 1 1 1 1 1 1 0 0 1 1
Nghost:    2844 ave 2850 max 2831 min
Histogram: 1 0 0 0 1 0 2 1 1 2
Neighs:    23613.4 ave 23978 max 23268 min
Histogram: 1 0 1 2 1 0 0 2 0 1

Total # of neighbors = 188907
Ave neighs/atom = 26.3542
Ave special neighs/atom = 157.056
Neighbor list builds = 3050
Dangerous builds = 0
unfix           NVT
# −−−−−−−−−−−−−−− Equilibration in nve −−−−−−−−−−−−−−−−−
fix             NVE all nve
run             300000
Memory usage per processor = 11.5453 Mbytes
Step Temp E_pair E_mol TotEng Press 
  300000    300.47526   -1154.6585    6314.7092    11579.243    1851.9576 
  300100    298.04797   -1165.2072    6377.1472    11579.277    1848.7574 
  300200    295.70606    -1156.051    6418.0498    11579.305    1862.2376 
  300300     298.1965   -1160.8385    6369.5258    11579.198    1883.1375 
  300400    298.21132   -1158.6075    6366.9504     11579.17    1915.6794 
  300500    298.64777   -1157.6164    6356.5626    11579.098    1842.6814 
  300600    297.76714   -1160.0784    6377.8754    11579.135     1822.842 
  300700    296.41767   -1150.3165    6396.9447    11579.137    1887.9057 
  300800    297.79866   -1156.7534    6373.9475    11579.206    1918.2725 
  300900    300.89215   -1158.5784    6309.5295     11579.05    1869.9709 
  301000    297.51499   -1158.4427    6381.5968    11579.105    1865.8866 
  301100    296.01084   -1154.1565     6409.539      11579.2    1857.2292 
  301200     296.4556   -1160.0876    6405.9753    11579.207    1850.8328 
  301300    300.49162   -1161.1614    6320.7817    11579.163    1862.9203 
  301400    298.45843   -1154.9141    6358.0195    11579.212    1865.9455 
  301500    295.00375   -1162.0553    6439.0324     11579.28    1855.8891 
  301600    297.47454   -1168.8058     6393.023    11579.304     1875.876 
  301700    297.08336    -1164.976    6397.4817    11579.236    1891.8189 
  301800    297.06564   -1164.7393    6397.6933    11579.306    1942.5882 
  301900     298.8142   -1166.1607    6361.7516    11579.298    1832.8323 
  302000    294.41497   -1167.2408    6456.8068     11579.29    1863.0641 
  302100    297.39446   -1167.2916    6393.1356     11579.22    1816.1557 
  302200    298.71697   -1168.3307    6366.0463    11579.345    1877.0967 
  302300    301.14623   -1166.0572    6311.8884    11579.358    1873.5712 
  302400    294.84033    -1172.756    6453.2857    11579.341    1852.8139 
  302500    301.58908    -1166.938    6303.2597     11579.31    1846.8654 
  302600    296.14082   -1171.1805    6423.9782    11579.392    1905.0017 
  302700    298.04249   -1173.2354    6385.4387    11579.424    1830.0288 
  302800    296.24975   -1169.2808    6419.6843    11579.325    1876.5286 
  302900    299.42508   -1166.0634    6348.5892    11579.283    1895.1326 
  303000    300.14113   -1165.7395    6333.0677    11579.383    1868.8305 
  303100    297.84959   -1170.2635     6386.496    11579.332    1883.4083 
  303200    296.74528    -1165.966     6405.793    11579.335    1930.8034 
  303300    297.22052   -1166.7284    6396.4388    11579.371    1840.6061 
  303400    299.90177   -1169.1912    6341.4918    11579.242     1786.388 
  303500    296.90386   -1164.5828    6401.0424    11579.355    1873.0859 
  303600    299.68739   -1165.5205    6342.4858    11579.327    1805.0275 
  303700     296.2573   -1161.2231    6411.3753    11579.235    1855.8202 
  303800    300.74207   -1170.1174     6324.487    11579.262    1839.4561 
  303900    295.75006   -1165.4832    6426.4876     11579.25    1829.4982 
  304000    298.75464   -1159.5111    6356.1968     11579.12    1825.1256 
  304100    298.84187   -1164.5509    6359.4394    11579.187    1855.2424 
  304200    300.97507   -1160.8382    6310.2391    11579.271    1851.4122 
  304300    297.48007   -1161.6586     6385.727    11579.274     1850.352 
  304400     297.2851   -1163.7691     6391.913    11579.184    1898.2622 
  304500    298.50904   -1163.1113     6365.152    11579.228    1884.8461 
  304600    293.27372    -1167.605    6481.5018     11579.24    1952.1326 
  304700    302.20997   -1165.0887    6288.1177    11579.281     1907.894 
  304800    294.56871   -1161.6923    6447.9368    11579.253    1929.7465 
  304900     298.5693   -1163.8055    6364.6912    11579.361    1866.0989 
  305000    293.89882     -1172.02    6472.6617    11579.339    1905.7891 
  305100    301.73512   -1163.5708    6296.7361    11579.273    1909.1455 
  305200    297.90387   -1157.8288    6372.8344    11579.265    1903.9504 
  305300    296.31987   -1166.3037    6415.2155    11579.331    1901.2734 
  305400    297.88866   -1166.8391    6382.3082    11579.403    1885.8008 
  305500    301.81182   -1163.7965    6295.4153    11579.365    1950.8306 
  305600    300.54282   -1170.2383      6328.98    11579.378    1889.5903 
  305700    295.63673   -1166.1549    6429.7355    11579.406    1871.0929 
  305800    295.07703   -1172.4919    6448.1286    11579.505    1873.8963 
  305900    302.26113    -1168.423    6290.4973     11579.42    1872.9831 
  306000    298.87571   -1173.3215    6367.7953    11579.495    1921.8272 
  306100     295.7386   -1174.4692    6435.8917    11579.424    1909.1504 
  306200     296.6582   -1168.2709    6409.9937     11579.37    1868.4914 
  306300    298.31282   -1168.3116    6374.6693    11579.353    1866.8494 
  306400    300.25001   -1163.3034    6328.2504    11579.328    1922.4526 
  306500    298.31508    -1165.891    6372.2339    11579.387     1964.699 
  306600    302.30578   -1169.2924    6290.3343    11579.341    1890.2378 
  306700    295.88792   -1168.9004    6427.0039    11579.295    1915.1109 
  306800    296.78828   -1169.2902    6408.1688    11579.305    1883.6646 
  306900    296.06697   -1164.2544    6418.5617    11579.324    1915.6587 
  307000    299.39732   -1161.2579    6344.3955    11579.302    1919.8517 
  307100    299.63346   -1169.0596    6347.1345    11579.284     1940.563 
  307200    296.99549   -1162.3808    6396.7986    11579.271    1891.6881 
  307300    295.83282   -1159.9097    6419.2081    11579.313    1849.8029 
  307400    296.77197   -1168.5197    6407.7813     11579.34     1832.681 
  307500    297.96825   -1169.3212    6382.9971     11579.31     1820.575 
  307600    297.49039   -1163.9133    6387.7822    11579.295    1892.2591 
  307700    299.45336   -1162.1275     6344.095    11579.329    1847.6691 
  307800    294.69083   -1169.2121    6452.8687    11579.274    1863.4062 
  307900    295.13505   -1167.4221     6441.663    11579.348    1893.2371 
  308000    302.67555   -1162.5383    6275.6913    11579.352    1863.5302 
  308100     298.8037   -1165.8199    6361.6088    11579.272    1884.1582 
  308200    293.36346   -1163.6228    6475.6721     11579.31    1859.7245 
  308300    299.71059   -1165.4536    6341.8684    11579.272    1833.5968 
  308400     296.1521   -1168.8983    6421.3995    11579.337    1897.4302 
  308500    297.96803   -1172.6236    6386.3748    11579.381    1840.6995 
  308600    300.53558   -1171.4729     6330.427    11579.436    1852.5109 
  308700    298.78785   -1171.5004     6367.765    11579.408    1887.0807 
  308800    298.96125   -1169.4648    6362.0493    11579.433     1908.752 
  308900    298.16553   -1167.3469    6376.9316    11579.434    1873.0472 
  309000    292.87686    -1168.854    6491.3902    11579.401    1945.4175 
  309100    298.81263   -1167.1607    6362.8734    11579.386    1859.8511 
  309200      297.582   -1170.1688    6392.1689    11579.383    1896.3086 
  309300    299.26195   -1168.8372    6354.9781    11579.413     1879.427 
  309400    299.18018    -1174.845    6362.8496     11579.53    1888.0617 
  309500    298.55351   -1169.8536    6371.1397    11579.424    1895.3747 
  309600    301.13903   -1165.9441    6312.0625    11579.492    1929.0853 
  309700    297.43088    -1173.688    6398.9885    11579.455    1904.0331 
  309800    297.96143   -1165.5824    6379.4796    11579.386    1843.5437 
  309900    300.65893   -1167.3499    6323.6084    11579.375    1867.8772 
  310000     298.1303   -1165.3509    6375.6617    11579.407    1893.5165 
  310100    297.55344   -1163.0028    6385.5027    11579.273    1865.6798 
  310200    296.26797   -1161.2701    6411.2352    11579.276    1833.6407 
  310300    296.54609   -1162.7255    6406.7836     11579.31    1875.2422 
  310400    299.99117   -1161.1277    6331.5491    11579.272    1826.4147 
  310500    298.36589   -1169.2141    6374.4075    11579.323    1942.5698 
  310600    295.54835    -1164.398    6429.8304    11579.369    1988.8921 
  310700    294.10694   -1163.8965    6459.9802    11579.227    1920.8853 
  310800    297.86935   -1154.2638     6369.898    11579.156    1900.0926 
  310900    300.97046   -1160.4887    6309.8697    11579.153    1956.7162 
  311000    297.98217   -1157.3391    6370.6156    11579.208    1860.1352 
  311100     297.1619   -1152.0287     6382.752    11579.131    1858.3754 
  311200    300.63151   -1157.0892    6313.7546    11579.196    1898.1935 
  311300    296.49451   -1162.6401    6407.7726    11579.283    1931.6494 
  311400    296.22708   -1164.1869    6415.0384    11579.289    1928.1612 
  311500    301.03893    -1168.942     6316.991    11579.284     1884.452 
  311600     296.1005   -1165.0373     6418.692    11579.388    1870.9247 
  311700    296.64388   -1164.9945     6407.015    11579.362    1867.5732 
  311800    300.88718   -1167.3997     6318.673    11579.266    1900.5589 
  311900    295.12427   -1163.3607    6437.7776    11579.294    1943.5134 
  312000    300.86173   -1164.3523    6316.2198    11579.317    1847.5823 
  312100    298.59398   -1167.2253    6367.5407    11579.318    1915.6181 
  312200    297.20839   -1169.2755    6399.2998    11579.425    1902.6471 
  312300    295.16374   -1171.2403    6445.0223    11579.502     1918.575 
  312400     297.8713    -1172.358    6388.2914    11579.497    1884.4382 
  312500    300.12712   -1177.2879    6344.9789    11579.446    1874.0566 
  312600    296.21993   -1175.6697    6426.8346    11579.449    1890.1443 
  312700    296.79448    -1167.566    6406.4756    11579.468     1872.278 
  312800     298.1447    -1165.023    6375.0772    11579.458    1898.2471 
  312900    298.24993   -1170.4524    6378.2742    11579.474    1916.9126 
  313000    296.72027   -1171.2045    6411.7168    11579.486    1898.6993 
  313100    296.80436   -1168.8892    6407.5695     11579.45    1876.4627 
  313200     299.1909    -1176.204    6363.9158    11579.466    1814.1875 
  313300      300.629   -1175.3344    6332.3888    11579.532    1848.1873 
  313400    297.54267   -1170.6489    6393.5366     11579.43     1882.276 
  313500    302.20198   -1167.9568     6291.246    11579.371    1836.9973 
  313600    294.94335   -1167.8425    6446.2195    11579.389    1938.0393 
  313700    301.75313    -1169.404    6302.2641    11579.353    1919.2513 
  313800    297.96518   -1165.9274    6379.6673    11579.309     1874.075 
  313900    296.35432   -1157.8419    6405.9473    11579.261    1822.6042 
  314000    297.28771    -1163.236    6391.3565    11579.216     1863.443 
  314100    299.42784   -1160.8707    6343.2866    11579.232    1849.3957 
  314200    294.74877   -1157.4183    6439.6591    11579.096    1863.6355 
  314300    298.29913   -1163.1482    6369.6502    11579.205    1886.5638 
  314400    299.14727    -1167.259    6355.6649    11579.228    1871.2966 
  314500    298.34818   -1164.4731    6369.8563    11579.134    1823.1938 
  314600    296.67709   -1160.9935     6402.043      11579.1    1778.7626 
  314700     298.5205   -1161.6106     6363.299    11579.121    1796.3677 
  314800    296.13815   -1160.0727    6412.6911    11579.156    1836.8902 
  314900    297.70587   -1156.8699    6376.0538    11579.213    1834.6233 
  315000    296.31952   -1161.4207    6410.2361    11579.227    1840.0712 
  315100    299.16514   -1162.5642    6350.5594    11579.199    1868.9637 
  315200    297.28112   -1159.4044    6387.7486    11579.299     1891.042 
  315300    297.04722   -1166.4655    6399.8085    11579.301     1848.684 
  315400    298.74516   -1157.9846     6355.055    11579.302    1834.6449 
  315500    298.47539   -1159.3125     6362.136    11579.292    1841.5465 
  315600    295.76274    -1163.457    6424.2779    11579.338    1831.9329 
  315700    298.17882   -1166.2736    6375.4387    11579.298    1854.4518 
  315800    298.35308   -1162.7949    6368.2864    11579.347    1862.7774 
  315900     300.6859   -1161.8127    6317.4217    11579.302    1847.4296 
  316000    293.05763   -1160.2695    6478.9324    11579.389    1892.5141 
  316100    301.02851   -1166.3444    6314.6765    11579.344    1817.1639 
  316200    296.44753   -1166.5568    6412.8066    11579.396    1854.0763 
  316300    300.50911   -1166.7245    6326.1872    11579.379    1810.3494 
  316400     295.7918   -1166.8397    6427.0422     11579.34    1835.3388 
  316500    299.93737   -1165.2023    6336.8928    11579.392    1872.6753 
  316600    296.70562   -1164.7682    6405.4957    11579.388    1881.1676 
  316700    298.08314   -1171.2006    6382.4774    11579.366    1888.1339 
  316800    298.79919   -1160.6043    6356.5533    11579.335    1891.6379 
  316900     299.2806   -1160.2814    6345.7912    11579.181    1823.9067 
  317000    295.83317    -1162.073     6421.429    11579.378    1868.9392 
  317100    299.82475   -1164.2934    6338.3271    11579.329    1887.4467 
  317200    298.79726   -1163.5042    6359.4129    11579.254    1812.9631 
  317300    296.31916   -1168.8363    6417.7742    11579.342    1846.9842 
  317400    298.86505   -1167.8427    6362.3595     11579.31    1820.7711 
  317500    298.01096   -1163.5378    6376.2846    11579.294    1863.5776 
  317600    296.07292   -1164.0289    6418.2052     11579.32    1856.1487 
  317700    300.09784   -1162.8982    6331.0308    11579.262    1892.8271 
  317800    297.30195   -1167.9941     6395.951    11579.357    1912.7813 
  317900    293.71507   -1161.8599    6466.4099    11579.322    1849.2013 
  318000    300.79724   -1158.4037    6311.7276    11579.395    1864.4116 
  318100    296.79957   -1165.3055    6403.9024    11579.264    1839.0094 
  318200    298.70869   -1160.8113    6358.7405    11579.382    1853.8969 
  318300    295.61125   -1164.4242    6428.5202    11579.377    1842.3373 
  318400    295.54401   -1159.5083    6424.9715    11579.308    1839.5719 
  318500    299.62098   -1160.2916    6338.6383    11579.289    1814.6719 
  318600    299.97543   -1167.5532    6338.3419    11579.304    1833.2558 
  318700    300.99603   -1170.8802    6319.9453    11579.383    1845.1724 
  318800    293.29016    -1165.252    6478.9579      11579.4    1799.3146 
  318900    301.37534   -1166.9394    6307.8132    11579.296    1768.5442 
  319000    296.60805   -1165.9972    6408.7828    11579.362    1859.8102 
  319100     298.9661   -1162.0633    6354.4406    11579.329    1816.7655 
  319200    299.61969   -1163.6858    6342.0719    11579.301    1870.1335 
  319300     301.3194   -1161.4501    6303.5887    11579.365    1903.7202 
  319400    291.76452   -1161.2353    6507.5291    11579.395     1912.795 
  319500    297.67756   -1161.7759     6381.726    11579.374    1864.4066 
  319600    300.72491    -1167.175     6321.948    11579.299    1905.2614 
  319700    296.53732   -1165.6776    6410.0929     11579.48    1874.7577 
  319800     294.4803   -1165.9016    6454.1931    11579.411    1899.0914 
  319900    302.86403   -1164.1368    6273.2109    11579.299     1848.651 
  320000    296.72556   -1164.4575     6404.698    11579.327    1942.6336 
  320100    296.97311   -1160.7277    6395.7164    11579.363    1884.2655 
  320200    298.69351   -1159.7566    6357.9586    11579.331    1875.4631 
  320300    297.43244   -1164.6746    6389.7761    11579.289    1854.9255 
  320400    297.99833     -1162.68    6375.6773    11579.274    1864.7633 
  320500    300.00161   -1165.4377    6335.6289    11579.265    1851.6568 
  320600    298.37687   -1161.1804    6366.0525    11579.236    1807.7435 
  320700    297.83132   -1169.2147    6385.7479    11579.242    1850.9908 
  320800    295.68181   -1164.4086     6426.823    11579.203    1823.1062 
  320900    299.30716   -1163.3056    6348.2661    11579.199    1749.8781 
  321000    296.73126   -1162.0023    6402.0621    11579.268    1817.2695 
  321100    296.94298   -1168.9677    6404.4595    11579.223    1850.8261 
  321200    301.33369   -1160.2773    6301.9204    11579.175     1773.111 
  321300    293.52816   -1157.0293    6465.5229    11579.272     1912.045 
  321400    298.78032   -1161.8016     6358.055    11579.237    1920.5153 
  321500    299.82546   -1164.6732    6338.5245    11579.162    1920.2209 
  321600    297.53342   -1162.0753    6384.9609    11579.231    1922.9051 
  321700    302.08822   -1162.8141    6288.4577    11579.295    1859.2389 
  321800    295.39537   -1161.2604    6429.8502    11579.259    1876.1599 
  321900    298.97016   -1168.2294    6360.4213    11579.231    1845.5494 
  322000    298.40035   -1161.0556    6365.4527    11579.263    1867.4081 
  322100    297.03622   -1170.4106    6403.9791    11579.292    1865.4399 
  322200     297.2246   -1168.4192    6397.9659    11579.294    1905.6844 
  322300    300.13237   -1161.8554     6329.256    11579.268    1907.9609 
  322400    298.98866    -1163.264    6355.0615    11579.231    1870.4517 
  322500    297.76876   -1162.7725     6380.647    11579.247     1870.852 
  322600    300.87902   -1163.6126    6315.0818    11579.288    1878.0799 
  322700    293.71934   -1163.4646    6467.9086    11579.307    1956.5823 
  322800    300.19107   -1164.2675    6330.5395    11579.394    1891.7617 
  322900     296.2379   -1166.0498    6416.8192    11579.438    1858.6602 
  323000    298.48509   -1169.9695     6372.667    11579.374    1883.9498 
  323100    297.23358   -1161.2574    6390.6818    11579.364    1829.0947 
  323200    295.96252   -1168.9368    6425.5002    11579.349    1832.4132 
  323300    300.67599   -1162.1432    6317.9655    11579.304    1885.2527 
  323400    294.71383    -1163.093     6446.275    11579.291    1882.0034 
  323500    302.20589   -1168.1524    6291.3421    11579.355    1845.3507 
  323600    296.50577   -1162.0423    6407.0096    11579.358    1889.3479 
  323700    299.92405   -1165.1372    6337.0174    11579.297    1852.8138 
  323800    295.54331   -1169.7275    6435.2059    11579.308    1902.6916 
  323900    304.12188   -1163.9967    6246.1805    11579.281    1884.7337 
  324000    292.51521   -1166.8785    6497.0519    11579.312    1940.4154 
  324100    298.25021   -1163.4381     6370.988    11579.208    1830.4333 
  324200    298.79489   -1159.9381    6355.9117    11579.268    1903.2367 
  324300    300.55689   -1161.7548    6320.0373    11579.219     1836.327 
  324400    296.89421   -1158.5384    6395.0388     11579.19    1828.7746 
  324500    301.53577    -1164.157    6301.5383     11579.23    1821.4813 
  324600    295.70739   -1162.2042    6424.1169    11579.247    1892.7703 
  324700    300.10313   -1164.1062    6332.0802    11579.217    1857.7166 
  324800    297.76836   -1166.4966    6384.3777    11579.245    1844.5157 
  324900    298.78775   -1167.0318    6363.1305    11579.241    1825.9145 
  325000    294.66401   -1162.7652    6446.9482    11579.227    1827.2439 
  325100    295.14628   -1162.2818    6436.1312    11579.197    1854.0937 
  325200    303.02541   -1161.9379    6267.4407    11579.176    1868.5134 
  325300    298.13877   -1163.7691    6373.7402    11579.249    1805.7712 
  325400    294.15412   -1157.5116     6452.613    11579.253    1807.9556 
  325500     301.0627   -1163.1067    6310.5979    11579.234     1856.436 
  325600     300.5614   -1161.2105    6319.3927    11579.215    1907.7659 
  325700     295.3106   -1154.7027    6425.0166    11579.172    1890.5084 
  325800    300.45675   -1160.9552     6321.348     11579.19    1888.7917 
  325900     299.5303   -1162.1894      6342.38    11579.196    1831.5323 
  326000    294.60696   -1166.2176    6451.7087    11579.317    1845.9955 
  326100    299.90328   -1165.9024    6338.2404    11579.311    1819.1862 
  326200    295.06568   -1170.6228     6446.256    11579.259    1911.0883 
  326300    297.75305   -1165.9187    6384.0943    11579.213    1828.9613 
  326400    299.47046   -1158.8408    6340.3404    11579.227    1840.9465 
  326500    299.16708   -1158.9012    6346.8567    11579.201    1866.9395 
  326600    300.12212   -1155.0362    6322.5517    11579.164    1822.5763 
  326700    293.65118   -1167.1298    6473.0068    11579.284    1863.2933 
  326800    299.42621   -1162.9332    6345.3335    11579.182    1850.3705 
  326900    297.56089   -1160.8368    6383.0987    11579.194    1826.9805 
  327000    295.96483    -1170.067    6426.4833    11579.251    1773.1439 
  327100    294.44104   -1165.0992    6454.1852    11579.367    1777.2467 
  327200    297.52299   -1169.9941    6393.1799    11579.308    1814.0514 
  327300    299.33006   -1168.6422    6353.2717    11579.357    1857.1932 
  327400    294.16559   -1159.1168    6454.0584    11579.338    1883.2517 
  327500    302.75339   -1164.1014    6275.5519    11579.312    1853.2588 
  327600    296.66401   -1158.0112    6399.6004    11579.361    1880.8451 
  327700    299.15643     -1157.87    6346.1676    11579.316    1888.8685 
  327800    297.41535   -1163.6239    6389.1445    11579.343    1885.7526 
  327900     297.2366   -1165.9247    6395.2446    11579.324    1842.4209 
  328000    300.56554   -1163.5878    6321.8726    11579.406    1833.2234 
  328100    299.68872   -1164.9146    6341.8304    11579.306    1870.0068 
  328200    295.70369   -1164.1434    6426.1973     11579.31    1891.9794 
  328300    299.21202   -1164.4999     6351.616    11579.322    1913.9646 
  328400    293.87798   -1160.3892    6461.3161    11579.179    1948.2867 
  328500    298.25721   -1163.7137    6371.0651    11579.159    1883.8196 
  328600    297.31387   -1165.8253     6393.377    11579.206    1906.9042 
  328700    297.76858   -1162.4548    6380.2826    11579.197    1846.9736 
  328800    296.85739   -1164.3314    6401.5899    11579.161    1870.3313 
  328900     297.4958   -1163.1856    6386.7973    11579.153    1878.1018 
  329000    296.10644   -1162.6982    6416.0075    11579.169    1868.8171 
  329100    293.05271   -1161.6702    6480.2767    11579.228     1901.971 
  329200    301.37162   -1167.1875    6308.1037    11579.258    1869.0013 
  329300    295.07934   -1166.1078    6441.4565    11579.266    1897.1038 
  329400    296.48819   -1167.6237    6412.8921    11579.284    1930.6212 
  329500    298.44989   -1164.9386    6368.3395    11579.325    1906.5167 
  329600    296.63501   -1164.6272    6406.7933    11579.318    1870.7012 
  329700    297.66343   -1169.1592    6389.3457    11579.309    1875.8419 
  329800    298.43517   -1165.8024    6369.5587    11579.366    1952.5284 
  329900    300.62118   -1165.3979    6322.4448    11579.357    1942.0594 
  330000     295.1996   -1166.6335    6439.4606    11579.314    1938.6673 
  330100    300.87651   -1170.0372    6321.6666    11579.394    1896.9094 
  330200    296.42733   -1168.8363    6415.5458    11579.425    1915.4102 
  330300    298.32827   -1171.8436    6377.9729    11579.455    1856.7867 
  330400     298.0015   -1167.2194    6380.2542     11579.38    1927.8774 
  330500    295.05261   -1164.9795    6441.0533     11579.42    1932.1307 
  330600    300.59534   -1169.7872     6327.425    11579.396    1873.6482 
  330700    296.08467   -1165.6358    6419.6278    11579.387    1936.9747 
  330800    297.61762   -1166.5004    6387.7018    11579.345    1884.1415 
  330900    298.02365   -1161.7158    6374.2058    11579.308    1796.7405 
  331000    297.21527   -1171.5666    6401.3614    11579.343    1888.6561 
  331100     298.8347   -1172.4721    6367.6298    11579.303    1896.1409 
  331200    300.29566   -1171.0058    6334.9626    11579.313    1851.3364 
  331300    291.35794   -1166.6201    6521.5652     11579.36    1899.2441 
  331400    300.18611   -1162.9166    6329.2078    11579.307    1863.9692 
  331500    297.34608   -1166.2639    6393.2631    11579.342    1934.1138 
  331600    297.03255   -1163.7939     6397.464    11579.315     1929.583 
  331700    294.38183   -1163.3255    6453.6063    11579.297    1883.3229 
  331800    301.36936   -1160.9153    6301.8886    11579.267    1812.5421 
  331900    296.58281   -1163.8284    6407.0662    11579.274    1843.2948 
  332000    297.76925   -1160.9172     6378.826    11579.292    1851.7582 
  332100    296.00122   -1160.6352    6416.2767    11579.253    1922.0506 
  332200    298.67775   -1162.0657    6360.4891    11579.215    1954.6275 
  332300    299.84602   -1166.7864    6340.3016    11579.265    1826.0175 
  332400    293.92754   -1165.7375     6465.611    11579.184    1869.5501 
  332500    299.93872    -1157.884     6329.384    11579.231    1863.0507 
  332600    299.27476   -1161.7818    6347.4887    11579.253    1949.7283 
  332700    299.65631   -1155.5725    6333.0621    11579.187    1808.4063 
  332800    298.84813   -1161.3777    6356.0979    11579.152    1809.7168 
  332900    300.96505   -1167.7482    6317.4067    11579.315    1837.3284 
  333000    294.41566   -1170.3623    6459.8941    11579.271    1798.0735 
  333100     295.1975   -1165.8388    6438.6932    11579.296    1821.5729 
  333200    300.13929   -1167.8485    6335.1975    11579.365     1894.869 
  333300    295.81234   -1168.6914    6428.4748     11579.36     1853.393 
  333400    296.42869   -1160.4596    6407.0399    11579.324    1804.5872 
  333500      299.008   -1173.0044    6364.4758    11579.318    1838.4889 
  333600    299.15375   -1166.0812    6354.4111    11579.291    1875.7917 
  333700     298.3936   -1167.8975    6372.4694    11579.293    1867.6436 
  333800    296.53264    -1164.485    6408.8442    11579.324    1871.4696 
  333900    299.68036   -1164.7053    6341.8683    11579.374    1910.8961 
  334000    297.70882   -1167.8388    6387.1621    11579.415    1896.4319 
  334100    299.69971   -1171.0527    6347.9055    11579.477    1831.9963 
  334200    299.68679   -1171.1154    6348.2658    11579.499    1896.0455 
  334300    296.13982   -1173.8953    6426.7569    11579.435    1835.6063 
  334400    301.14642   -1167.9702    6313.7917    11579.353    1802.8134 
  334500    299.74143   -1166.2301    6342.0544     11579.34     1897.375 
  334600    296.02561   -1162.4313    6417.6325    11579.334    1875.7288 
  334700    294.28492   -1165.1761    6457.4652    11579.235    1814.6382 
  334800    300.23987   -1163.5484    6328.6585    11579.274    1901.8467 
  334900    298.65316   -1166.2916    6365.2988    11579.274     1911.803 
  335000    297.28164   -1162.1025    6390.4322    11579.296     1876.037 
  335100    296.34914   -1168.9129    6417.1162    11579.248    1803.4491 
  335200    297.57536   -1163.6105    6385.6078    11579.238    1874.5583 
  335300    302.10779   -1171.7398    6296.9026    11579.232    1847.4996 
  335400     294.3228   -1162.5784    6453.9711    11579.148    1847.9336 
  335500    298.34163   -1161.9317    6367.4306     11579.11    1888.4406 
  335600    296.48864   -1160.6728    6405.7439    11579.096    1819.1838 
  335700     295.9843   -1159.8244    6415.7205    11579.146    1841.5845 
  335800    297.36968   -1159.5261    6385.7542    11579.075    1900.6905 
  335900    299.69771   -1156.6338    6333.1249    11579.073    1917.9149 
  336000    295.87828   -1159.0267    6417.1622    11579.121    1937.5054 
  336100      301.008   -1163.0298    6311.5706    11579.115     1821.682 
  336200    294.27792   -1164.3206    6456.7029    11579.179    1826.7551 
  336300    298.94411    -1165.436    6358.1622    11579.208    1881.0363 
  336400    298.10797   -1163.5561    6374.1391    11579.202    1869.2528 
  336500    296.17935   -1165.6331    6417.3594    11579.144    1810.8569 
  336600    298.53391   -1161.4045    6362.8336    11579.148    1870.6136 
  336700    303.66545   -1156.7353    6248.5336    11579.145    1858.0783 
  336800    295.56638   -1156.4849    6421.3235    11579.161    1909.0193 
  336900    297.94674   -1161.5492    6375.5633    11579.189    1925.2712 
  337000    299.45026   -1163.8485    6345.7424    11579.189    1901.2717 
  337100    294.58454   -1167.8147     6453.694    11579.226    1870.9031 
  337200    298.54355    -1165.738    6367.1152    11579.302    1793.3001 
  337300    297.74542   -1170.3134    6388.8836    11579.444    1848.2579 
  337400    298.52324     -1168.05    6369.8562    11579.297    1864.5177 
  337500    298.54349   -1166.0284    6367.3133    11579.209     1872.086 
  337600    294.40395     -1162.79    6452.5982    11579.297     1925.175 
  337700    299.03553   -1160.6623     6351.506    11579.279    1908.5608 
  337800     299.3867    -1161.829    6345.1451    11579.254    1906.9595 
  337900     295.7092   -1162.6447    6424.4912     11579.22    1880.4817 
  338000    297.56693    -1163.481    6385.6831    11579.263    1880.1807 
  338100    301.32329   -1167.1719    6309.1231    11579.261     1926.262 
  338200     296.8978   -1167.8702    6404.3856    11579.281    1951.5222 
  338300    303.50276   -1162.0229    6257.4236    11579.272    1848.2828 
  338400    292.75478   -1157.2973    6482.2964    11579.256    1905.5074 
  338500    296.65052   -1159.9949    6401.7169    11579.205    1833.5731 
  338600    295.76828   -1166.1611    6426.7398    11579.214    1837.5205 
  338700    298.35058   -1162.3078    6367.7625    11579.257    1880.5481 
  338800    296.61272   -1159.1309    6401.6504    11579.195    1903.0334 
  338900    300.19191   -1159.4527    6325.5736     11579.26    1825.5671 
  339000    294.58174   -1162.5018    6448.4929    11579.278    1883.4664 
  339100     300.5284   -1166.4229    6325.2852     11579.19    1887.1326 
  339200    298.07951   -1164.2024    6375.3654    11579.174    1806.3565 
  339300    295.40439   -1161.8907    6430.3305    11579.301    1874.7245 
  339400    299.17785   -1165.6516    6353.3744    11579.199    1828.2719 
  339500    296.98252   -1162.7872    6397.4422    11579.231    1838.0383 
  339600    296.02594   -1161.2807    6416.3092    11579.168    1831.8479 
  339700    297.60748   -1160.3816    6381.6396    11579.185    1855.5537 
  339800    300.78889   -1160.6776    6313.9456    11579.161     1873.108 
  339900    298.33718   -1158.6114    6364.3799    11579.285    1945.3993 
  340000    299.25774   -1164.6249    6350.6963    11579.254    1840.2566 
  340100    298.21031   -1165.5871    6374.0494    11579.268    1885.4635 
  340200    298.99004   -1169.1994    6360.9765    11579.241    1853.2169 
  340300    295.07883   -1164.9032    6440.3482    11579.351    1907.1476 
  340400    299.22304   -1161.1819    6348.0059    11579.265     1943.385 
  340500    297.64912   -1161.9873    6382.4368    11579.266    1880.6905 
  340600    294.50987   -1157.0189     6444.595    11579.328    1854.5541 
  340700    299.87547   -1161.9939     6334.842    11579.227      1846.45 
  340800    298.93734   -1155.8242    6348.6639    11579.177    1862.4189 
  340900    301.19267   -1168.8186    6313.5015    11579.202    1883.0487 
  341000    298.97543   -1164.3412    6356.4538    11579.264    1823.7004 
  341100    294.55498   -1161.1572    6447.6864    11579.244    1788.4545 
  341200    297.58271   -1162.1493    6383.8487    11579.097    1812.2159 
  341300    298.46374   -1163.4617    6366.4777    11579.236    1911.3101 
  341400    294.62072   -1163.6023     6448.712    11579.229    1922.4074 
  341500    302.55809   -1165.6117    6281.0903    11579.168    1858.6891 
  341600     294.4171   -1162.5802    6452.0204     11579.21    1916.2546 
  341700    298.95546   -1163.6029    6356.1038    11579.226    1822.7786 
  341800    297.45023   -1158.7567    6383.4624    11579.273    1827.1102 
  341900    295.54866   -1166.8282    6432.1105    11579.226    1885.3413 
  342000    302.28008    -1168.598    6290.1529    11579.305     1805.351 
  342100    295.95445   -1164.9939    6421.7301    11579.349    1850.5798 
  342200    299.09151   -1166.8416    6356.4852    11579.275    1835.1482 
  342300    297.11362   -1162.9765    6394.8888    11579.289    1952.5774 
  342400     301.2219   -1163.4765    6307.7438    11579.411    1988.6974 
  342500    295.08258   -1161.2446     6436.555    11579.297    1995.4778 
  342600    300.51041    -1162.847     6322.166    11579.263    1964.7767 
  342700    294.79226    -1166.775    6448.3601    11579.369    1939.1592 
  342800    302.16562   -1166.4792     6290.531    11579.357    1860.5414 
  342900    298.58482    -1167.836    6368.4066    11579.377    1893.0875 
  343000    298.52912   -1170.9503    6372.6506    11579.317    1903.3177 
  343100     297.4189    -1167.952    6393.4674    11579.414    1886.1706 
  343200    297.53191   -1165.9558    6389.0022    11579.359    1913.6698 
  343300    299.64686   -1168.3082     6346.092    11579.279    1839.7726 
  343400     300.4874   -1162.2398    6322.0818    11579.294    1856.0828 
  343500    297.65233   -1163.4659     6383.909    11579.328    1888.0168 
  343600    298.42308   -1168.8699    6372.8925    11579.374    1892.2552 
  343700    294.00312   -1165.9812    6464.3461     11579.29    1903.4332 
  343800    298.46077   -1171.9227    6375.1708    11579.405    1911.6171 
  343900    299.38216   -1173.3689    6356.8762    11579.348    1922.6785 
  344000    297.02275   -1166.7022    6400.5598    11579.293    1920.9248 
  344100    301.91495   -1160.1785    6289.4936    11579.265    1882.3501 
  344200    295.98874   -1164.9329    6420.9025    11579.315    1901.4711 
  344300     297.7206   -1166.0231     6385.034    11579.355    1890.5146 
  344400    299.25475   -1162.4552    6348.5595    11579.223    1835.9362 
  344500    296.44183   -1160.8925    6407.0443    11579.177    1838.3918 
  344600    297.69977   -1159.8687    6379.3058    11579.336    1814.9708 
  344700    300.50255   -1162.5078    6322.1271    11579.395    1748.5907 
  344800    293.86068   -1165.4739    6466.8647    11579.273    1875.6185 
  344900    300.61486   -1164.6724    6321.7776     11579.28    1765.7603 
  345000    294.30124   -1166.9982    6459.0515    11579.348    1832.8483 
  345100     296.6407    -1162.144    6404.1492    11579.279    1832.1584 
  345200    299.37697   -1163.3153    6346.8117    11579.226    1831.0065 
  345300    298.05543   -1160.8827    6372.5613    11579.176    1823.9205 
  345400    300.56454   -1160.5563    6318.7071    11579.251    1821.4313 
  345500    293.39215    -1161.681    6473.0958    11579.288    1820.2594 
  345600    298.76421   -1165.5838    6362.2502    11579.305    1761.8223 
  345700    295.71146   -1161.6138    6423.5728    11579.381    1893.6702 
  345800    299.10432   -1164.9769    6354.4264    11579.354    1890.0256 
  345900    296.56295   -1160.6579    6404.3386    11579.293    1853.0391 
  346000    298.58331   -1160.4617    6360.9865    11579.299    1837.5543 
  346100    297.94888   -1163.1608    6377.1757    11579.235    1865.9802 
  346200    297.33319   -1167.5301    6394.7344    11579.272    1842.6923 
  346300    303.04255   -1164.3875    6269.5632    11579.215    1773.0632 
  346400    297.15372   -1164.4306    6395.5864    11579.389    1855.9855 
  346500    296.05711   -1170.7389    6425.2583    11579.325    1867.8971 
  346600    298.84584   -1161.8145    6356.7804    11579.349    1904.7308 
  346700    298.45794   -1165.1003    6368.3502    11579.346    1957.0658 
  346800    298.49695   -1158.6281    6361.0472    11579.348    1921.3157 
  346900    299.86859   -1159.4555    6332.5359    11579.313    1857.5725 
  347000    296.91058   -1162.5537    6398.7902    11579.276    1855.2682 
  347100    295.54373   -1161.2621     6426.739    11579.315    1872.7881 
  347200    296.96177    -1162.775    6397.8282    11579.186    1756.4019 
  347300    298.92164   -1167.2324    6360.4406     11579.21     1790.971 
  347400    299.74228    -1163.351    6339.1672     11579.35    1822.5996 
  347500    296.24735   -1164.5172      6414.92    11579.273    1817.5009 
  347600     296.2949   -1157.8295    6407.1479    11579.204     1849.705 
  347700    299.74771    -1161.893    6337.4374    11579.194    1801.3006 
  347800    297.71778   -1162.3005     6381.146    11579.129    1845.6428 
  347900    295.72747   -1152.3354    6413.7843    11579.213    1833.4936 
  348000     297.8753   -1152.6587    6368.1666    11579.157    1850.1845 
  348100    300.08668    -1158.585     6326.806    11579.112    1911.6004 
  348200    297.90581   -1164.3095    6379.1872    11579.178    1869.8145 
  348300     295.8875   -1163.0143    6421.0666    11579.235    1863.1069 
  348400    296.56926   -1162.4116    6405.8796    11579.215    1853.0238 
  348500    298.14715   -1162.3285    6372.1237    11579.251    1868.5443 
  348600     300.3443    -1160.247    6322.9499    11579.098    1815.4744 
  348700    293.10654    -1162.366    6479.7964    11579.202    1897.6195 
  348800    298.97948   -1158.7347    6350.7447    11579.248    1835.6362 
  348900    300.05589   -1160.8281    6329.8851    11579.291    1847.2148 
  349000    299.50558   -1167.5334    6348.3395    11579.283    1875.1467 
  349100    297.64206   -1166.7991    6387.4749    11579.342    1846.0106 
  349200    297.80498   -1164.4721    6381.7642    11579.439    1871.8367 
  349300    297.14561   -1168.2726    6399.4654    11579.253    1860.6075 
  349400     299.1752   -1167.0782    6354.9901    11579.331    1846.3373 
  349500    297.06783   -1165.8506    6398.8923     11579.44    1889.0487 
  349600     303.2786   -1164.7415    6265.0234    11579.364    1873.6081 
  349700    293.72725   -1161.1475    6465.4636    11579.348    1932.9292 
  349800    295.23964   -1163.6546     6435.696    11579.383    1876.4103 
  349900    301.94591   -1164.2076    6292.9764     11579.38    1813.3362 
  350000    297.11403    -1165.802    6397.7726    11579.356    1893.8003 
  350100     298.6158   -1164.2011    6364.1198    11579.387    1951.0354 
  350200    299.57259   -1160.5856    6340.0052    11579.328    1891.8512 
  350300     297.5928   -1169.3931    6391.0815    11579.302    1789.6779 
  350400    299.23905    -1166.325    6352.7307    11579.189    1770.5452 
  350500    296.82641   -1163.5985     6401.584    11579.226     1846.616 
  350600    295.50863   -1157.2689    6423.2353    11579.055     1819.199 
  350700    296.38787   -1160.5144    6407.8582    11579.216    1882.8716 
  350800     296.4786   -1156.1696    6401.5912    11579.232    1892.1423 
  350900    298.29542   -1161.2949    6367.8584    11579.187    1819.0897 
  351000    298.31026   -1157.1923    6363.4024    11579.151    1845.5173 
  351100    297.60418   -1159.9634     6381.254    11579.147    1924.0615 
  351200    299.60045   -1158.8531    6337.4079    11579.059    1793.2395 
  351300    296.75853   -1156.8251    6396.1631    11579.129    1804.6038 
  351400    297.43251   -1162.9279    6387.9131    11579.174     1842.001 
  351500    299.71041   -1171.2366    6347.5884    11579.205     1792.144 
  351600    296.19289   -1159.4906    6411.0245     11579.24    1813.0847 
  351700    297.20521   -1160.3986    6390.2092    11579.144    1834.8108 
  351800    298.77066   -1160.1497    6356.5494    11579.176    1860.5979 
  351900      296.934   -1156.7212    6392.5458    11579.364    1912.7723 
  352000    296.98416   -1158.6117    6393.3328    11579.332     1849.395 
  352100    297.73947   -1163.0434    6381.6284    11579.332    1761.6136 
  352200    297.62699   -1167.2274    6388.1801    11579.297    1805.7132 
  352300    303.09783   -1170.9147    6275.0461    11579.352    1812.3168 
  352400    297.58489   -1166.2172    6388.0562    11579.284    1811.4338 
  352500    296.13116   -1165.7535    6418.6575    11579.292    1856.6694 
  352600    298.32229   -1161.2613    6367.4547    11579.392    1879.0149 
  352700    297.34408   -1172.9158    6400.0321    11579.416    1929.3272 
  352800    298.23157    -1169.682     6377.853    11579.431     1878.255 
  352900      295.529   -1164.7056    6430.6268    11579.445    1914.2233 
  353000    301.09727   -1167.1814    6314.0619    11579.362    1795.9786 
  353100    295.07949   -1165.9104    6441.5352    11579.545    1890.2447 
  353200    297.21799   -1168.6482    6398.3949    11579.353    1920.5857 
  353300    300.65164   -1167.7592     6324.153    11579.355    1862.4813 
  353400    297.56592   -1158.8423    6381.1798    11579.377    1839.4835 
  353500    297.75014    -1159.312    6377.6265    11579.289    1828.3778 
  353600    299.05812   -1162.1702    6352.5671    11579.315    1802.0458 
  353700    295.34745   -1164.1009    6433.7781    11579.322    1855.7978 
  353800    297.72885   -1160.5812    6379.3464    11579.285    1859.3443 
  353900    298.14877   -1159.5666    6369.2813    11579.206    1872.5904 
  354000    295.52441   -1156.8741    6422.5399    11579.091    1836.9478 
  354100    297.37283    -1158.043    6384.2663    11579.138    1859.2168 
  354200    300.55898   -1161.4602     6319.595    11579.116    1899.9072 
  354300      297.675   -1157.0712    6376.7691    11579.067    1879.2286 
  354400    299.01742   -1153.0165    6344.0605    11579.092    1843.7927 
  354500     296.6499   -1156.9534    6398.5824    11579.099    1812.6978 
  354600    296.40766   -1158.2372    6405.0539    11579.112    1837.6595 
  354700    300.77342   -1161.7802    6315.2591    11579.042    1820.2523 
  354800     296.5634   -1156.2329    6399.6943    11579.083    1869.9448 
  354900    297.84999   -1159.8799    6375.8725    11579.101    1860.3507 
  355000     302.7912   -1160.1061    6270.6071     11579.17    1891.1554 
  355100    293.47477   -1157.2479    6466.7582    11579.149    1922.5825 
  355200    298.13529   -1159.5901    6369.5462    11579.159    1854.8454 
  355300     299.8676   -1156.2938    6329.3446    11579.262    1856.8996 
  355400    296.59189   -1166.3344    6409.3927    11579.289    1831.6846 
  355500    300.40116   -1168.3235    6330.0439     11579.33    1859.3316 
  355600     299.5894    -1174.586    6353.7104    11579.392    1862.3067 
  355700    295.11925   -1167.2089    6441.9148    11579.476    1875.6449 
  355800    298.60236   -1163.6795     6363.956    11579.458    1833.4802 
  355900    300.95848    -1171.685    6321.6231    11579.454    1855.9561 
  356000    296.23574   -1166.7401    6417.6287    11579.511    1853.8443 
  356100    299.39815   -1170.8601    6354.1939    11579.516    1809.5794 
  356200    298.09295   -1170.8781    6382.0627    11579.483    1853.4603 
  356300    300.20414   -1172.4593    6338.5302    11579.472     1830.519 
  356400     298.0058   -1175.6394    6388.7555    11579.553    1854.0568 
  356500    294.43525   -1172.1283    6461.4432    11579.472    1789.5168 
  356600    298.98841   -1169.9586    6361.9258    11579.396    1803.8582 
  356700    299.14696   -1171.8325    6360.3865     11579.37    1880.2297 
  356800    297.74716   -1162.9075    6381.3806    11579.384    1908.8018 
  356900    300.18386   -1161.0786    6327.4084    11579.297    1870.4711 
  357000    294.28975   -1159.2934    6451.4735    11579.229    1888.0444 
  357100    299.59344   -1163.2127     6342.164    11579.305    1882.8711 
  357200    300.71088   -1168.4214    6323.4644     11579.27    1930.5699 
  357300    298.26936   -1163.2853    6370.4492    11579.231    1853.4291 
  357400    294.29256   -1155.9943    6448.0726    11579.187    1789.4869 
  357500    300.77198   -1161.0578    6314.6853    11579.159    1785.4711 
  357600    297.92692   -1159.5849    6374.0186    11579.185    1776.6523 
  357700    300.01814   -1156.1329    6325.7767    11579.071     1823.776 
  357800    299.68868   -1154.2562    6330.9932    11579.126    1860.5581 
  357900    293.23045   -1156.3962    6471.0481     11579.07    1891.8986 
  358000    301.56294   -1154.4708    6291.1649    11579.124    1829.5486 
  358100    297.15094   -1154.3743    6385.3025    11579.102    1880.7994 
  358200    294.96724   -1156.6847    6434.2209    11579.059    1814.9437 
  358300    296.42461   -1164.0933    6410.6226    11579.186    1804.3042 
  358400    299.98922   -1162.2419    6332.5832    11579.151    1832.5435 
  358500    296.19676   -1158.8435    6410.2314    11579.177    1840.1223 
  358600    298.33125   -1160.7978    6366.6533    11579.245    1825.5073 
  358700    296.97816   -1163.6251    6398.3832    11579.241    1872.6211 
  358800    298.27228   -1158.9581    6366.1567    11579.328    1798.6335 
  358900    297.66912   -1159.2023    6379.2742    11579.316    1825.2741 
  359000    299.85389   -1159.5587    6332.9613    11579.321    1857.8188 
  359100    296.76779    -1164.055    6403.4624    11579.396    1835.7328 
  359200    297.52705   -1168.7174    6391.8935    11579.385    1856.5905 
  359300    296.69216   -1173.1065     6414.209    11579.475    1874.0063 
  359400    299.87281   -1173.8607    6346.9686     11579.43    1855.9964 
  359500    297.30525   -1168.6753    6396.6434    11579.439    1868.7977 
  359600    297.90505   -1171.2889    6386.4304    11579.426    1959.7436 
  359700    297.46694   -1170.8445    6395.3802     11579.46     1970.634 
  359800    298.18215   -1161.5362    6370.7348    11579.403    1876.5847 
  359900    297.33885   -1164.9908    6392.1538    11579.351    1870.5886 
  360000    301.92123   -1162.9787    6292.1783    11579.283    1908.6189 
  360100    293.76978    -1168.026    6471.4366    11579.351    1956.7071 
  360200    302.85019   -1169.1326    6278.4644    11579.261    1862.5491 
  360300    293.76171    -1173.874    6477.4816    11579.376    1910.8835 
  360400    296.96348   -1171.2215    6406.4367    11579.384    1875.3515 
  360500     298.1546   -1173.2833    6383.0384    11579.371    1912.7836 
  360600     298.7306   -1167.6207    6364.9845    11579.285    1935.1403 
  360700    294.92591   -1161.5349    6440.0762    11579.181    1997.0084 
  360800    297.28387   -1161.0798    6389.2651    11579.199    1917.5473 
  360900    297.54314   -1159.5474    6382.1614    11579.167    1917.1738 
  361000     298.4473   -1155.7715    6359.0085    11579.106    1952.7937 
  361100    297.26339   -1157.3973    6386.0173    11579.196    1921.9561 
  361200    297.33516   -1161.0087    6388.0255    11579.126    1858.2868 
  361300    296.87787   -1159.3431    6396.2161    11579.213    1843.3612 
  361400    296.89911   -1160.1998    6396.6476    11579.242    1815.3317 
  361500    295.77057    -1167.668     6428.329    11579.345    1806.4439 
  361600    298.35317    -1167.072    6372.4515    11579.237    1845.6506 
  361700    295.07844   -1164.4018    6439.7439     11579.24     1866.469 
  361800    300.92054   -1158.4808    6309.0101    11579.235    1853.5266 
  361900    296.60189   -1151.5096     6394.187    11579.122    1931.7405 
  362000    298.26927   -1151.9384    6358.9945    11579.121    1954.1749 
  362100    299.77028   -1152.6373    6327.6462    11579.141    1850.2447 
  362200    297.16749   -1155.9666    6386.6227    11579.184     1849.265 
  362300    296.90581   -1162.1476    6398.3949    11579.184    1863.3275 
  362400    296.88736   -1164.9127    6401.7145    11579.345    1859.3803 
  362500    298.90434   -1172.5948    6366.2556    11579.293    1825.7645 
  362600     296.2253   -1169.3587    6420.2798     11579.32    1909.9886 
  362700    299.21073   -1169.0702    6356.1982    11579.306    1891.3516 
  362800    297.80434   -1166.1945      6383.31    11579.248    1831.8608 
  362900    293.61904   -1158.1721    6464.6302    11579.178    1966.0802 
  363000    302.26343   -1168.4019    6290.2005    11579.193    1970.3116 
  363100    293.82742    -1163.206    6465.2925    11579.258    1918.5235 
  363200    294.09456   -1158.0039    6454.4561    11579.331    1932.7189 
  363300    298.49105   -1165.0167    6367.4308    11579.217    1980.7504 
  363400     299.7529    -1173.079    6348.5529    11579.235    1830.6575 
  363500     296.9742   -1169.4062    6404.3419    11579.334    1846.4949 
  363600    301.85806   -1170.1244    6300.6872    11579.297    1870.2855 
  363700    298.73473   -1167.5176    6364.7837    11579.275    1884.6109 
  363800    294.58135   -1163.3374    6449.4249    11579.366    1877.7023 
  363900    299.82446   -1158.7793    6332.8204    11579.331    1936.6102 
  364000     296.1868   -1161.9559    6413.6554    11579.276    1912.9926 
  364100    299.06196   -1158.1007    6348.3478    11579.247    1853.0781 
  364200    297.47429   -1162.2707    6386.4866    11579.298     1977.209 
  364300    299.20187   -1164.6762    6351.9706    11579.283     1934.325 
  364400    296.64495   -1163.0896    6405.0144    11579.289    1896.3939 
  364500    297.87997   -1171.4812    6387.0869    11579.354    1916.7552 
  364600    297.05112   -1165.5029     6398.784    11579.323     1961.135 
  364700    301.17014   -1160.9437    6306.2212    11579.315    1888.6477 
  364800    295.73752   -1159.0264    6420.2679     11579.22    1919.4826 
  364900    300.32575   -1161.5959    6324.7707    11579.174    1931.0603 
  365000    297.01139   -1155.9874    6389.9132    11579.119    1883.9898 
  365100     297.8776   -1158.9664    6374.4928    11579.224     1847.134 
  365200    298.63432   -1159.0375    6358.3835     11579.21     1872.543 
  365300    296.19331   -1159.5259    6411.0159    11579.206    1874.6513 
  365400    298.52932    -1165.211    6366.8615    11579.271    1884.3294 
  365500    298.48078    -1168.119    6370.8307    11579.296    1837.1092 
  365600    293.39073   -1162.2616    6473.6841    11579.265    1867.8079 
  365700    301.46442   -1164.1717    6303.1114    11579.265    1872.3487 
  365800    297.04342   -1167.5119     6400.967    11579.332    1912.0163 
  365900    294.84802   -1158.6474    6438.9712    11579.299    1914.7173 
  366000    299.68781   -1155.1781    6332.0958    11579.288     1954.696 
  366100    295.69479   -1156.6083    6418.8598    11579.317    1942.7899 
  366200    300.49287   -1165.9587    6325.6502    11579.261      1924.32 
  366300    298.02631   -1159.4109    6371.8652    11579.329    1918.3595 
  366400    295.55795   -1167.6941    6432.9525    11579.401    1915.0505 
  366500    297.81943   -1163.5058     6380.418    11579.367    1871.8052 
  366600     299.1811   -1168.5665    6356.4663    11579.445    1837.3373 
  366700    298.65806   -1159.2837    6358.2643    11579.352    1873.9879 
  366800    293.47958   -1166.4579    6476.0608    11579.344    1997.7019 
  366900    300.77812   -1165.7983    6319.4051     11579.27    1868.0489 
  367000    296.27555   -1162.7542    6412.5725    11579.291     1936.321 
  367100    298.38646    -1164.542    6369.2812    11579.308    1911.3267 
  367200    298.19831   -1165.8536    6374.5375    11579.233    1860.7016 
  367300    298.43654   -1157.9529    6361.5697    11579.256    1843.2602 
  367400    296.51479   -1159.8752    6404.5471    11579.256    1854.7052 
  367500    298.37979   -1165.7134    6370.4824    11579.195    1856.9873 
  367600    295.26548   -1163.1468    6434.5109    11579.258    1838.9792 
  367700    297.99342   -1168.3026    6381.3723    11579.242    1846.5454 
  367800    296.36116    -1162.632    6410.5037    11579.173    1890.7975 
  367900    300.44763   -1162.4116    6322.8694     11579.06    1817.1541 
  368000    295.31111   -1163.0317    6433.2823    11579.119    1892.8591 
  368100    298.57268   -1158.9097    6359.6065    11579.244    1876.4667 
  368200    298.13655   -1157.2353    6367.2552     11579.25     1898.385 
  368300    295.25102   -1160.6109    6432.2227    11579.197    1916.3251 
  368400    298.10892   -1162.4354    6372.9716    11579.176    1853.0415 
  368500    294.63208   -1167.6878    6452.5104    11579.185    1862.5454 
  368600    295.76187   -1161.1041     6421.817    11579.211    1886.4493 
  368700    297.84637   -1163.2332    6379.4095    11579.207    1875.9102 
  368800    302.40838   -1168.4345     6287.158    11579.214    1815.1246 
  368900    295.94061    -1165.217    6422.1309    11579.231    1861.6718 
  369000    298.24378   -1165.5918    6373.4258    11579.355     1912.397 
  369100    300.41428     -1164.51    6325.9475    11579.328    1911.0674 
  369200    296.08448   -1161.0107    6414.9716    11579.351    1951.9351 
  369300     299.5664   -1162.4676    6341.9156    11579.224    1953.7057 
  369400    297.69309   -1160.0203    6379.5604    11579.296    1985.9515 
  369500    299.65526   -1168.0315    6345.7298    11579.373    1919.3318 
  369600    297.02448   -1160.9021    6394.7663    11579.336    1862.4604 
  369700    296.13299   -1164.7722    6417.7582    11579.413    1865.9012 
  369800    301.38197   -1168.5978    6309.4087    11579.374     1773.147 
  369900    296.40334   -1171.5568    6418.7959    11579.442    1846.7226 
  370000    300.79627   -1171.2547    6324.5653    11579.361    1825.2285 
  370100    294.70247   -1162.4213    6445.7702    11579.215    1829.0078 
  370200    295.94535   -1163.6946    6420.5905    11579.314    1887.8342 
  370300    299.30459   -1163.0968    6348.2784    11579.365    1908.7356 
  370400    296.90818   -1164.9073    6401.2068    11579.287    1886.3817 
  370500    299.42558   -1164.4615    6347.0151    11579.322    1818.5477 
  370600    295.97254   -1158.5641    6414.9283    11579.363    1901.8475 
  370700    299.13132   -1165.8823    6354.6462    11579.246    1857.2764 
  370800    299.22333   -1165.4218    6352.2506    11579.276    1857.5157 
  370900    292.44184   -1165.9189    6497.6732    11579.325    1960.9312 
  371000    298.94271   -1164.3524    6357.0958    11579.196    1863.5694 
  371100    297.71602   -1158.7655    6377.8284    11579.309    1900.5815 
  371200    299.31649   -1160.6432    6345.4044    11579.199    1920.4735 
  371300    297.65584   -1159.4734    6379.7432     11579.23    1878.8941 
  371400    295.57071   -1161.2845    6426.0929    11579.223    1860.2978 
  371500    297.06215   -1154.6911    6387.6432    11579.229    1854.4981 
  371600    296.82018   -1161.6248    6399.7302    11579.213    1905.9865 
  371700    298.03069   -1168.1445    6380.4153    11579.239    1917.0952 
  371800    301.26026   -1165.4249    6308.6506    11579.189    1898.4944 
  371900    295.60588   -1169.1444    6433.2428    11579.264    1965.1706 
  372000    298.63983   -1162.9018    6362.1057    11579.186    1927.5626 
  372100    298.97637   -1167.1648    6359.3056    11579.312    1949.9592 
  372200     297.3097   -1165.2785    6393.0611    11579.348    1897.4389 
  372300    294.61739   -1166.9551    6452.3146    11579.408    1905.2083 
  372400    301.91693   -1171.7238    6301.1224    11579.391    1807.5421 
  372500    296.87829   -1164.1765    6401.2471     11579.42    1870.6283 
  372600    299.40038    -1169.122    6352.3371    11579.445    1959.4641 
  372700    296.85484   -1167.4431     6405.031    11579.436    1916.2762 
  372800    298.96457   -1164.8008    6357.2807    11579.399    1797.8902 
  372900    296.21254   -1165.4763    6416.8279    11579.478    1896.0233 
  373000    300.99734   -1167.8298    6316.9107    11579.427    1879.1707 
  373100    299.52226   -1170.6166    6351.2183    11579.435    1830.2899 
  373200    297.50175   -1169.2531    6393.0273    11579.443      1873.28 
  373300    299.49594   -1171.3475    6352.4789    11579.403    1889.2524 
  373400    295.86463   -1165.3747    6424.1379    11579.457    1908.2789 
  373500    300.45309   -1170.8929    6331.5954    11579.422    1848.4246 
  373600    295.66942   -1157.2962    6420.1432     11579.37    1911.9597 
  373700    300.48385   -1164.8311    6324.8189    11579.364    1837.9903 
  373800    295.31467   -1163.2882    6433.6452    11579.302    1835.1151 
  373900    299.12317    -1166.402    6355.3402    11579.246     1864.488 
  374000    296.09345   -1162.7526    6416.3771    11579.207    1884.7914 
  374100    297.71241   -1163.9295    6382.9112    11579.151    1862.9269 
  374200    297.28802   -1158.2322     6386.269    11579.139    1878.0253 
  374300    298.92393    -1158.341    6351.4725    11579.183    1879.2834 
  374400    298.19462   -1157.8628     6366.507    11579.115    1813.4654 
  374500    295.93067   -1158.7133    6415.7962    11579.188    1861.8482 
  374600    299.50122   -1158.2628    6338.9383     11579.06    1846.3527 
  374700    297.13024   -1160.3852    6391.8015    11579.148    1796.2685 
  374800    293.92299   -1157.3008     6457.224    11579.137    1874.8668 
  374900    299.26193   -1156.9914    6342.8917    11579.172    1887.2993 
  375000    300.04083   -1163.7548    6333.1195    11579.277    1920.1591 
  375100    294.20672   -1165.7519    6459.7796    11579.303     1901.678 
  375200    297.68241    -1165.435    6385.1473     11579.24    1867.1958 
  375300    297.43771   -1164.8341    6389.8707    11579.337    1901.8762 
  375400    300.10538   -1165.2934    6333.3346    11579.332    1879.4755 
  375500    301.07807    -1163.325    6310.5976    11579.343    1917.7151 
  375600    298.71518   -1164.8816    6362.6431    11579.353     1930.384 
  375700    295.10858   -1159.3511    6434.1701    11579.361    1932.5954 
  375800    298.35767   -1164.3886    6369.8961    11579.461    1957.8352 
  375900    297.30222   -1175.2045    6403.2824    11579.484    1916.3183 
  376000    300.26839   -1171.3242    6335.9955    11579.445    1888.9423 
  376100    297.79329   -1171.8255    6389.3731    11579.444    1930.4896 
  376200    299.73782   -1167.1018    6343.1921    11579.529    1866.4348 
  376300    298.46188   -1163.3913    6366.7227    11579.512    1857.2854 
  376400    298.58991   -1167.3858    6367.9245    11579.454    1828.7124 
  376500    298.06359   -1168.6696    6380.4001    11579.402    1908.5318 
  376600    297.02141   -1170.8416    6404.9047     11579.47    1906.4614 
  376700    299.15957   -1167.5121    6355.8206    11579.394    1949.3777 
  376800     297.3122   -1167.7578    6395.5111    11579.372    1969.3781 
  376900    298.92406   -1170.7573    6364.0566    11579.353    1913.8027 
  377000    297.08206   -1165.7491    6398.4634    11579.417    1908.8747 
  377100     297.7709   -1170.7658    6388.5911    11579.244    1913.6556 
  377200    296.41595   -1163.4371    6410.2256     11579.26    1847.4495 
  377300    297.67755   -1160.9867     6380.822    11579.259    1948.8029 
  377400    298.53839   -1163.0777    6364.5213    11579.258    1923.9085 
  377500    297.72526   -1159.2017    6377.9132    11579.155    1944.3702 
  377600    297.70728   -1156.3532    6375.4249    11579.131    1889.0331 
  377700    298.76014   -1156.3278    6352.9489    11579.173    1891.6913 
  377800    297.96909   -1153.0186    6366.4925    11579.126    1897.1322 
  377900    299.10146   -1161.2055    6350.5471    11579.185    1898.7085 
  378000    293.68476   -1155.2669    6460.2772    11579.135    1945.7233 
  378100    298.93993   -1164.4038    6357.2261    11579.215    1854.3838 
  378200    298.64818   -1165.0625    6364.1598    11579.257    1880.7003 
  378300    295.91595   -1162.0988    6419.5488     11579.24    1887.6364 
  378400    301.84306     -1163.62    6294.4525    11579.246    1857.2824 
  378500    293.02226   -1158.8684    6478.1325    11579.235    1898.5338 
  378600    301.55107   -1165.0541    6302.1697    11579.291    1862.0998 
  378700    296.92155    -1163.548    6399.6972    11579.422    1877.5141 
  378800    295.63286   -1158.1286    6421.7787    11579.392    1876.9211 
  378900    298.48941   -1164.4871    6367.0369    11579.318    1902.0178 
  379000    298.43982   -1173.2541    6377.0274    11579.482    1909.6644 
  379100    297.08242   -1168.8977    6401.6888    11579.501    1898.9391 
  379200    300.02456   -1166.7174    6336.5979    11579.445    1865.7106 
  379300    300.77452   -1167.0665    6320.9117    11579.431    1889.6672 
  379400    299.44515   -1162.8088    6345.0192    11579.397    1884.3096 
  379500    299.65603   -1166.3086    6343.9829    11579.366    1884.1213 
  379600    298.78178   -1164.2265    6360.6124      11579.4    1959.6936 
  379700    296.89075   -1169.3173    6406.2091    11579.507    1981.6854 
  379800    298.11941   -1169.7547    6380.3286    11579.438    1932.2265 
  379900     301.9614   -1168.0489    6296.5428    11579.436    1933.5679 
  380000    295.89808   -1163.0053    6421.0051    11579.408    1966.5139 
  380100     302.5443   -1168.5724    6284.5357    11579.358    1864.0075 
  380200    294.29547   -1167.3961    6459.6007    11579.376    1943.5334 
  380300    297.59926   -1165.0626    6386.6204    11579.309    1899.7657 
  380400    302.10139   -1162.8334    6288.1818    11579.281    1904.2191 
  380500    295.81566   -1165.1046    6424.8316    11579.375     1933.799 
  380600    298.32961   -1160.5666    6366.5305    11579.318    1861.1515 
  380700    298.05379   -1165.2432    6377.0139    11579.233    1936.1289 
  380800    298.75791   -1168.0838    6364.8246    11579.245    1926.4205 
  380900    298.13782   -1167.8757    6377.9209    11579.302    1912.4009 
  381000    297.31485   -1164.5415    6392.1456     11579.28    1846.8014 
  381100    299.40128   -1162.0632    6345.1218    11579.308    1873.7585 
  381200    297.76617   -1160.5153    6378.3908    11579.193    1822.6001 
  381300    297.69585   -1158.8473    6378.2606    11579.228    1897.9661 
  381400    299.88961   -1157.3406    6329.8649    11579.206    1935.3875 
  381500    298.21425   -1160.5498    6368.8689    11579.209    1924.6375 
  381600    298.25749   -1165.7368     6373.177    11579.254    1908.2338 
  381700    294.68519   -1161.2346    6445.1535    11579.416     1919.813 
  381800    297.66006   -1164.4948    6384.7493    11579.305     1912.563 
  381900    299.19744   -1166.9792    6354.4717    11579.387    1920.6265 
  382000    296.53601   -1166.1161     6410.448    11579.369    1936.3103 
  382100     298.0234   -1168.6906    6381.1875    11579.309    1932.9671 
  382200    295.34762   -1164.6266    6434.3612    11579.383    1969.8114 
  382300    298.75641   -1165.5452    6362.4016    11579.329    2016.2785 
  382400    303.22085   -1161.9503    6263.4548    11579.353    1964.1651 
  382500     294.5995   -1158.5683    6444.2665    11579.365    1866.5454 
  382600    299.22239    -1169.684    6356.6763    11579.419     1895.351 
  382700    297.19181    -1169.459    6399.9185    11579.507    1950.1049 
  382800    301.17206   -1171.7551    6317.2544    11579.578    1884.1233 
  382900    295.75892   -1171.6789    6432.7911    11579.548     1917.435 
  383000    300.64675   -1174.6262    6331.1623    11579.393    1851.7413 
  383100    298.68966   -1166.2641    6364.5985    11579.381    1849.1546 
  383200    298.16629   -1166.7748     6376.296    11579.386     1918.551 
  383300    294.67565   -1165.3463      6449.43    11579.377    2002.3695 
  383400    305.34126   -1165.0128    6221.1289    11579.264    1863.4483 
  383500    295.33689   -1165.4132    6435.3393    11579.346    1941.0795 
  383600    296.70119   -1167.6972    6408.4901    11579.359    1948.4851 
  383700    299.24381   -1167.8201    6354.2542    11579.319    1905.8822 
  383800    296.25697   -1165.0444    6415.3474    11579.378    1967.5017 
  383900    297.05185   -1161.8711    6395.0662    11579.252    1922.5688 
  384000    298.01291   -1160.8529    6373.4833    11579.219    1924.8166 
  384100    301.18323   -1158.3232    6303.2761     11579.27    1897.0946 
  384200    296.47213   -1155.1039    6400.6249    11579.193    1941.7962 
  384300    299.42069   -1159.3494     6341.945    11579.259    1904.0227 
  384400    294.96421   -1155.0286    6432.7568    11579.186     1883.324 
  384500    300.05631   -1160.7099    6329.7178     11579.25    1846.6666 
  384600    298.71245   -1162.8005     6360.504    11579.237    1852.5881 
  384700    296.55963   -1163.1192    6406.8372    11579.259    1863.2948 
  384800    296.40193   -1162.0922    6409.1834    11579.264    1846.6839 
  384900    297.11508   -1160.1199    6391.9659    11579.254    1852.3813 
  385000    299.10447   -1161.7367    6351.0323    11579.204    1883.0774 
  385100      295.445   -1159.7834    6427.3065    11579.252    1891.5835 
  385200    300.58405   -1159.2704    6317.0039    11579.251    1926.0387 
  385300    297.62341   -1165.1954    6386.2599    11579.332    1907.6344 
  385400     296.3917   -1163.4703    6410.8535    11579.337    1926.9542 
  385500    300.97579   -1164.2061    6313.6227    11579.302     1907.203 
  385600    294.50984   -1160.3474    6447.9714    11579.375    1951.9154 
  385700    300.77361   -1168.6735    6322.5562    11579.449    1904.3628 
  385800    296.33885   -1171.1915    6419.7825    11579.416    1926.5879 
  385900    298.14922   -1172.5298    6382.5259    11579.497    1923.7007 
  386000    295.86217   -1171.9276    6430.6984    11579.412    1928.6516 
  386100    298.21538   -1165.4861    6373.9682    11579.396    1877.3481 
  386200    301.73463   -1165.4241    6298.7806    11579.454    1901.7076 
  386300    297.13054   -1163.6941    6395.4046    11579.449    1952.6679 
  386400     303.6504   -1163.3556     6255.795    11579.464    1940.2191 
  386500    294.63286   -1165.3848    6450.4378    11579.432     1956.434 
  386600    295.68919   -1169.1232    6431.6818    11579.504    1886.4377 
  386700    303.34333   -1164.4027    6263.3554    11579.418    1866.7266 
  386800    298.23107   -1168.1397    6376.3429    11579.452    1945.4806 
  386900    296.71574   -1171.4334    6411.9404    11579.384    1850.4915 
  387000    295.90151   -1163.6693     6421.551    11579.363    1819.9629 
  387100    296.19506   -1169.5721    6421.2314    11579.412    1911.4339 
  387200    297.48368    -1164.048    6388.0807    11579.315    1914.1326 
  387300    301.50668   -1157.4898    6295.4632    11579.201    1920.8004 
  387400    295.60498   -1157.9765    6422.0481    11579.218    1887.0456 
  387500    296.24757   -1158.2481    6408.5565    11579.183    1822.4898 
  387600    298.82923   -1162.3516    6357.4013    11579.078    1869.4473 
  387700    297.01914   -1161.3878    6395.2364    11579.207    1909.4273 
  387800    300.79525    -1160.979    6314.1012    11579.151    1925.9969 
  387900    296.85895   -1156.3093    6393.5659    11579.193    1878.7464 
  388000    295.69095   -1160.7119    6422.8989     11579.17    1862.6771 
  388100    294.29079   -1156.5015    6448.6993    11579.269    1898.0739 
  388200    299.09714   -1162.8519    6352.2598    11579.159    1895.0749 
  388300    298.97204   -1158.6687    6350.7553    11579.166    1927.3925 
  388400    299.69811   -1157.7398     6334.301    11579.151     1882.433 
  388500    296.37257    -1150.594    6398.2184     11579.17    1933.1889 
  388600    294.39666     -1158.39    6448.2495    11579.192    1865.6967 
  388700    296.57087   -1163.6699    6407.0699    11579.182    1928.8472 
  388800    299.68907   -1165.4307    6342.2539     11579.22      1909.87 
  388900    297.23286   -1164.2271    6393.5966    11579.293    1904.1592 
  389000    300.12458   -1170.7518    6338.3447    11579.294    1857.8623 
  389100    291.43734   -1167.0122    6520.2544    11579.354     1869.548 
  389200    300.48804   -1168.8684    6328.7634    11579.361     1799.701 
  389300    298.08182   -1167.8555    6379.1801    11579.385    1947.9403 
  389400     299.0996   -1167.6759    6357.2923    11579.421    1951.8715 
  389500    299.24098   -1161.2911    6347.8348    11579.368    1861.2812 
  389600    300.08666   -1161.1834     6329.612     11579.32     1833.589 
  389700    297.25265   -1168.0664    6397.0976    11579.378    1931.4562 
  389800    298.95653   -1172.7308    6365.3603    11579.377    1916.1337 
  389900    294.47999   -1166.9035     6455.174    11579.384    1912.5444 
  390000    303.16895   -1171.7217    6274.4695    11579.487    1934.5046 
  390100     295.0301    -1171.166    6447.7616    11579.461    1906.7635 
  390200    298.30721   -1169.5689    6376.0484    11579.355    1894.6813 
  390300    296.08685   -1171.0274    6424.9358     11579.35    1957.1111 
  390400    297.42068   -1165.2204    6390.6342     11579.35    1991.9525 
  390500    297.06032   -1162.4637    6395.5151    11579.289    1914.5159 
  390600    299.31654   -1161.8571    6346.7729    11579.354    1892.5323 
  390700    296.38925   -1164.1133    6411.5726    11579.361    1937.3946 
  390800    298.20784   -1161.2156    6369.7533    11579.291    1916.2698 
  390900    296.48785   -1160.0003    6405.2536    11579.261     1900.135 
  391000    298.80709   -1161.8872    6357.5304    11579.198    1918.1457 
  391100     299.7048   -1160.6509    6337.1399    11579.222    1865.7055 
  391200    291.90529   -1157.0168     6500.112    11579.204    1898.8968 
  391300    300.60042   -1158.8624    6316.1288    11579.133    1888.2305 
  391400    298.93247   -1163.1204    6356.0342    11579.147     1878.989 
  391500    295.40043   -1158.3942    6426.8501    11579.233    1823.6422 
  391600    300.07112   -1165.3015    6333.9474    11579.205    1791.4298 
  391700    294.79367   -1160.7004    6442.0395    11579.153    1861.1686 
  391800    296.23678   -1166.3448    6416.9835    11579.283    1815.7433 
  391900     299.1839   -1165.0791    6352.7299    11579.256    1888.8722 
  392000    296.39671   -1159.9993    6407.1725    11579.234    1872.0173 
  392100    296.37645   -1158.4809     6406.126    11579.273    1869.9576 
  392200    300.42006   -1168.1375    6329.4949    11579.371    1878.8775 
  392300    293.90687   -1157.6193     6458.057    11579.307    1894.3252 
  392400    298.82341   -1160.4923    6355.8566    11579.268    1849.6224 
  392500    299.17207   -1164.7603    6352.7848    11579.377    1952.8572 
  392600    298.23115    -1165.044    6373.1389    11579.346    1892.2309 
  392700    297.71389   -1167.4726    6386.6348    11579.363    1821.7347 
  392800    299.80243   -1167.5692    6342.1757    11579.425    1850.5086 
  392900    294.50717   -1158.5727    6446.2951    11579.416    1926.8738 
  393000    300.21574   -1160.8809    6326.6246    11579.392    1903.1052 
  393100    300.00871   -1163.7278    6333.9026    11579.401    1918.0923 
  393200    297.62839   -1165.0234    6386.0508    11579.401    1880.6115 
  393300    298.96077   -1160.7318     6353.223    11579.329    1806.0221 
  393400    291.72413   -1160.6142    6507.6568    11579.281    1902.6747 
  393500    301.61029   -1164.6081    6300.3941    11579.227    1849.5653 
  393600    299.23771   -1169.7977    6356.2971    11579.254    1886.2285 
  393700    297.42851   -1163.2811    6388.4241    11579.247    1876.4191 
  393800     298.8493   -1164.4194     6359.153     11579.19    1869.9956 
  393900    296.09221   -1158.2859    6411.9155    11579.185    1831.9511 
  394000    299.09014   -1161.7627    6351.2998    11579.139    1865.9367 
  394100     298.4194   -1163.1792    6367.1331    11579.227    1897.4327 
  394200    297.92114   -1158.7873    6373.3582    11579.199    1876.5315 
  394300    297.60658   -1162.6465    6384.0377    11579.299    1859.8513 
  394400    297.95985   -1160.1637     6373.902    11579.193    1810.2281 
  394500    295.65467   -1160.7849    6423.7978    11579.221    1878.2404 
  394600     299.9241   -1157.4024    6329.2315    11579.247    1888.0257 
  394700    297.53079   -1165.2004    6388.1102    11579.199    1877.5924 
  394800    296.18724   -1165.8241    6417.4781     11579.24    1924.0606 
  394900    297.31297   -1158.1135    6385.7006    11579.222    1885.5316 
  395000    298.85947   -1163.0306    6357.6152    11579.259    1901.8602 
  395100    300.64709   -1164.4482    6320.7865    11579.202    1847.8305 
  395200    295.00777   -1158.3902    6435.3943    11579.392    1912.6231 
  395300    298.79488   -1164.2228    6360.1786     11579.25    1765.4436 
  395400    299.14517   -1158.2652    6346.7727    11579.285    1791.5559 
  395500    296.93277   -1165.9202    6401.7144    11579.307    1902.7337 
  395600    298.24897      -1159.5    6367.1586     11579.29     1866.517 
  395700    298.61668   -1163.6288    6363.3061    11579.164    1818.3769 
  395800    293.12047   -1165.9783    6483.1886    11579.279    1909.7166 
  395900    299.72589   -1161.4606    6337.5945    11579.318    1846.5989 
  396000    297.51295   -1171.6675    6394.9727    11579.213    1826.1323 
  396100    299.31763   -1164.4189    6349.2062    11579.249    1893.0326 
  396200    301.05954   -1158.1648    6305.8381    11579.348    1851.9642 
  396300    294.73444    -1165.874    6448.5988    11579.274    1839.4914 
  396400    297.37487   -1160.9825    6387.2234    11579.199    1824.9301 
  396500    299.61212   -1160.9349    6339.3621     11579.18    1950.2162 
  396600    297.71123   -1160.7291    6379.7862    11579.201    1916.8849 
  396700    297.19473    -1160.761    6390.8393    11579.188    1885.0037 
  396800    297.54116    -1166.881    6389.6008     11579.23    1936.2723 
  396900    300.98777   -1170.6106    6319.7653    11579.297    1900.4079 
  397000    297.68103   -1166.1713    6385.9644    11579.292    1824.2006 
  397100    294.65481   -1164.6122     6449.045    11579.281    1871.5361 
  397200    296.14308   -1163.2249    6415.8238    11579.241    1876.8904 
  397300       300.45   -1161.8728    6322.5182    11579.299    1864.6657 
  397400     297.4181   -1167.1029    6392.6056    11579.384     1909.605 
  397500    298.15645   -1161.5086    6371.2095    11579.356    1886.1471 
  397600    299.01214   -1167.7113    6359.1121    11579.336    1832.7037 
  397700    294.48003   -1160.2408    6448.3245    11579.198    1813.1785 
  397800    299.00229   -1170.6583    6362.2497    11579.317    1837.2171 
  397900    301.18428   -1167.4589    6312.4053    11579.287    1849.0764 
  398000      295.642   -1164.7555    6428.0658    11579.248    1927.4645 
  398100    299.75754    -1165.233    6340.6427     11579.27    1877.7697 
  398200    297.27194   -1166.7383    6395.2522    11579.273    1911.1621 
  398300    299.78693   -1164.3902    6339.2097    11579.307    1890.8476 
  398400    298.82045   -1166.5566    6361.9736    11579.258      1951.61 
  398500    295.71876   -1162.5197    6424.2345    11579.292    1904.5188 
  398600    298.14727   -1166.4263    6376.2731    11579.306    1836.6391 
  398700    294.85909   -1170.8013    6450.8996     11579.31    1903.5411 
  398800    297.46442    -1166.888    6391.3088    11579.292    1878.2851 
  398900    298.44031   -1163.9983    6367.5334    11579.254    1883.9339 
  399000    294.17381   -1162.1205    6456.8677    11579.319    1915.8453 
  399100    299.86565   -1159.7563    6332.8268     11579.24    1804.2337 
  399200     298.9531   -1162.5771    6355.1925     11579.29    1890.3858 
  399300    296.50969   -1161.7017    6406.5424    11579.315    1929.8616 
  399400    297.71161   -1161.9453    6380.9923    11579.199    1864.1774 
  399500    297.62167    -1159.271    6380.1677    11579.127    1821.2618 
  399600    296.99704   -1159.0014    6393.2812    11579.166     1861.953 
  399700    298.53677   -1160.1552    6361.4931    11579.118    1852.8373 
  399800    296.35845   -1163.3415    6411.2279     11579.13    1839.3698 
  399900     297.0103   -1157.1474    6391.0967    11579.119    1803.5479 
  400000     298.4937   -1161.9018    6364.0684    11579.026    1807.0566 
  400100    294.16814   -1159.8406     6454.545    11579.155    1881.2981 
  400200    298.33227   -1155.7093    6361.4201    11579.122    1856.1818 
  400300    297.09603   -1157.2992    6389.4567    11579.158    1938.8885 
  400400    295.56763   -1160.7527    6425.5945    11579.191    1899.2769 
  400500    298.76126   -1157.4932    6354.0402    11579.123    1830.1176 
  400600    298.07609   -1158.7337    6369.9788    11579.183    1840.1386 
  400700    298.57256   -1157.4421    6358.1232    11579.226    1885.1623 
  400800    301.93073   -1157.0716    6285.9651     11579.18    1868.8781 
  400900    294.02818   -1158.9947    6456.7571    11579.223    1856.2934 
  401000    295.71317   -1160.7152    6422.5967     11579.34    1888.2123 
  401100    299.29837   -1163.9265    6349.1735    11579.297    1843.0843 
  401200    296.79417   -1163.6672    6402.3406    11579.225    1844.4013 
  401300    298.66908   -1159.8288    6358.5087    11579.287    1815.9902 
  401400    296.22878   -1159.5934    6410.4316    11579.312    1798.0684 
  401500    296.45218   -1168.0867    6414.2479    11579.407    1838.8367 
  401600    301.38884   -1166.9343    6307.5436    11579.319    1807.4114 
  401700    297.60047   -1166.6738    6388.2426    11579.346    1870.9512 
  401800    302.62282   -1170.2305     6284.506    11579.348    1848.3264 
  401900    296.65391   -1167.5837    6409.4505    11579.422    1863.1996 
  402000    297.90911   -1166.9503    6381.9581    11579.379    1783.2947 
  402100    299.35637   -1162.5563    6346.6002    11579.333    1766.9755 
  402200    299.58706   -1165.0641    6344.1768    11579.331    1772.3833 
  402300    300.36363    -1167.556    6330.0823    11579.334      1755.18 
  402400    297.52447   -1166.0015    6389.2121    11579.364    1820.4797 
  402500    295.20546   -1170.2431     6442.962    11579.331    1835.9867 
  402600    302.03085    -1166.545    6293.3753    11579.256    1876.3364 
  402700    297.67223   -1160.3837     6380.296    11579.223    1843.6648 
  402800    296.28063   -1167.0711     6416.772    11579.282    1809.9268 
  402900    299.29369   -1163.0617    6348.3174    11579.206    1826.4045 
  403000    295.46163   -1160.1578    6427.2915    11579.218     1895.867 
  403100    299.28346   -1160.4448     6345.836    11579.123    1868.7229 
  403200    298.43828   -1163.2994    6366.7386    11579.115    1854.9122 
  403300    294.63038   -1162.7632    6447.6557    11579.219    1820.2609 
  403400     295.9387   -1161.3271    6418.1699    11579.119    1808.0579 
  403500    300.29794   -1164.1199    6327.8965    11579.181     1832.997 
  403600     295.8732    -1160.328    6418.6104    11579.159    1885.6905 
  403700    300.62032    -1159.814    6316.6152    11579.093    1867.0354 
  403800    296.98981   -1158.3126    6392.6785    11579.097    1845.3318 
  403900    295.94979   -1156.7466    6413.3802    11579.147    1855.2732 
  404000    299.16562   -1159.0459    6346.9269    11579.095    1822.1167 
  404100    296.49659   -1160.0552    6404.9878    11579.127    1812.1158 
  404200    299.36166   -1161.6358    6345.3569    11579.124    1823.0769 
  404300    298.42722   -1167.8555    6371.6232    11579.207    1849.4915 
  404400    294.01951   -1163.2252    6461.1509    11579.201    1785.0666 
  404500    297.52641   -1162.5694    6385.6177    11579.243    1783.4632 
  404600    296.69758   -1165.1006    6405.9399    11579.328    1914.5786 
  404700    299.75432   -1162.6476    6338.0954    11579.239    1866.4223 
  404800    297.54173   -1164.5236    6387.2994    11579.298    1854.7712 
  404900    298.18274   -1166.5863    6375.6908    11579.321    1836.9711 
  405000    296.25164    -1166.801    6417.0919    11579.253    1849.0999 
  405100    301.44845   -1170.3989    6309.7404    11579.325    1862.3687 
  405200       295.08   -1167.5498    6443.0239    11579.406    1897.2834 
  405300    299.75935   -1169.6656    6345.1186    11579.352    1815.0662 
  405400    296.48467   -1170.8198    6416.3307    11579.451    1868.4858 
  405500    301.69403   -1173.0386    6307.1828    11579.374    1844.4401 
  405600    294.75589   -1168.6391    6451.0608    11579.429    1906.9874 
  405700    298.03712   -1167.6121    6379.8838    11579.378    1826.0173 
  405800    298.53293   -1166.9859    6368.5821    11579.294    1844.4462 
  405900    296.80982   -1166.5663    6405.0186    11579.339     1878.691 
  406000    298.82112   -1167.9606    6363.4349    11579.329    1852.9746 
  406100    295.35476   -1167.5139     6437.098    11579.385     1896.682 
  406200    298.48661   -1170.1737    6372.8493    11579.384    1878.6905 
  406300    299.99001   -1166.6057    6337.1295     11579.35    1827.1649 
  406400    296.93913   -1167.0107    6402.7073    11579.346    1845.7894 
  406500    295.75037    -1166.109    6427.1123    11579.256    1895.2191 
  406600    297.67483    -1160.324    6380.1939    11579.236     1866.696 
  406700    300.91597   -1159.0776    6309.6237    11579.154    1874.6143 
  406800    298.21998   -1157.4883    6365.6894    11579.213    1898.9185 
  406900    296.99847   -1166.7953    6401.0643    11579.185    1854.2957 
  407000    299.07441   -1163.8602    6353.8088    11579.214     1908.201 
  407100    300.15492   -1160.5838    6327.4876    11579.253     1894.442 
  407200    293.77522     -1160.85    6464.0532     11579.26    1858.5638 
  407300    298.31758   -1165.2918    6371.4908    11579.296    1852.9216 
  407400    297.65266   -1163.0698    6383.4203    11579.243    1865.6814 
  407500    298.35212   -1160.4945    6365.8833    11579.224    1862.8378 
  407600     299.2251   -1162.7265    6349.5289    11579.288     1863.447 
  407700    294.58964   -1156.2277    6442.0219     11579.25    1823.6491 
  407800    295.30351   -1156.6136    6427.1182    11579.211    1717.4877 
  407900    301.91281   -1161.9601    6291.2663     11579.21    1744.4953 
  408000    297.84557   -1165.9249    6382.2588    11579.347    1863.7482 
  408100    300.68334   -1164.1051    6319.7507    11579.284    1764.6631 
  408200    295.44292   -1165.5711    6433.2437    11579.357    1810.2181 
  408300     298.4882    -1166.104    6368.7351    11579.374    1883.7785 
  408400    296.85704   -1164.4031    6401.8313    11579.323    1864.2317 
  408500    297.74769   -1161.7799    6380.2636    11579.406    1853.6702 
  408600    300.28197   -1163.2976    6327.5414    11579.307    1823.6128 
  408700    298.61054   -1165.2213    6365.2802    11579.415    1766.5443 
  408800    300.38688   -1170.2497    6332.3239    11579.379     1850.868 
  408900    298.80205    -1165.196    6361.0772    11579.328    1835.9182 
  409000    296.39333   -1167.3133    6414.7836    11579.459    1804.8318 
  409100    296.22734   -1171.6912    6422.6297    11579.381    1876.6267 
  409200    304.22913   -1167.5816    6247.5447    11579.352    1915.4113 
  409300    293.89364   -1168.3309    6469.1188    11579.375    1931.0447 
  409400    296.39438   -1170.8517    6418.2306     11579.39    1806.1551 
  409500    296.16401    -1172.031    6424.4069    11579.466    1902.3369 
  409600    298.16247   -1170.9334    6380.4775    11579.328    1857.1773 
  409700    297.12444   -1164.6938    6396.3599    11579.274    1876.9579 
  409800     298.2101   -1161.8793    6370.3982     11579.32     1871.112 
  409900     296.9422   -1162.6251    6398.1908     11579.28    1856.5959 
  410000    298.62099   -1167.3263    6366.9545    11579.208     1781.106 
  410100    299.00843   -1167.9788    6359.4064    11579.284    1830.5549 
  410200    297.37525   -1166.7801    6393.0254    11579.211    1788.2432 
  410300    297.38015   -1162.8249    6388.8794    11579.125    1708.1772 
  410400    298.06294   -1165.2756    6376.7462    11579.128    1789.5422 
  410500    302.54529   -1163.7733    6279.5139    11579.156    1856.1323 
  410600    292.67394   -1154.3823    6481.0631     11579.21    1824.0366 
  410700    298.38866   -1159.1499    6363.7269    11579.193    1843.0356 
  410800    297.34936   -1158.1334    6384.9361    11579.216     1921.686 
  410900    296.70533   -1157.7527    6398.3019    11579.203     1901.519 
  411000    296.60651   -1160.7579    6403.4398    11579.225    1875.5218 
  411100    299.34391   -1159.8362     6343.987    11579.174    1890.4029 
  411200       298.79   -1157.8666    6353.9358    11579.259    1895.4849 
  411300    296.81717   -1164.7969    6402.9937     11579.24    1883.8239 
  411400    295.38237   -1167.8749    6436.6348    11579.151    1874.5809 
  411500    296.71608   -1159.7844    6400.1575    11579.257    1871.0433 
  411600    299.11791   -1163.2561    6352.3047    11579.244    1851.3148 
  411700     299.9495   -1163.1356     6334.431    11579.256    1814.8948 
  411800    298.43476   -1162.3829    6366.0466    11579.264    1810.7113 
  411900    297.23822   -1159.7844    6388.9572    11579.211     1822.885 
  412000    296.42647   -1166.7077    6413.2687    11579.258     1868.701 
  412100    299.42992   -1162.0761    6344.5086    11579.293    1843.7401 
  412200    300.18264   -1164.8196    6331.1809    11579.303    1877.7916 
  412300    296.69383   -1166.9212    6407.8382    11579.326    1800.8617 
  412400    297.70745   -1164.0855    6383.2678    11579.245    1775.4185 
  412500    297.50905    -1168.467    6391.9311    11579.289    1787.1236 
  412600     297.4748    -1171.792    6395.9245    11579.225    1790.0108 
  412700    302.04426   -1175.5589    6302.0964     11579.25    1839.2454 
  412800    296.49624   -1165.8547    6411.0456    11579.378    1873.0441 
  412900    297.46562   -1163.3849    6387.8404    11579.352    1854.1455 
  413000    299.59578   -1166.9984    6345.8543     11579.26    1877.3415 
  413100    298.74334   -1156.8959     6353.975    11579.272    1927.0271 
  413200    295.04477   -1160.5663    6436.6856    11579.298    1925.9608 
  413300     301.6451   -1166.8021    6301.9528    11579.335    1816.5575 
  413400    294.28859   -1165.2166     6457.545    11579.353    1836.4057 
  413500     297.6452   -1165.5224    6386.1283    11579.339    1819.2231 
  413600    300.05244   -1173.5961    6342.7087    11579.273    1845.7243 
  413700    298.88754   -1169.7476    6363.8026    11579.329     1884.178 
  413800    296.57715   -1163.4846     6406.913    11579.344    1886.4432 
  413900    293.49642   -1162.0437     6471.229    11579.286    1912.7172 
  414000      299.418   -1155.0431    6337.6984    11579.261     1884.488 
  414100    300.94845   -1160.5359    6310.3534    11579.119     1902.522 
  414200    294.08534   -1159.6115     6456.178    11579.248    1856.0126 
  414300    298.94124    -1164.762    6357.6615     11579.32    1828.2365 
  414400    295.64954   -1162.2916    6425.4692    11579.276    1847.2602 
  414500    298.50946   -1163.1446    6365.2369    11579.289    1816.7221 
  414600    299.60821    -1167.974    6346.5861    11579.282    1842.2286 
  414700    294.79891   -1168.2442    6449.7583    11579.441     1897.673 
  414800    301.76881   -1163.3055    6295.7808    11579.303    1890.4624 
  414900    297.16813   -1160.7917    6391.5405     11579.29     1879.833 
  415000    299.71895   -1165.9017    6342.1806    11579.314    1774.4012 
  415100     294.5009   -1163.2799    6451.0685    11579.348     1855.579 
  415200    300.48847   -1165.8903    6325.7949     11579.38    1829.4853 
  415300    294.70464   -1165.2579     6448.745      11579.4    1895.5014 
  415400     298.1383   -1169.4675    6379.6484    11579.448    1860.1572 
  415500    299.85747   -1166.9229    6340.3474    11579.419    1875.3811 
  415600    301.68778   -1173.3381    6307.6698    11579.428    1872.8714 
  415700    294.83814   -1166.6463    6447.3179    11579.436    1885.1505 
  415800    298.39558     -1163.34    6368.0061     11579.43    1817.4987 
  415900    295.93937   -1169.5287     6426.647    11579.409    1860.2221 
  416000    300.68219   -1162.4971    6318.2465    11579.363    1859.3009 
  416100    298.93593   -1168.0845    6361.2538    11579.477    1900.2805 
  416200    296.90884   -1175.7209    6412.0843    11579.365    1894.4103 
  416300    297.64079   -1171.8916    6392.6651    11579.412    1861.7354 
  416400    298.09519   -1171.4151    6382.5211    11579.452    1835.9323 
  416500    295.73357   -1166.7781    6428.2727    11579.389    1834.9025 
  416600    299.98754   -1170.3173    6340.8955    11579.352    1796.7965 
  416700    298.42046   -1165.9822    6370.0645    11579.378    1912.5986 
  416800    297.35979   -1156.7701    6383.4548     11579.32    1838.3876 
  416900    299.75411   -1160.4553    6335.9434    11579.275    1841.1744 
  417000    295.87725    -1162.652    6421.0287     11579.34    1922.4168 
  417100    296.09071   -1164.4213    6418.2145    11579.317    1937.1949 
  417200    296.86911   -1165.5385    6402.6371    11579.252    1889.7883 
  417300    300.09107   -1164.9329    6333.1513    11579.204    1816.8532 
  417400    296.12129   -1168.4686    6421.5477    11579.256    1875.1727 
  417500    300.53603    -1166.571    6325.3374    11579.258    1831.7135 
  417600    293.47929   -1159.0611    6468.5012    11579.175    1927.5662 
  417700    299.10701   -1160.2348    6349.3916    11579.119     1892.525 
  417800    299.35654   -1161.1672    6345.0125    11579.138    1865.2335 
  417900    298.74373   -1158.1608    6355.0945    11579.135    1857.2059 
  418000    296.88534   -1163.6304    6400.3215    11579.191    1878.0177 
  418100    293.37855    -1159.289    6470.9559     11579.25    1828.0848 
  418200    298.28924   -1168.8849    6375.5152    11579.122    1843.7241 
  418300    300.55625   -1163.7415    6322.0655    11579.247    1879.5463 
  418400     297.5647   -1164.7232    6386.9296     11579.22    1907.0886 
  418500    296.80794    -1169.632    6408.1044    11579.319    1900.0461 
  418600    294.19279   -1165.7235     6460.007    11579.261     1876.622 
  418700    299.97599   -1165.5515    6336.2006    11579.176    1834.6756 
  418800    297.98981   -1167.2806    6380.5083    11579.323    1890.5362 
  418900    295.72495   -1165.4523    6427.1635    11579.421    1921.9443 
  419000    295.95868   -1165.5701    6422.1609    11579.294    1858.6875 
  419100    301.08012   -1172.6826    6319.8673      11579.3    1864.0817 
  419200    296.81062   -1165.4933    6404.0639    11579.474    1891.4993 
  419300    299.08063   -1169.5644    6359.6174    11579.452    1856.6497 
  419400    298.57705    -1166.499    6367.1568    11579.298    1874.0825 
  419500    298.93409   -1164.9685    6358.0973    11579.397    1937.5561 
  419600    295.27619   -1167.6003    6438.8754    11579.398    1890.3037 
  419700    301.15027   -1167.3421    6313.0974    11579.369    1857.9237 
  419800    296.63282   -1167.2995    6409.5372    11579.343    1936.0511 
  419900    299.66951   -1168.3605    6345.6534    11579.272    1937.6282 
  420000    297.21329    -1165.509    6395.2569    11579.254    1934.3096 
  420100    297.77076   -1165.4941    6383.3593    11579.281    1932.5649 
  420200    298.12374   -1162.5625    6372.8577    11579.251    1921.9213 
  420300    297.97719   -1161.7524    6375.1132    11579.186    1867.4989 
  420400    293.56485   -1164.4783    6472.1259     11579.21    1843.1796 
  420500    296.36101   -1161.4877    6409.4715    11579.282     1843.897 
  420600    298.51667    -1165.028    6366.9305    11579.253    1923.5818 
  420700    300.27163   -1164.6003    6328.9984    11579.241    1841.3534 
  420800    294.80474   -1165.0574    6446.1366     11579.13    1870.3249 
  420900     295.1129   -1158.5059    6433.0724    11579.201    1886.5493 
  421000    298.51619   -1160.2585    6362.1375    11579.219    1877.4531 
  421100    295.78256   -1160.8527    6421.1328    11579.221    1883.0115 
  421200    299.74225    -1162.292    6337.9013    11579.143    1852.1296 
  421300    298.74496   -1160.3505    6357.3615    11579.239    1866.1361 
  421400    301.09901   -1161.9468    6308.6678    11579.239     1854.606 
  421500    298.19082   -1160.7958    6369.6411    11579.235    1857.5045 
  421600    296.72922   -1161.2437     6401.386    11579.307    1908.2162 
  421700    297.99552   -1162.6121     6375.753    11579.358    1849.9616 
  421800    298.15605   -1159.4135     6369.118    11579.351    1900.6794 
  421900     298.3899   -1166.8445     6371.473    11579.271    1890.9415 
  422000    299.34247   -1165.5364    6349.8705    11579.327    1898.1646 
  422100    297.80572   -1159.7155    6376.9101    11579.357    1881.1392 
  422200    294.02286   -1160.3762     6458.386    11579.357    1904.3393 
  422300    300.76854   -1159.0291    6312.8674    11579.297    1880.5084 
  422400    298.68204   -1167.4046    6365.7656    11579.245    1941.7855 
  422500    293.52885   -1163.6331     6472.093    11579.253    1852.0308 
  422600     296.4411   -1164.5031    6410.7893    11579.295    1872.1895 
  422700    302.36224   -1167.8325    6287.6235    11579.296    1812.8059 
  422800    298.33219   -1170.7474    6376.7267    11579.389    1833.5559 
  422900    301.46032   -1167.6478     6306.717    11579.306    1845.0422 
  423000    295.09792   -1168.9508    6443.9019    11579.265    1889.1148 
  423100    298.25046   -1162.0783    6369.7755    11579.361    1917.4188 
  423200    296.34992   -1160.7652    6408.9593    11579.255    1908.4238 
  423300    298.46654   -1163.6231    6366.5729     11579.23    1936.1341 
  423400    295.99542   -1164.0499    6419.8594    11579.298    1921.6339 
  423500     300.6143   -1162.7387    6319.8041    11579.229    1834.6013 
  423600    294.14811   -1164.2234    6459.4847    11579.284    1926.9448 
  423700    299.98684   -1167.2074     6337.746    11579.297    1891.2382 
  423800    297.44986   -1163.0541    6387.7773    11579.283    1898.6083 
  423900    302.93237   -1166.3383    6273.9552    11579.302     1846.939 
  424000    292.74549   -1159.5885    6484.6723    11579.142     1883.772 
  424100    299.22477   -1158.6079    6345.3218    11579.192    1835.1674 
  424200    295.44278   -1164.3317    6431.8698     11579.22    1894.5963 
  424300    304.34381   -1157.5223     6234.835    11579.151    1846.2689 
  424400    294.32277   -1161.8369    6453.2693    11579.187    1905.4353 
  424500    296.62062   -1159.9385    6402.2524    11579.158    1771.8456 
  424600    298.94674   -1165.8956    6358.4969     11579.14     1819.586 
  424700    294.74867   -1162.1073    6444.3806    11579.126    1907.7241 
  424800    300.89731   -1165.4788    6316.3654    11579.096     1803.193 
  424900    296.81828   -1158.9698    6397.0884    11579.186    1789.6503 
  425000    298.43745   -1159.6374    6363.2035    11579.224    1918.4533 
  425100    298.08545   -1159.9221    6370.8835      11579.1     1863.315 
  425200    300.31065   -1159.7059    6323.1408    11579.111    1818.4212 
  425300    299.32943   -1167.4946    6351.8844    11579.104    1859.9667 
  425400    296.05922   -1161.3809    6415.7056    11579.176    1861.8387 
  425500    299.00205   -1155.0374    6346.4206    11579.103    1783.4617 
  425600    294.97235   -1165.8302    6443.4603    11579.262    1894.8331 
  425700    298.18087   -1164.9905    6374.1622    11579.348     1900.438 
  425800    298.60645   -1163.1968    6363.1784     11579.25    1876.9075 
  425900    295.25111   -1163.6359    6435.3417    11579.293    1875.8455 
  426000    297.49283   -1163.4227    6387.2115    11579.266    1879.2695 
  426100     297.7681   -1160.8689    6378.7907     11579.28    1865.6881 
  426200    298.13906    -1159.624    6369.6377    11579.297     1853.613 
  426300    298.40474   -1157.7404    6362.1308     11579.35    1877.7628 
  426400    299.56955   -1166.4155    6345.9811    11579.409     1841.324 
  426500    294.19681   -1164.0264    6458.2771    11579.314    1853.1792 
  426600    297.54881   -1170.6719    6393.3105    11579.312    1878.1345 
  426700    295.21212   -1169.0378    6441.6249    11579.341     1874.011 
  426800    296.04606   -1167.7078      6422.56    11579.422    1857.4436 
  426900    299.24911    -1165.649    6351.9732    11579.322    1815.1457 
  427000    294.85747   -1162.1168    6442.1738    11579.234    1856.0005 
  427100    299.81759   -1163.9416     6338.039     11579.24    1828.8629 
  427200    298.61401   -1163.6915    6363.5851    11579.324    1888.8427 
  427300    299.73087    -1163.854    6339.7804    11579.216    1875.8099 
  427400    297.18204   -1162.3821    6392.8175    11579.274    1847.3464 
  427500    297.77916   -1160.1692    6377.8355    11579.261    1812.9183 
  427600    299.82693   -1166.8249    6340.8204    11579.338    1846.5354 
  427700    294.35989   -1169.7949    6460.6295    11579.382    1884.5778 
  427800    298.67772   -1156.4207    6354.9394     11579.31    1804.0258 
  427900    300.00221   -1164.0892    6334.3429    11579.341      1846.19 
  428000    295.97186   -1166.3968     6422.662     11579.25    1883.0826 
  428100    298.19974   -1161.2985    6369.9731    11579.254    1861.9163 
  428200    296.43573   -1158.5041    6404.9635    11579.354    1845.2362 
  428300    297.66836    -1158.634    6378.6889    11579.283    1928.3681 
  428400    299.57036   -1157.8977    6337.3366      11579.3    1903.9497 
  428500    297.45216   -1160.1481    6384.8414    11579.302    1829.5483 
  428600    296.09154   -1163.4521    6417.2519    11579.341    1850.9165 
  428700    298.34691   -1165.9498    6371.5934    11579.367    1810.7407 
  428800    296.16847   -1165.1504    6417.3296    11579.364    1836.2109 
  428900    299.55041   -1168.8667    6348.7284    11579.297    1878.0846 
  429000    294.18827   -1162.7668     6457.207    11579.321    1870.2808 
  429100    297.02158    -1161.551    6395.4025    11579.262    1839.3115 
  429200    301.89409   -1163.3904     6293.137    11579.251    1871.8356 
  429300    297.52361   -1163.6441    6386.7788     11579.27     1894.685 
  429400    299.64189    -1165.205    6343.0067    11579.191    1863.9433 
  429500    298.67305   -1167.5373    6366.1552    11579.309    1813.0717 
  429600    296.50456    -1168.964     6413.981    11579.382    1859.8345 
  429700    297.92196   -1170.9836    6385.7897    11579.452    1881.7623 
  429800    298.03797   -1161.4487    6373.7073    11579.383    1891.3584 
  429900     298.6428   -1166.5326    6365.8134    11579.326    1905.8596 
  430000    298.28048   -1166.9438    6373.9122    11579.273     1923.978 
  430100    296.52974   -1160.1204    6404.5954    11579.378    1934.8316 
  430200     297.1792   -1161.7877     6392.367    11579.357     1924.456 
  430300     297.0899   -1167.8843    6400.3601    11579.346    1897.0327 
  430400    297.22752   -1165.7045    6395.3483    11579.454    1885.0419 
  430500    298.66817   -1168.1939    6366.9649    11579.358    1843.3244 
  430600    298.47943   -1161.7358    6364.4644    11579.284    1865.2471 
  430700    296.16923   -1160.9904    6413.0453    11579.256    1887.9903 
  430800    299.42651   -1168.3421     6350.892    11579.338    1855.5685 
  430900     299.0718   -1170.0679    6360.1983     11579.34    1867.3228 
  431000    296.23664   -1162.4316    6413.0455    11579.255    1863.4349 
  431100    299.61896   -1163.6932     6342.017    11579.223    1810.9704 
  431200    296.55958   -1166.0709     6409.845    11579.314    1873.9959 
  431300     295.5283   -1158.4945    6424.2109    11579.225    1812.2001 
  431400     294.6805   -1163.9745    6447.8369    11579.259    1855.1594 
  431500    298.19855   -1162.6748      6371.35     11579.23    1870.2166 
  431600    298.65716   -1163.0667    6361.8928    11579.178    1831.9908 
  431700    298.44909   -1157.4009    6360.7189    11579.225    1885.3105 
  431800    295.68366   -1158.2277      6420.63     11579.23    1891.4588 
  431900    299.67067   -1161.9063     6339.138    11579.236    1853.3784 
  432000    298.60031   -1161.9812    6362.1076    11579.264    1918.8228 
  432100    300.27042   -1162.4088    6326.7822     11579.19    1862.7733 
  432200    295.68336   -1162.9727    6425.3273    11579.176     1888.115 
  432300    297.39667   -1164.2262    6390.0356    11579.233    1939.8348 
  432400    297.74838   -1159.1423      6377.53    11579.325    1887.8673 
  432500    295.82829   -1163.8699    6423.2996    11579.347    1847.8241 
  432600    296.55559   -1167.4126    6411.2689    11579.312    1846.9695 
  432700    298.93923   -1166.1794    6359.1282    11579.327    1909.2145 
  432800    295.75671   -1171.1243    6432.0645    11579.329    1892.3608 
  432900    299.89137   -1169.4632    6342.1244     11579.38    1901.7949 
  433000    298.20335    -1169.069    6377.7746    11579.362    1966.5236 
  433100    300.33114    -1169.399    6332.6539    11579.369    1923.1493 
  433200    297.20137   -1169.8421    6400.0173    11579.426    1921.8122 
  433300    298.36448   -1170.8694    6376.1902     11579.42    1953.3209 
  433400    299.29572   -1166.7524    6352.2007    11579.442    1887.9942 
  433500    298.96481   -1173.3834    6365.8414    11579.382    1836.6222 
  433600    299.93283   -1164.7795    6336.6361    11579.461    1874.5445 
  433700    296.17958   -1174.0708    6426.1553    11579.507    1908.8646 
  433800    299.16418   -1168.2618    6356.5484     11579.47    1818.9187 
  433900    298.99999   -1168.3391    6360.0518    11579.389    1897.9904 
  434000    298.45582   -1171.1718    6374.5281    11579.407    1937.5529 
  434100    301.70999   -1170.8296    6304.6382    11579.379    1867.4551 
  434200    294.40274   -1162.6794    6452.5367     11579.32    1846.7686 
  434300    297.83863   -1163.4591    6379.9225    11579.329    1869.6864 
  434400    293.63685   -1161.6721    6467.9623    11579.391    1938.6324 
  434500    300.93759   -1161.1901    6311.4225    11579.302    1880.8051 
  434600    297.38342   -1163.3923    6389.5199    11579.268    1967.2536 
  434700     296.2588   -1159.5331    6409.6197    11579.201     1940.265 
  434800    297.38201   -1160.8452    6386.9208    11579.186    1878.6789 
  434900    294.49843    -1159.518    6447.1671    11579.156    1862.9796 
  435000    298.44457   -1157.1016    6360.4388    11579.147     1889.066 
  435100     299.8734   -1159.5611    6332.4438    11579.218    1915.1402 
  435200     293.7493   -1155.5471    6459.1786    11579.135    1940.6036 
  435300    300.12447   -1158.3334    6325.7871    11579.152     1897.796 
  435400     295.1112   -1156.2978     6430.849    11579.149    1913.2142 
  435500    301.25948   -1160.3199     6303.518    11579.145    1862.6039 
  435600    297.32745   -1162.0399    6389.3515    11579.256    1871.3822 
  435700    297.33823   -1163.1829    6390.2935    11579.286    1822.5147 
  435800    299.56586   -1160.2884    6339.7673    11579.244    1844.4149 
  435900    293.24803   -1166.6657    6481.2182    11579.347    1910.6716 
  436000    299.66128   -1163.4484    6341.0102    11579.365     1917.541 
  436100    298.34451   -1168.4392    6374.0809    11579.314    1831.4805 
  436200    299.06597   -1160.3885    6350.7498    11579.447     1833.991 
  436300    296.48812   -1164.7595    6410.1349    11579.389    1906.0135 
  436400    298.86871   -1165.6268     6360.145     11579.39    1886.0674 
  436500    299.39932   -1166.2771    6349.5102     11579.44    1853.6247 
  436600    295.63605   -1173.3866    6437.0418    11579.466    1897.1397 
  436700    297.78118    -1169.262    6387.1304    11579.506    1853.5075 
  436800    301.20439   -1171.6416    6316.3887    11579.517    1848.4065 
  436900    297.13896    -1166.474    6398.1151    11579.559    1848.9986 
  437000    295.88647   -1173.4563     6431.825    11579.529    1819.8656 
  437100    298.99049    -1171.792    6363.8814    11579.562    1802.5496 
  437200    296.49822   -1168.8398    6414.0942    11579.484    1878.1148 
  437300    297.76345   -1167.0082    6385.2669    11579.518    1913.3956 
  437400    299.62792   -1164.4885     6342.753    11579.355    1891.6141 
  437500    295.52625   -1161.2332    6427.0967    11579.328    1961.3662 
  437600    300.47207   -1166.8748    6327.1303     11579.38    1888.8497 
  437700    295.95022   -1163.8242     6420.594    11579.292    1883.9692 
  437800    297.92712   -1158.3492    6372.8514    11579.258    1837.8977 
  437900    299.51383   -1158.2729    6338.8482    11579.229     1867.968 
  438000    296.31979   -1158.1887    6406.9899    11579.219    1859.9848 
  438100    299.35377    -1167.845    6351.7737    11579.163    1832.5497 
  438200     299.1259   -1156.3929    6345.2225    11579.195    1807.2115 
  438300    299.97544    -1158.854    6329.4349    11579.096    1836.6379 
  438400    296.66893   -1151.0349    6392.2667    11579.108    1831.9599 
  438500    298.11212   -1151.7007    6362.0212    11579.029    1852.7579 
  438600    297.72159   -1155.7718    6374.4529    11579.046    1846.4207 
  438700    294.91053   -1158.3324    6437.0522    11579.031    1900.0727 
  438800    299.50447   -1159.7111    6340.3969    11579.139    1886.0854 
  438900    295.78468   -1160.0758    6420.2792    11579.189    1875.3687 
  439000    299.11482   -1165.4433    6354.5093    11579.195    1901.2789 
  439100    297.89359   -1161.6263    6376.7108    11579.124    1940.0059 
  439200    299.59618   -1160.3791    6339.1366     11579.17    1864.1665 
  439300    297.34797   -1161.3042    6388.1622    11579.241    1937.4463 
  439400    298.63186   -1163.1937    6362.5845    11579.202    1954.5947 
  439500     297.6907   -1160.5341    6380.1457    11579.317    1956.5599 
  439600    299.06274   -1162.3844    6352.7069    11579.339    1892.7762 
  439700     298.6589   -1170.6818    6369.6609    11579.368    1933.2236 
  439800    297.94779   -1172.4592    6386.7588    11579.497     1916.599 
  439900    303.28134   -1172.5576    6272.8032    11579.386     1858.404 
  440000       295.66   -1168.5767    6431.6634    11579.409    1948.4951 
  440100    299.28198    -1171.275    6357.0143     11579.44     1904.386 
  440200    297.96935   -1168.2515    6381.9915    11579.398      1967.15 
  440300    295.53168   -1169.4053    6435.3189    11579.495    2015.9259 
  440400    300.64214   -1166.4045     6323.061    11579.414     1885.665 
  440500    297.78515    -1168.868    6386.5445    11579.399    1886.9359 
  440600    298.12102   -1170.2243    6380.7711    11579.445    1881.9754 
  440700    299.75935    -1171.814    6347.3328    11579.417    1879.4445 
  440800     300.3538   -1173.0465    6335.9221    11579.474    1850.6883 
  440900     298.6562   -1164.0994    6363.1609    11579.393    1837.9531 
  441000    297.21092   -1166.8061     6396.659    11579.308    1912.5178 
  441100    295.72256   -1159.3649    6421.0637    11579.358    1905.7393 
  441200    297.71299   -1156.2024    6375.1806     11579.16    1858.5428 
  441300    298.11289   -1155.0922    6365.5468    11579.179    1877.8495 
  441400    294.20174    -1159.809    6453.7629    11579.123     1877.146 
  441500    298.64781   -1159.3223    6358.3049    11579.135    1801.9572 
  441600    296.54709    -1163.464     6407.384    11579.194    1885.0089 
  441700    299.12502    -1156.613    6345.3805    11579.115    1862.5987 
  441800    297.69573   -1156.7907     6376.121    11579.143    1889.8412 
  441900    298.97787   -1161.1395    6353.0134    11579.077    1866.1119 
  442000     296.5771   -1159.7508    6402.8981    11579.062     1931.478 
  442100    298.57917    -1155.676    6356.0192    11579.029    1889.2841 
  442200    297.47584   -1156.7288    6380.6258    11579.012    1919.2852 
  442300    296.91664    -1157.203    6393.1287    11579.094    1874.8686 
  442400    294.43457   -1155.1608    6444.1343    11579.116    1866.5045 
  442500    296.00069   -1160.4884    6415.9995    11579.112    1918.6919 
  442600    300.75255   -1163.2985    6317.3016     11579.12    1855.6841 
  442700    299.19914   -1165.6574    6352.8694    11579.142    1884.1969 
  442800    296.39426   -1160.9538    6408.0728    11579.128    1962.2468 
  442900    298.26644    -1161.944    6369.1576    11579.218    1884.6091 
  443000    297.68817   -1166.0552    6385.5701    11579.166     1874.059 
  443100    299.53471   -1160.1074    6340.3005    11579.293    1969.8116 
  443200    294.64703   -1164.3289    6448.9493    11579.302    2006.7575 
  443300    297.35743   -1167.6939    6394.3869    11579.278    1905.4613 
  443400    298.40361   -1165.8688    6370.2242    11579.291    1865.0321 
  443500    297.17209   -1162.4254    6393.0136    11579.214    1912.4792 
  443600    298.99875   -1164.0948    6355.6232    11579.178     1919.047 
  443700    297.15829   -1162.1941    6393.0866    11579.223    1932.4695 
  443800    298.68851   -1165.9607    6364.2103    11579.271    1902.9157 
  443900    295.06417   -1160.7401     6436.333    11579.186    1864.5393 
  444000    300.49763   -1165.7724    6325.2971    11579.195    1818.9584 
  444100    295.84024   -1164.5995    6423.5676    11579.141    1887.2704 
  444200    299.01759    -1158.473     6349.607    11579.186    1864.3027 
  444300     297.9128   -1164.1463    6378.8643    11579.168    1786.3157 
  444400    296.75377   -1164.7822    6404.2465    11579.153    1788.8172 
  444500    294.60604   -1163.0168    6448.3872    11579.176    1935.9425 
  444600    299.54614   -1155.6167    6335.3905    11579.117    1865.8111 
  444700    299.10893   -1156.7329    6345.9148    11579.185    1940.3052 
  444800    298.44065   -1157.8283    6361.2474    11579.146     1909.325 
  444900    294.67604   -1159.1858    6443.0775    11579.193    1876.3836 
  445000     300.0018   -1163.5572    6333.6617    11579.183    1827.1317 
  445100    296.16025   -1159.6397    6411.7643    11579.134    1791.8966 
  445200    298.37855   -1161.7228    6366.5527     11579.23    1885.6272 
  445300    299.23495    -1161.586    6348.1364    11579.246     1855.381 
  445400    297.03735    -1158.899    6392.3647    11579.213    1863.4496 
  445500     297.5747   -1158.8767    6380.9026    11579.253    1858.8667 
  445600    298.42501   -1161.2032    6365.0609     11579.25    1866.3632 
  445700     301.8617   -1165.0063     6295.444     11579.25    1865.8456 
  445800    298.28434   -1165.3846    6372.3505    11579.353    1928.0685 
  445900    297.37595   -1168.9423    6395.3135    11579.352    1841.0462 
  446000    293.93775   -1163.6559    6463.4255    11579.299    1893.3813 
  446100    299.12446   -1167.2643    6356.2197    11579.291    1957.2411 
  446200    299.67594   -1174.7428    6352.0418    11579.416    1914.5852 
  446300      299.076   -1169.1275    6359.2266    11579.399     1788.879 
  446400    297.39382   -1172.2727    6398.3094    11579.399    1908.0317 
  446500    298.43667   -1172.1054    6375.7399    11579.276    1809.8427 
  446600    296.32622   -1166.1309     6414.854    11579.278    1888.1136 
  446700     300.5592   -1157.2253    6315.5384    11579.299    1919.4277 
  446800    295.50211   -1152.2013    6418.5015    11579.249    1906.5984 
  446900    296.81377   -1163.5117    6401.7442    11579.203    1849.4256 
  447000    302.40394   -1166.6805    6285.5795    11579.295    1939.8815 
  447100     298.3316   -1167.5723    6373.4721    11579.297    1911.6115 
  447200    295.09926   -1168.5231    6443.4545    11579.274     1839.672 
  447300    295.29193   -1165.1427    6435.9529    11579.269    1822.7968 
  447400    300.04792   -1159.7761    6328.8881    11579.175    1815.4461 
  447500     295.9092   -1158.9891    6416.4526     11579.11    1880.7742 
  447600      300.724   -1150.6411    6305.1764    11579.042    1835.7639 
  447700    297.99414   -1156.5467    6369.3838    11579.025     1888.501 
  447800    297.32073   -1158.3711    6385.6588    11579.089    1888.8793 
  447900    297.31701   -1160.4271    6387.8307    11579.125    1920.0403 
  448000    294.91243   -1157.3239    6436.1897    11579.217    1896.6482 
  448100    298.51862   -1159.5602     6361.315    11579.147    1835.8705 
  448200    295.09472   -1155.0034    6429.8711    11579.114    1888.1515 
  448300    298.44535   -1162.1745    6365.5943    11579.247    1931.1948 
  448400     293.7057   -1160.0662    6464.6895    11579.195    1895.9356 
  448500    295.78072   -1157.0362    6417.3798    11579.245    1898.5783 
  448600    298.25655   -1158.9226    6366.3239    11579.195    1953.2951 
  448700     296.9937   -1159.8468    6394.2482    11579.216    1942.5477 
  448800    300.28964   -1163.8974    6327.9616    11579.292    1846.6589 
  448900    296.88961   -1167.0376    6403.7854    11579.339    1927.2184 
  449000    297.86824   -1162.3325    6378.1598    11579.325    1877.3445 
  449100    297.88431   -1168.0967    6383.6447    11579.389    1875.0496 
  449200    299.37282    -1169.875    6353.6109    11579.377    1921.0114 
  449300    298.17984   -1165.4537    6374.6382    11579.339    1958.8425 
  449400    296.96816   -1167.3784    6402.4331    11579.324    1879.3784 
  449500    298.32655   -1171.0813    6377.1563    11579.364    1878.0167 
  449600    298.09064   -1167.4002    6378.5508      11579.4    1972.0206 
  449700       300.57   -1165.3182    6323.3716     11579.27    1900.7232 
  449800    296.59431   -1166.8784    6409.9914    11579.395    1913.5667 
  449900    296.48952   -1171.5355    6416.8776    11579.386    1999.4191 
  450000    302.39432   -1172.4457    6291.6302    11579.375    1901.8832 
  450100    297.74025   -1167.8621    6386.4442    11579.346     1878.928 
  450200     297.0163   -1162.2925    6396.3761    11579.381    1909.1901 
  450300    298.30643   -1166.2717    6372.7432    11579.331    1934.1156 
  450400    296.13162   -1157.4066    6410.2994     11579.29    1931.7108 
  450500    298.22154   -1167.7122    6375.9113    11579.245    1912.6265 
  450600     300.1865   -1162.7153     6328.846    11579.155    1918.1973 
  450700    297.60408   -1160.0092    6381.3214    11579.167    1881.9096 
  450800    297.43797   -1160.4481    6385.3623     11579.22      1879.93 
  450900    298.37337   -1161.3762    6366.2345    11579.147      1894.36 
  451000    293.67475   -1160.6694    6465.9506    11579.192     1893.021 
  451100    298.88225   -1160.4839     6354.411    11579.088    1836.3999 
  451200    300.13771   -1159.7574    6326.9117    11579.136    1885.4139 
  451300    298.62915   -1159.3634    6358.7771    11579.167     1859.166 
  451400    296.78689   -1156.8234    6395.5661    11579.139    1871.8456 
  451500     299.8626    -1156.835    6329.8335    11579.103    1848.4037 
  451600    296.31336    -1158.003    6406.8679    11579.145    1868.7882 
  451700    297.84954   -1159.3864    6375.4533    11579.165    1821.7441 
  451800    296.84381   -1159.3781    6397.0046    11579.239    1865.7019 
  451900    296.76281   -1160.9432    6400.3655    11579.304    1858.3194 
  452000    299.71835   -1163.2868    6339.5663    11579.302    1844.8547 
  452100    297.47371   -1158.2409     6382.551    11579.379     1799.617 
  452200    296.72478   -1168.6897    6409.0176    11579.398    1802.4643 
  452300    298.33155   -1162.6726    6368.6796    11579.403    1881.3301 
  452400    298.26548   -1166.5937    6373.9665    11579.357    1856.7421 
  452500    297.37442   -1165.7585    6392.1656    11579.355      1888.16 
  452600    301.54894   -1167.6143    6304.8589    11579.375    1874.4889 
  452700    294.68005   -1164.3588     6448.386    11579.414    1847.9596 
  452800    298.87712   -1169.4975    6363.8458    11579.399    1877.2675 
  452900    296.45007   -1170.5949    6416.8442     11579.45    1889.7776 
  453000    295.88945   -1172.6651    6430.9496    11579.509    1919.2709 
  453100    297.45481   -1172.1013    6396.8781    11579.443     1888.932 
  453200    299.97292   -1174.5658    6345.5227    11579.418    1902.5705 
  453300    295.56118   -1170.5994    6435.8622    11579.474    1865.5427 
  453400    298.55172     -1166.86    6368.2155    11579.455    1834.4972 
  453500    299.26512   -1166.3471    6352.4314    11579.424    1916.7398 
  453600    299.56298   -1160.7104    6340.4095    11579.403     1939.463 
  453700    296.69621   -1159.9063    6400.7939    11579.347      1849.39 
  453800    298.28028   -1163.6725    6370.7873    11579.415    1858.7106 
  453900    297.19713   -1166.4638    6396.6584    11579.355    1934.7269 
  454000    297.15789   -1162.7584    6393.8354    11579.399    1903.3562 
  454100    300.20198   -1160.1817    6326.1283    11579.301    1907.5235 
  454200    296.26238   -1159.0768    6409.1213    11579.236    1916.9473 
  454300    297.56571   -1160.5859    6382.7784    11579.227    1853.8817 
  454400    297.77704   -1159.3277    6377.0017    11579.224    1849.3754 
  454500     296.3742   -1161.6238    6409.0879    11579.044     1887.888 
  454600    296.87829   -1158.8843    6395.6289    11579.094    1879.9032 
  454700    295.73874   -1156.5839    6417.7934    11579.214    1869.9911 
  454800    298.65259   -1153.3134    6352.1703    11579.111    1791.5702 
  454900    296.54514   -1157.0585    6400.9207    11579.094    1839.5722 
  455000    292.81881   -1158.5715    6482.0182    11579.071    1848.0241 
  455100    301.23937   -1158.8571    6302.4379    11579.098     1780.016 
  455200    300.03196    -1159.318     6328.673    11579.077    1841.1416 
  455300    297.90325   -1160.8502    6375.7925    11579.188    1845.0367 
  455400    296.45732   -1165.3965    6411.2471    11579.206    1823.4266 
  455500    297.14055   -1162.8252     6394.046    11579.173    1862.2095 
  455600    296.26702   -1154.6195    6404.5092     11579.18    1870.4516 
  455700    299.39143   -1161.2902    6344.5163    11579.265    1856.6968 
  455800    300.65748   -1164.7354    6320.8791     11579.23    1866.7385 
  455900    296.88298   -1159.2654    6396.1455    11579.329    1924.0657 
  456000    298.01672   -1162.9375    6375.6258    11579.358    1839.2603 
  456100    297.46112   -1165.3301    6389.9079    11579.378     1908.934 
  456200    301.61158   -1166.7951    6302.7331    11579.407    1880.7202 
  456300    294.68068   -1169.6929    6453.7135    11579.421    1922.3227 
  456400     299.9809   -1165.1951    6335.9532     11579.39    1823.5984 
  456500    297.57627   -1163.9921    6386.1027    11579.371     1858.469 
  456600    297.86655   -1164.8255    6380.6956    11579.332    1924.5148 
  456700    299.85493   -1165.5711     6338.977    11579.346    1931.7587 
  456800    296.77505   -1165.4073    6404.5825    11579.319      1910.95 
  456900    296.33242   -1170.5041    6419.2265     11579.41    1915.6446 
  457000    298.73152   -1165.9688    6363.3878     11579.36    1886.6205 
  457100     297.9693   -1167.8942    6381.5316    11579.294    1811.8583 
  457200    296.87925   -1167.6027    6404.6762    11579.443     1870.557 
  457300    299.74812   -1165.8727    6341.5623    11579.348    1860.3036 
  457400    298.09503   -1166.1346    6377.0398    11579.248      1851.31 
  457500    297.40571   -1166.9353    6392.6526    11579.334    1892.0202 
  457600    296.47906   -1163.0227    6408.4945    11579.292    1866.2586 
  457700    297.97209   -1158.5834    6372.0551    11579.188    1844.1537 
  457800    297.72678   -1160.0487    6378.7675    11579.195    1941.3519 
  457900    299.47323   -1161.3761    6342.7875    11579.197    1896.9569 
  458000    299.81376   -1160.8359    6335.0772    11579.302    1834.1037 
  458100    294.24531   -1162.5332    6455.6708    11579.237    1910.7928 
  458200     295.3231   -1164.2616    6434.3732    11579.236    1877.7939 
  458300    299.22914   -1164.7071    6351.4291    11579.293    1773.5061 
  458400    297.92867   -1165.1404    6379.6387    11579.287     1851.832 
  458500    298.36808   -1162.7937    6367.8772     11579.26      1897.28 
  458600    299.31071   -1158.8685    6343.7666    11579.212    1818.0034 
  458700    298.33455   -1156.1867    6362.0067     11579.28    1869.5629 
  458800    295.45136   -1155.5699    6422.9215    11579.217    1957.9697 
  458900    297.29577   -1161.1268      6389.03    11579.171    1885.8458 
  459000    301.49571   -1157.5915    6295.8095    11579.211    1874.7219 
  459100    297.11504   -1161.3776     6393.197    11579.226    1912.4623 
  459200    297.60889   -1162.8197    6384.0326     11579.17    1795.8324 
  459300    299.37414   -1164.9668    6348.5805    11579.283    1737.5361 
  459400    299.10837   -1169.1339    6358.4054    11579.263    1827.1869 
  459500    299.74204   -1166.6997    6342.4705    11579.299    1897.1303 
  459600    300.15611   -1160.7057    6327.5985    11579.267    1836.2452 
  459700    294.75396   -1165.7909    6448.0811    11579.256    1889.5221 
  459800    297.97675   -1158.4483    6371.8589    11579.227    1871.4035 
  459900    296.60869   -1165.1998    6407.8808     11579.27    1860.0254 
  460000    296.97035   -1159.9028    6394.8438    11579.257    1846.8792 
  460100    297.92278   -1166.1225    6380.7755    11579.316    1895.2543 
  460200    297.35052   -1157.9212    6384.8219    11579.338    1899.7218 
  460300    298.44749   -1164.6875    6368.0793    11579.265    1839.9177 
  460400    296.01006    -1156.005    6411.4018    11579.198    1799.4538 
  460500    299.47022   -1164.7599    6346.2874    11579.249    1839.5506 
  460600    298.50712   -1167.1028    6369.1479    11579.192    1832.2997 
  460700    298.32744   -1163.3692    6369.3276    11579.266    1848.0238 
  460800    296.91928   -1164.2336    6400.2539    11579.245     1877.695 
  460900    299.16194   -1156.1705    6344.2042    11579.169    1820.2987 
  461000    295.06389    -1162.184    6437.8431    11579.246    1874.3441 
  461100    298.53749   -1167.0995    6368.5298    11579.226    1929.4974 
  461200    298.10157   -1166.6598    6377.3518    11579.175    1926.1652 
  461300    296.43661   -1160.0293    6406.3444    11579.228    1900.7436 
  461400    299.42026   -1159.7133    6342.2946    11579.236    1823.7896 
  461500    298.61979   -1163.0769    6362.8162    11579.293    1834.1373 
  461600    299.72963    -1162.903    6338.9289    11579.289    1805.0672 
  461700    297.16022   -1165.0995    6395.9554    11579.228    1854.8272 
  461800    300.14421   -1171.7733    6338.9596    11579.307    1875.9003 
  461900    297.95479   -1159.4952    6373.4859    11579.338    1922.3565 
  462000    295.43386   -1158.3908    6426.1314    11579.232    1894.5242 
  462100    295.57337   -1158.7925    6423.5371    11579.216    1874.8557 
  462200    296.44849   -1159.7911    6405.9346    11579.311    1885.8842 
  462300    300.82329   -1160.7497    6313.3902    11579.269    1795.6399 
  462400    299.57408   -1165.4267    6344.7345    11579.248    1817.2908 
  462500    297.92499   -1167.5442    6382.1614    11579.327    1810.7068 
  462600    299.05825   -1165.8419    6356.1918    11579.271    1791.6988 
  462700     298.4452   -1160.1284    6363.4913    11579.187    1809.0375 
  462800    296.35519   -1164.7084    6412.8025    11579.268    1880.4986 
  462900    296.77654   -1160.8518    6399.9398    11579.263    1889.2916 
  463000    299.74719    -1158.723     6334.299    11579.215    1813.2446 
  463100    298.58197   -1165.2747    6365.7388     11579.21      1807.88 
  463200    296.19882   -1161.2618    6412.6532    11579.225     1814.258 
  463300    301.58626   -1157.2694    6293.5233    11579.182    1815.0574 
  463400    297.04409   -1162.4286    6395.7471     11579.21    1877.0201 
  463500    298.81282   -1159.5694    6355.0856    11579.193    1837.0353 
  463600    295.90293   -1150.2343    6407.9379    11579.216    1864.6433 
  463700    296.58985   -1162.0382    6404.9674    11579.116    1890.0274 
  463800    296.95882   -1161.3069    6396.4015    11579.164    1839.1516 
  463900    298.51638   -1161.6891    6363.4572    11579.112    1810.0688 
  464000    296.67333   -1165.6124    6406.7206    11579.079    1812.7542 
  464100    297.42976   -1158.0181    6382.9943    11579.107    1853.9515 
  464200     299.3137   -1158.4813    6343.2642    11579.161    1858.9294 
  464300    293.63118   -1162.3798     6468.602    11579.202    1837.4643 
  464400    294.65461   -1157.5568    6441.9589    11579.246    1886.5569 
  464500    300.26773    -1164.478    6328.9752    11579.257    1805.1093 
  464600    296.21446   -1164.1136     6415.238    11579.292    1832.6091 
  464700     301.1531   -1169.0035    6314.6081    11579.279    1847.9396 
  464800    296.81096   -1165.5347    6403.9519    11579.328    1856.0656 
  464900    296.24874   -1165.7875    6416.2941    11579.406     1848.879 
  465000    298.37514   -1166.8397    6371.9216    11579.409    1864.5004 
  465100    299.42475   -1168.6026    6351.3019     11579.45    1895.9421 
  465200     301.4029   -1165.8162    6306.2037    11579.398    1894.5841 
  465300    294.12576   -1162.4506     6458.277    11579.372    1857.8343 
  465400    301.12302   -1163.6156    6309.9675    11579.383     1833.373 
  465500    299.15041   -1163.6085    6352.1173    11579.398    1874.6806 
  465600    296.39301    -1165.086    6412.4068    11579.303    1868.2547 
  465700     296.8814   -1168.6472    6405.5571    11579.325    1885.4792 
  465800    298.69033   -1169.7532    6367.9562    11579.264    1869.6197 
  465900    300.86867    -1164.437    6316.1533    11579.314    1820.2729 
  466000    299.69346   -1166.1921    6342.9406    11579.239    1875.6245 
  466100      295.837   -1160.7322    6419.8148    11579.186    1937.5205 
  466200    293.95756   -1159.5383    6458.8168    11579.231    1882.2544 
  466300    298.23194   -1162.9153    6370.7675     11579.12    1875.1229 
  466400    297.60955   -1159.4939    6380.6474    11579.125    1905.4159 
  466500    298.10711    -1159.779    6370.2936    11579.116    1877.0438 
  466600    295.42988   -1163.0702    6430.7624    11579.098    1940.8359 
  466700    298.64972   -1159.5597    6358.4469     11579.08    1911.5332 
  466800    298.60101   -1155.1419    6355.0919    11579.102    1868.9003 
  466900     295.7817   -1156.6863    6416.8908    11579.127    1895.9459 
  467000    301.29937   -1154.7123    6297.0465    11579.133    1891.8086 
  467100    293.05461   -1155.4856    6473.9544    11579.131    1889.9877 
  467200    298.75114   -1160.3385    6357.1113    11579.133    1880.8281 
  467300     296.1131   -1159.8094    6412.9736    11579.166    1895.8346 
  467400    295.73819   -1163.6479    6424.8632    11579.208    1812.5619 
  467500    302.97114   -1164.4116    6271.0777     11579.18    1816.4504 
  467600    297.57253   -1163.2208    6385.1705     11579.13    1835.0159 
  467700    296.67345   -1161.6749    6402.9139    11579.212    1879.1753 
  467800    295.03913   -1158.7175    6434.9648    11579.306    1916.4737 
  467900    300.92213   -1166.9968    6317.5608    11579.304    1886.7283 
  468000    297.59091    -1166.946    6388.7053    11579.333    1857.4712 
  468100    296.32981   -1162.8873    6411.5468    11579.291    1818.5209 
  468200    292.92728   -1166.0897    6487.5532    11579.405    1868.7965 
  468300    297.38325   -1168.4217    6394.7986    11579.514    1845.1334 
  468400    297.89384   -1162.9018    6378.2778    11579.421    1762.8735 
  468500    297.57883   -1166.4651    6388.5914    11579.441     1878.615 
  468600    297.94391   -1165.4767    6379.8235    11579.461    1946.9123 
  468700    300.12404   -1164.1836    6331.8058    11579.312    1896.9611 
  468800    298.78683   -1161.9982    6358.2286    11579.353    1871.1524 
  468900    296.67319   -1164.9151    6406.2981    11579.351    1888.4881 
  469000    297.14827    -1171.089    6402.2552    11579.283    1884.1334 
  469100    299.48265   -1166.9207    6348.2049    11579.272    1872.6361 
  469200    296.24729   -1164.1488    6414.5575    11579.277    1956.9389 
  469300    294.80446   -1162.0332    6443.1996    11579.211    1886.5439 
  469400    297.68445   -1164.0006    6383.6322    11579.203    1772.6226 
  469500    297.16287   -1166.6658    6397.4845    11579.247    1876.9644 
  469600    298.97329   -1163.6128    6355.7469     11579.24    1866.7941 
  469700      297.937   -1157.9195    6372.1874    11579.235    1834.3841 
  469800    296.10813   -1161.5311    6414.7969    11579.162     1886.726 
  469900    299.09677   -1159.8009    6349.1946    11579.137    1796.8664 
  470000    299.15906   -1156.2432    6344.2823    11579.113    1734.6431 
  470100    297.04698   -1157.5047     6390.681    11579.129    1771.6631 
  470200    296.61852   -1160.0182    6402.3287     11579.11    1858.4344 
  470300    301.25076   -1161.4297    6304.7634    11579.094    1791.1326 
  470400    298.89229   -1158.2407    6351.9619    11579.096    1810.3668 
  470500    296.02646   -1158.6005    6413.7521    11579.303    1836.6382 
  470600    296.76294   -1161.8718     6401.243    11579.256    1832.4049 
  470700    298.21315   -1165.7547    6374.1594    11579.271    1847.9585 
  470800     298.7748   -1160.8861    6357.2892    11579.268    1906.2471 
  470900    297.16462   -1161.2688    6392.0757    11579.273    1843.0039 
  471000    297.13465   -1156.6158       6388.1     11579.31     1855.246 
  471100    298.50412   -1159.8832    6362.0851    11579.284    1878.7777 
  471200    295.80223    -1164.426    6424.4086    11579.343    1981.4126 
  471300    296.22277   -1171.4323    6422.4514    11579.364    1970.7064 
  471400    299.39827   -1164.1468    6347.3401    11579.378    1892.2901 
  471500    298.86101   -1170.6877    6365.4413    11579.461    1852.0828 
  471600    301.62924   -1168.7832    6304.4439    11579.507    1880.2443 
  471700    296.16074   -1171.9307     6424.409    11579.498     1884.004 
  471800     299.1324   -1171.1171    6360.0734    11579.461    1881.5542 
  471900    300.84588   -1173.2597    6325.6398    11579.491    1884.2233 
  472000    297.39887   -1162.2692    6388.1938    11579.395    1884.5262 
  472100    298.18357   -1163.8114    6372.8964    11579.319    1890.6956 
  472200    297.63346   -1161.7014    6382.5108    11579.292    1906.6532 
  472300    299.69013   -1165.3974    6342.2401    11579.263     1849.453 
  472400     298.0659   -1166.2735    6377.9158    11579.363     1794.663 
  472500    292.94546   -1163.3157    6484.3786    11579.393    1896.1292 
  472600    298.75356   -1170.6247    6367.5243    11579.311    1859.9932 
  472700    296.48052   -1163.7216    6409.1824    11579.312    1863.6556 
  472800    299.80899    -1163.773    6338.1412    11579.327    1933.8942 
  472900    297.40756     -1162.36    6388.0152    11579.311    1888.0197 
  473000    297.24193   -1153.3424     6382.327    11579.102    1899.0227 
  473100    296.65354   -1153.0516    6394.5645    11579.061    1899.9176 
  473200    300.12579   -1154.0116    6321.2807    11578.996    1820.2683 
  473300    298.94111   -1158.1208    6350.8242    11579.122    1927.4123 
  473400    297.93538   -1154.4256    6368.5625    11579.069    1932.5267 
  473500    299.39369   -1157.7506    6340.7363    11579.073    1874.0463 
  473600    297.05839   -1162.5141    6395.5162    11579.199    1864.8196 
  473700    299.41737   -1161.1424    6343.7768    11579.227    1828.4567 
  473800    296.97739   -1162.1886    6396.9273    11579.205    1866.6059 
  473900    297.86139   -1161.2691    6377.0477     11579.13    1880.7875 
  474000    298.59755     -1159.99    6360.0968    11579.185     1874.605 
  474100    297.95111   -1156.7669    6370.7088     11579.21    1845.3877 
  474200    297.09753   -1163.8135    6395.9363    11579.156    1851.0419 
  474300    299.92714   -1159.9188    6331.7653     11579.33    1932.3938 
  474400    302.11745   -1165.2804    6290.3054    11579.301    1907.7537 
  474500    296.43598   -1163.5964    6410.0049    11579.308    1858.0665 
  474600    297.07215    -1169.147    6402.0131    11579.357    1890.0257 
  474700    298.88434   -1172.3953    6366.5546    11579.365    1876.5071 
  474800    296.69857    -1169.748    6410.6079     11579.37    1885.4691 
  474900    299.37324   -1169.5391    6353.3034    11579.414     1893.245 
  475000    298.95927   -1167.0202    6359.6358    11579.422    1884.1008 
  475100    294.83486    -1165.508    6446.2993    11579.486    1916.8415 
  475200    301.40741   -1162.1218    6302.4208    11579.406    1872.4158 
  475300    299.70837   -1164.6034    6341.1531    11579.359    1905.7791 
  475400    297.37704   -1167.7375    6394.1219    11579.389    1911.8846 
  475500    295.98658   -1171.1844    6427.2788    11579.394    1880.4333 
  475600    294.79252   -1167.5948    6449.0904    11579.286    1976.5284 
  475700    300.23798   -1168.6837    6333.8424    11579.282    1950.6149 
  475800     296.8099   -1161.8466    6400.2499    11579.291    1899.6969 
  475900      296.886   -1165.2588    6402.0246     11579.28    1872.8364 
  476000    302.70752   -1161.2291    6273.5089    11579.162    1810.0957 
  476100     298.5604   -1156.9137    6357.8021    11579.173     1784.284 
  476200     297.8959   -1161.9822    6376.9652    11579.072    1822.2169 
  476300    294.49916   -1158.5991    6446.1403    11579.064    1869.0323 
  476400    299.12826   -1155.7088    6344.3153    11579.023    1819.3429 
  476500    297.82616   -1158.8716    6375.3878    11579.115    1856.0794 
  476600    295.15571   -1156.9665    6430.4445    11579.027    1840.5564 
  476700    297.81989   -1155.6085    6372.1923    11579.049    1782.4602 
  476800    298.10931   -1157.7272    6368.2111    11579.132    1765.8266 
  476900    297.57398   -1163.9612    6385.8854    11579.136    1844.5233 
  477000    298.75072   -1161.8404    6358.6686    11579.179     1841.104 
  477100    301.28942   -1153.0334     6295.499    11579.052    1816.4556 
  477200    295.66507   -1158.3022    6421.0975    11579.226    1879.2198 
  477300    298.12726   -1160.7483    6370.9212    11579.204    1823.5463 
  477400    296.33124   -1162.1213     6410.637    11579.178    1845.9271 
  477500    299.02643   -1164.9637    6356.0247    11579.302    1888.4415 
  477600     296.1599   -1163.8922    6416.2536    11579.363    1974.6805 
  477700    296.02223   -1167.6032    6422.9289    11579.386     1872.679 
  477800    299.35138   -1165.0519    6349.1748    11579.306    1804.0813 
  477900    298.44713   -1170.9139    6374.5804    11579.532     1936.742 
  478000    296.99985   -1165.7465    6400.3219    11579.522    1894.6821 
  478100    297.17939   -1162.7399    6393.4298    11579.472    1844.6883 
  478200    301.90928   -1165.6771    6295.3088     11579.46    1878.9243 
  478300    297.92353   -1169.9208    6384.7752    11579.534     1933.806 
  478400    297.12407   -1169.6579    6401.5671    11579.509    1877.8315 
  478500    297.22397   -1164.8647    6394.5994    11579.469    1832.2679 
  478600    296.30111   -1166.8564     6416.358     11579.52    1876.0408 
  478700    298.25022   -1170.8067    6378.6756    11579.527    1795.6188 
  478800    299.22076   -1169.5125     6356.584    11579.464    1827.7823 
  478900    298.51933   -1162.3444    6364.2773     11579.34    1894.8005 
  479000    299.37197   -1167.2493    6350.9732    11579.347    1866.2792 
  479100    297.37382   -1166.6143    6393.0546    11579.376    1906.6493 
  479200    296.41932   -1163.4207    6410.1952    11579.318    1897.3479 
  479300    297.16862    -1163.201    6393.9017    11579.252    1903.4203 
  479400    294.79724   -1162.0264    6443.3883    11579.253    1900.1179 
  479500    301.14958   -1156.5011    6302.1083    11579.206    1924.7101 
  479600    299.20271   -1156.9404    6344.1414    11579.208    1879.1019 
  479700    295.96795   -1158.7519    6414.9726    11579.122    1848.2351 
  479800    298.03637   -1159.9867    6371.9434    11579.047    1820.7957 
  479900    298.36381   -1156.0087    6361.1056    11579.182    1884.8822 
  480000    294.82335   -1158.5925    6439.2974    11579.153     1886.719 
  480100    297.36474   -1158.1803     6384.531    11579.092     1897.293 
  480200    297.80126   -1151.8519    6368.8974    11579.113    1910.9451 
  480300    298.99348   -1153.8501     6345.331    11579.018    1831.0118 
  480400     296.1936   -1163.2489    6414.6311    11579.104    1839.3626 
  480500    297.30896   -1162.4258    6390.0263     11579.15    1830.4617 
  480600    298.32182   -1156.6006    6362.5237    11579.111    1866.6189 
  480700    296.77716    -1162.329    6401.3282    11579.188    1837.8908 
  480800    301.07189   -1161.4741    6308.8472    11579.312    1797.2701 
  480900     293.2119   -1166.0577    6481.2836    11579.248     1813.951 
  481000    298.40695   -1171.0269    6375.3047    11579.285    1824.7564 
  481100    300.28487   -1166.2053    6330.4691    11579.389    1857.3227 
  481200    300.01205   -1172.0583    6342.1253    11579.364    1807.4674 
  481300    296.44293   -1165.9131    6412.3498    11579.485    1836.1413 
  481400    297.74158   -1163.3096     6381.965    11579.447    1922.3723 
  481500    299.11739   -1167.7483    6357.0163    11579.452    1984.0813 
  481600    300.24648   -1166.9225    6332.1439    11579.527    1914.0244 
  481700    297.30628    -1162.213     6390.228    11579.508    1945.0347 
  481800    296.05006   -1167.9067     6422.778    11579.527    1967.6103 
  481900    298.76398   -1166.6563    6363.5595    11579.537    1909.1103 
  482000    302.76409   -1170.1359    6281.5453      11579.5     1888.412 
  482100    295.90818   -1168.8916    6426.7076     11579.44    1842.7201 
  482200    299.83909    -1163.344    6337.1653    11579.423    1833.1147 
  482300    298.19199    -1166.769    6375.6825    11579.328    1866.3745 
  482400    295.05343   -1161.2396    6437.1809    11579.305    1888.6738 
  482500    299.50567   -1160.5568    6341.4148    11579.337    1821.8233 
  482600    300.74521   -1162.8892    6317.1157    11579.187    1860.6569 
  482700    297.86973   -1164.2254    6379.8708    11579.175    1875.9259 
  482800    295.86282   -1163.5357    6422.1066    11579.226    1871.8539 
  482900    297.53773   -1161.2165    6383.9463    11579.167    1912.1215 
  483000    300.71083   -1154.2773    6309.1347    11579.083    1870.3685 
  483100    295.27707   -1160.6691    6431.6405    11579.113    1875.7119 
  483200    295.23002   -1155.0575    6427.0848    11579.164    1881.6009 
  483300    299.54698   -1153.4812    6333.2723    11579.153    1829.1336 
  483400    296.74488   -1158.0028    6397.5928    11579.089    1834.6144 
  483500    297.42311   -1155.4853    6380.5539    11579.057     1884.355 
  483600    297.74613    -1158.605    6376.8494    11579.133    1868.4808 
  483700    294.86924   -1155.1519    6434.8087    11579.086    1877.6383 
  483800    297.85335    -1161.414    6377.3901    11579.156     1889.324 
  483900    298.35081    -1163.124    6368.4905    11579.174    1856.3257 
  484000    295.69357    -1158.012    6420.2197    11579.247    1878.0912 
  484100    295.31568   -1166.7451    6437.1081    11579.329    1899.3908 
  484200    299.66375   -1162.2255    6339.6927    11579.323    1869.4673 
  484300    297.11145   -1166.7929    6398.7844    11579.322    1901.5242 
  484400    297.48998   -1169.5114    6393.5103    11579.416    1933.4635 
  484500    299.51607   -1162.0427    6342.7645    11579.423    1837.5923 
  484600     295.0241    -1161.991      6438.73    11579.476    1914.5675 
  484700    301.72942   -1172.1349    6305.5428    11579.394    1858.7015 
  484800    296.39599   -1168.3262    6415.7539    11579.473    1854.8131 
  484900    301.51214   -1172.7849    6310.8991    11579.458    1916.1571 
  485000    298.79311    -1169.967    6366.2708     11579.56    1839.5319 
  485100     295.4379   -1171.5115    6439.4623    11579.528    1849.4731 
  485200    296.88669   -1167.5343    6404.5495    11579.544    1900.2494 
  485300     299.8641   -1170.3547    6343.7182      11579.5    1964.8341 
  485400    300.12633   -1173.0767    6340.7859    11579.448    1955.9777 
  485500    295.35847   -1163.3975    6433.0727    11579.556    1952.6676 
  485600    296.34525   -1168.5193    6417.0611    11579.503    1944.2717 
  485700    298.22362   -1167.0119    6375.3339    11579.412    1899.4709 
  485800    301.08824   -1174.3044    6321.4195    11579.403    1946.6544 
  485900    301.38477   -1168.2495     6308.985    11579.359     1914.167 
  486000    292.63234    -1165.175    6492.8191    11579.285    1900.9628 
  486100    297.05088   -1157.7605    6390.9498    11579.226    1868.5838 
  486200    296.84201   -1161.9421     6399.625    11579.257    1983.2674 
  486300    299.89898    -1163.008    6335.3752    11579.249    1944.2532 
  486400    299.30348   -1158.3877    6343.4497    11579.222    1917.2819 
  486500    295.27054   -1157.5342    6428.7904    11579.258     1982.278 
  486600     296.0149   -1157.1861    6412.4116     11579.13    1921.2421 
  486700    299.02536   -1158.2331    6349.1496    11579.134    1895.5318 
  486800    298.56195   -1158.3282    6359.1682    11579.158     1849.978 
  486900    294.79303   -1160.4874    6441.8285    11579.142    1915.0255 
  487000    300.07062    -1159.727    6328.2536    11579.075     1833.906 
  487100    297.86106   -1158.4414    6374.1519    11579.055    1887.1547 
  487200    300.33877   -1156.2365    6319.0853    11579.126    1924.9058 
  487300    297.22294   -1156.3274    6385.7675    11579.152    1911.2917 
  487400     297.7987   -1162.4178    6379.4707    11579.065    1922.1434 
  487500    296.43706   -1159.1127    6405.2776    11579.088    1972.8124 
  487600     299.8012   -1163.2847       6337.7    11579.208    1872.2326 
  487700    300.21656   -1168.1909    6333.7267    11579.202    1828.2414 
  487800    293.73815   -1158.5258    6462.5264    11579.266    1944.4649 
  487900    302.14908    -1168.062    6292.3519    11579.242    1940.2185 
  488000    293.85669   -1166.5106     6468.025    11579.312     1963.098 
  488100    299.05385   -1161.6377    6352.0773    11579.266    1910.1525 
  488200    299.42232   -1158.6126    6341.1812    11579.267    1939.2085 
  488300    298.31111   -1163.3206    6369.6309    11579.269    1876.1192 
  488400    297.58933   -1172.3769    6394.1937    11579.356    1881.5556 
  488500    299.46393   -1170.2319    6351.9855    11579.341    1929.5379 
  488600    298.27419   -1173.3362    6380.4236    11579.258    1917.5722 
  488700    297.96368   -1166.8784    6380.7436    11579.402    1879.9597 
  488800    297.61223   -1168.2119    6389.5858    11579.403    1879.2338 
  488900    297.47359   -1163.7868    6388.0903     11579.37    1947.1645 
  489000    299.87965   -1166.0315    6338.8875    11579.325    1931.6334 
  489100     298.5176   -1167.6197    6369.5726    11579.324    1971.3452 
  489200    298.33568   -1167.8014    6373.7702    11579.453    1895.5133 
  489300    293.45846   -1165.5443    6475.6315    11579.377    1915.0763 
  489400    301.52137   -1164.2419    6302.0071    11579.307    1928.0043 
  489500    295.46675     -1160.35    6427.5138    11579.358    1876.5215 
  489600    296.04478   -1166.1541    6420.9003    11579.289    1826.6399 
  489700    301.97298   -1161.9761    6290.0929    11579.306    1881.5267 
  489800    297.07176   -1155.7581    6388.4583    11579.183      1947.94 
  489900     296.2469   -1157.3498    6407.6654    11579.176    1929.5447 
  490000    299.81478   -1161.4082    6335.6101    11579.285    1886.8076 
  490100    297.64824   -1158.0349    6378.4591    11579.222    1933.9053 
  490200    299.64471   -1160.8634    6338.5903    11579.176    2000.0388 
  490300    299.15279   -1161.0922    6349.2797    11579.128    1972.2898 
  490400    299.69092   -1158.1982    6334.9217     11579.16    1906.7148 
  490500     296.6429   -1159.3428    6401.0793    11579.057    1907.1615 
  490600    298.05187   -1158.5163    6370.2174    11579.122    1901.3335 
  490700    297.37042   -1158.5961    6384.8182    11579.085    1876.9797 
  490800    300.40041   -1159.3921     6320.942    11579.144    1832.2873 
  490900    297.68964   -1162.8387    6382.2648    11579.108    1905.7262 
  491000      294.946   -1159.8302    6437.8637    11579.102     1884.775 
  491100    299.43502   -1158.8051    6340.9883    11579.153    1875.1884 
  491200    298.96396   -1165.8828    6358.1444    11579.168    1896.8605 
  491300    295.08877   -1163.4847    6438.5374    11579.172    1878.6964 
  491400    299.97197   -1163.1928    6333.9381    11579.186    1831.8943 
  491500    298.25882   -1166.2627    6373.7753    11579.355    1918.0736 
  491600    297.07174   -1165.1399    6397.8249    11579.167    1895.9724 
  491700     299.4351   -1163.6047    6345.8504    11579.217    1864.6907 
  491800    294.89788   -1157.8394    6437.0356    11579.237    1945.2366 
  491900      297.502   -1162.6291    6386.2091    11579.254    1924.5635 
  492000    297.23933   -1162.5668    6391.7857    11579.281    1907.4476 
  492100     298.7346   -1169.6617    6366.9539    11579.299    1955.2455 
  492200    298.85805   -1165.8893    6360.5267    11579.281    1857.7521 
  492300    299.06326   -1161.5409    6351.7745    11579.261    1827.5716 
  492400    299.83639   -1168.8455    6342.6592    11579.358    1863.8478 
  492500    295.78955    -1167.622    6427.9246    11579.393    1877.4986 
  492600    298.04488   -1167.1014    6379.2076    11579.378    1793.2734 
  492700    298.50671   -1168.9001    6371.1353    11579.373    1928.6838 
  492800    295.29562   -1165.8956    6436.7387    11579.381    1890.4963 
  492900    300.52832   -1170.3495    6329.3619    11579.339    1812.9377 
  493000    296.73597   -1162.5688    6402.6237    11579.364    1862.8416 
  493100    299.76519   -1155.1393    6330.4573    11579.341    1881.8584 
  493200    300.86087   -1163.0946    6315.0369    11579.373    1839.4752 
  493300    298.38614   -1162.6003    6367.3526    11579.314    1870.3208 
  493400    296.33283   -1163.3723    6412.0597    11579.384     1946.984 
  493500    300.24159    -1165.433    6330.5641    11579.332    1864.8416 
  493600     299.1149     -1164.54    6353.7272    11579.318    1859.3705 
  493700    298.15864   -1170.4651    6380.0208    11579.257    1903.6561 
  493800    296.85544   -1163.9459    6401.4392    11579.354    1849.8953 
  493900    296.42681   -1168.0257    6414.5575    11579.236    1808.4713 
  494000    295.42214   -1162.3286      6430.29    11579.202    1847.6041 
  494100    299.64441   -1158.6005    6336.2926    11579.135    1846.6314 
  494200    297.72936    -1158.225    6376.9113    11579.217    1920.9191 
  494300    302.19968   -1159.2879    6282.4376    11579.182    1887.5105 
  494400    289.76908   -1153.8219    6542.5168    11579.167    1936.4907 
  494500    298.57262   -1157.8162    6358.4493    11579.179    1860.4349 
  494600    300.52143   -1158.4872    6317.4545    11579.147    1836.9552 
  494700    296.14779   -1160.2809    6412.6721    11579.134    1906.8582 
  494800    296.66116   -1158.4909    6399.8698    11579.089    1916.1494 
  494900     299.9079   -1161.2217    6333.2984    11579.149    1898.7338 
  495000    291.86718   -1163.5551     6507.437    11579.176    1976.5739 
  495100    301.30617   -1157.5868     6299.747    11579.104    1974.3331 
  495200    298.21799   -1166.9829    6375.1239    11579.111    1872.3002 
  495300      297.007     -1163.85    6397.9755    11579.224    1891.7426 
  495400    298.05067   -1159.2683    6371.0662    11579.193     1936.062 
  495500    294.53311   -1154.9158    6441.8468    11579.179    1881.4285 
  495600    300.95447   -1160.9885    6310.7689    11579.211    1889.4163 
  495700    295.75963   -1159.6539    6420.5066    11579.303    1904.6987 
  495800     296.3694   -1156.5208    6404.2991    11579.256    1890.6098 
  495900    299.77604   -1165.1809    6340.1765    11579.251    1898.7012 
  496000    299.58443   -1168.7783    6347.9881    11579.372    1948.4102 
  496100    296.40925   -1166.6727    6413.8118    11579.468    1970.8658 
  496200    298.11666   -1166.6797    6377.3074    11579.433    1911.8432 
  496300    298.11914   -1167.8941    6378.5138    11579.478     1931.064 
  496400    298.13588   -1167.3604    6377.6292    11579.484    1910.7872 
  496500    298.74829    -1167.041    6364.2065    11579.464    1873.4377 
  496600    297.31739    -1163.769    6391.4513    11579.412    1909.0241 
  496700    298.00649   -1164.6544    6377.6592    11579.456    1913.0824 
  496800    298.37921   -1168.2335    6373.2648    11579.445     1871.594 
  496900    299.90294   -1169.4959    6341.9717    11579.442    1853.9852 
  497000    295.75658    -1171.646    6432.7559    11579.495    1910.0598 
  497100    297.45536   -1169.1255    6393.8974    11579.449    1887.7166 
  497200    297.79122   -1175.5547    6393.1254    11579.423     1891.351 
  497300    300.71486    -1169.873    6324.9736    11579.412    1876.2383 
  497400    297.58299   -1163.6576    6385.5844    11579.331    1821.5746 
  497500    296.65958   -1163.8107    6405.4562    11579.322    1872.3761 
  497600    296.35456   -1158.8962    6406.9648    11579.229    1907.6121 
  497700    297.29725    -1161.871    6389.8078    11579.236    1907.9811 
  497800    300.69967   -1162.9277    6318.0423    11579.102    1849.3723 
  497900    297.31345   -1160.3482    6387.8349    11579.132    1887.9122 
  498000    297.79537    -1163.017    6380.2488    11579.173    1871.8822 
  498100    296.24032   -1159.4498    6409.9993    11579.269     1870.531 
  498200    298.95382    -1161.626    6354.1374    11579.201    1830.1361 
  498300    296.60662   -1159.3592    6401.9765    11579.163    1920.2333 
  498400    298.61266   -1157.9411    6357.6747    11579.135    1883.0412 
  498500    296.79197   -1159.2739     6397.951    11579.182    1900.9851 
  498600    299.83585   -1153.0782    6326.5387    11578.993    1859.7225 
  498700    295.43575   -1150.8021    6418.3587    11579.088    1939.7937 
  498800    295.78391   -1156.8969    6417.0241    11579.097    1916.6324 
  498900    299.56304   -1161.5102     6340.904    11579.099    1879.9983 
  499000    297.39152   -1157.6635    6383.4147    11579.065    1908.6182 
  499100    296.62518   -1158.4487    6400.7574     11579.25    1857.3462 
  499200    297.09438   -1165.9085    6398.2351    11579.292    1879.0841 
  499300    297.91609   -1165.3919    6380.0885    11579.217     1911.059 
  499400    296.94798   -1168.9373    6404.3013    11579.202    1971.9081 
  499500    296.44218   -1164.8046    6411.0594    11579.287    1938.0163 
  499600    296.54104    -1164.929    6409.1419    11579.357    1942.7454 
  499700    298.14134   -1162.2631    6372.2254    11579.295     1943.921 
  499800    297.04145   -1162.4721    6395.8702    11579.233    1914.2132 
  499900    296.72923    -1164.707    6404.9108    11579.369    1899.4999 
  500000    297.98162   -1165.8662    6379.3658     11579.42    1907.4021 
  500100    300.14748   -1171.5424    6338.6995    11579.348    1909.2736 
  500200    298.43152   -1176.0126    6379.8717    11579.391    1902.4822 
  500300    294.72511   -1173.5118    6456.7246    11579.562    1950.2037 
  500400     300.1057    -1177.319    6345.4357    11579.414    1895.2002 
  500500    300.38313   -1174.7467    6336.9481    11579.426    1919.9814 
  500600    294.39896   -1164.5826    6454.6328    11579.432    1918.1454 
  500700    302.95287   -1165.5572    6272.8676    11579.434     1905.079 
  500800    298.38561    -1166.421    6371.2312    11579.361    1962.9874 
  500900    299.31784   -1166.0385    6350.8493    11579.277    1892.8365 
  501000    299.64906   -1167.1358    6344.8658    11579.272    1916.8798 
  501100    295.62306   -1164.3218    6428.0752    11579.287    1916.6299 
  501200    294.16041   -1170.0946    6465.0915    11579.283    1905.6874 
  501300    299.18802   -1164.2378    6351.7988    11579.254    1900.5999 
  501400    297.60913   -1163.3914    6384.5767    11579.148     1895.645 
  501500    298.93188   -1165.9413    6358.8718    11579.151    1899.8299 
  501600    301.52387   -1167.7114    6305.2611    11579.144       1876.2 
  501700    296.51197   -1152.5137    6397.0544    11579.064    1856.4431 
  501800    294.84484   -1153.4449     6433.597     11579.06    1876.8033 
  501900     297.0357   -1159.4675    6392.8046    11579.049    1916.7987 
  502000    299.13626   -1157.8487    6346.3148    11579.053    1891.5271 
  502100    298.41367   -1157.1864    6361.0821    11579.046     1807.646 
  502200    294.67485   -1162.2365    6446.0343    11579.074    1830.2134 
  502300    298.76102   -1157.0611    6353.5918    11579.101    1809.1402 
  502400    299.56613   -1159.2818     6338.643    11579.132    1880.2116 
  502500    297.97417   -1160.4627    6373.8013      11579.1    1945.1315 
  502600    297.61888   -1160.8737    6381.8362    11579.133    1849.6127 
  502700    294.24639   -1160.3343    6453.2897    11579.078    1866.9597 
  502800    296.65447   -1157.0631    6398.6531    11579.158    1906.4107 
  502900    297.29709   -1159.3082    6387.2115      11579.2    1958.4207 
  503000    299.60002   -1164.4491    6343.1971    11579.243    1909.3128 
  503100    297.59446   -1161.0845    6382.6634    11579.228    1894.6131 
  503200    297.64306   -1165.1252     6385.745    11579.307    1819.9805 
  503300    296.41721   -1171.5053    6418.3929    11579.386    1902.5862 
  503400    298.75253   -1171.1433     6368.302    11579.548    1849.3397 
  503500    301.37503    -1172.336    6313.3775    11579.457    1901.8808 
  503600    299.56466   -1166.9628    6346.7489    11579.525    1902.5791 
  503700    298.20033   -1164.0372     6372.914    11579.469    1876.0842 
  503800    298.91954   -1171.4935    6365.0751    11579.539    1879.3918 
  503900    298.71355   -1169.3122    6367.2341    11579.479    1901.2157 
  504000    298.23202    -1168.406    6376.6308    11579.494    1909.2866 
  504100    297.22879   -1165.4611    6395.1029    11579.479    1957.4608 
  504200    298.27096   -1167.7161    6375.0576    11579.443    1893.3365 
  504300    297.11497   -1165.5256    6397.5325    11579.412    1919.3387 
  504400    301.66449   -1173.7183    6308.5359    11579.416    1892.2593 
  504500    294.86913   -1169.3948    6449.3091    11579.341    1929.5851 
  504600    297.33136    -1167.582    6394.9291    11579.375    1884.3683 
  504700    297.49963   -1165.4968    6389.1955    11579.322    1971.3332 
  504800    297.63866   -1158.2667    6378.8612    11579.188    1879.1375 
  504900    300.25565   -1160.1148    6324.8086    11579.195    1850.5199 
  505000    300.94468   -1160.2198    6310.2059    11579.207    1919.3216 
  505100    293.51093   -1160.5131    6469.1947    11579.092    1888.5915 
  505200    299.97663   -1158.1201    6328.5769    11578.997    1863.5103 
  505300     297.6332   -1158.2448    6378.8659    11579.098    1924.6442 
  505400    297.13987   -1159.3955    6390.5505    11579.092    1889.8325 
  505500    296.56413   -1155.7294    6399.0642    11578.972    1854.7139 
  505600    295.95593   -1153.9087    6410.1791    11578.915    1824.9039 
  505700    296.91048   -1157.3168    6393.3141    11579.034    1853.7372 
  505800    296.79394   -1154.7507    6393.2311    11579.027    1882.2823 
  505900    297.23498   -1153.3435    6382.3267    11578.953     1903.379 
  506000    299.99424   -1157.3554    6327.4495    11579.011    1927.5178 
  506100    296.41319   -1152.6696    6399.2717    11579.015    1928.5417 
  506200    299.08528   -1156.5782    6346.0971    11579.017    1943.1004 
  506300    297.45633   -1162.4496    6386.7896    11579.038    1892.1122 
  506400    294.76774   -1158.7958    6440.6581    11579.123    1846.7011 
  506500    296.84525    -1159.252    6396.7505    11579.142    1863.4747 
  506600     300.4332   -1157.6668    6318.5615    11579.189    1899.7294 
  506700    295.11681   -1162.0255    6436.5477     11579.24    1930.0206 
  506800    300.42082   -1158.4745     6319.623    11579.178    1900.3254 
  506900    296.73971   -1165.7923    6405.6213    11579.218    1967.8685 
  507000    297.18107   -1160.5641    6391.0125    11579.266    1980.6756 
  507100     299.1646   -1158.2728    6346.3196    11579.239    1923.1429 
  507200    296.40046   -1165.7336    6412.8328     11579.24    1954.6255 
  507300    301.28578   -1164.3149    6307.1624    11579.356    1935.9472 
  507400    292.37495   -1168.3261    6501.5193    11579.335    1927.8876 
  507500    300.92847   -1165.1717    6315.6019    11579.305    1874.1633 
  507600    298.91693   -1167.9204     6361.399     11579.38    1919.0741 
  507700    296.61411   -1169.0551    6411.7234    11579.374    1906.2094 
  507800    297.09964   -1170.4377    6402.8917    11579.532    1860.0907 
  507900    300.67688    -1168.682    6324.6005    11579.419    1882.7828 
  508000    297.20395   -1162.1704    6392.1639      11579.3    1889.1104 
  508100    295.16179   -1160.1916    6433.7607    11579.248    1908.6597 
  508200    301.99547   -1161.7092    6289.2796     11579.24    1975.3142 
  508300    295.57395   -1161.0035      6425.81    11579.291    2000.7181 
  508400    300.18484   -1162.4111    6328.5769    11579.154    1858.5404 
  508500    293.56967   -1161.2213    6468.8851    11579.329    1896.5772 
  508600    300.87196   -1163.8127    6315.4263    11579.281    1870.4369 
  508700    295.14697   -1167.8665    6441.8326    11579.328     1934.304 
  508800    300.65762   -1168.5571    6324.7437    11579.275    1917.8372 
  508900    296.99371   -1158.3179    6392.6865    11579.183     1954.955 
  509000     302.3752   -1155.2273    6274.6211    11579.176    1909.4448 
  509100    293.55979   -1160.0449    6467.8289    11579.238      1971.85 
  509200    299.52575   -1154.9987    6335.1939    11579.103    1930.4374 
  509300    297.03952   -1154.2223    6387.6284      11579.2    1902.1914 
  509400    296.89585    -1162.495    6398.8911     11579.12    1864.1371 
  509500    297.55491   -1160.5727    6382.8933    11579.125    1902.3164 
  509600    297.85789   -1165.1037    6381.0445    11579.218       1867.4 
  509700    295.68213   -1164.5214    6426.9592    11579.233    1868.9345 
  509800    299.57111   -1163.7907    6343.1309    11579.217    1853.8138 
  509900    295.48493   -1157.1836    6423.7482    11579.147    1947.0353 
  510000    299.58851   -1158.9865    6337.8776     11579.14     1854.647 
  510100    295.31198    -1156.329    6426.6552    11579.214    1891.8439 
  510200    295.57902   -1165.8131    6430.4761    11579.255    1891.9825 
  510300     298.7982   -1166.5384     6362.367    11579.194    1825.1611 
  510400    299.16369   -1164.8303    6352.9275     11579.27    1813.7603 
  510500    297.09286   -1166.3601    6398.7784    11579.351    1938.9615 
  510600    298.57567   -1165.7682    6366.4317    11579.274    1916.5775 
  510700    296.74676   -1163.0552    6402.7338    11579.218    1880.4035 
  510800    299.31074   -1165.8115    6350.8081    11579.311    1922.7661 
  510900    299.91173   -1163.4358    6335.5878    11579.306     1943.285 
  511000    299.06201   -1159.0012    6349.2499     11579.25       1925.1 
  511100    297.95512   -1162.7205    6376.6702    11579.304    1896.5828 
  511200    297.74171   -1165.9363    6384.5043    11579.363    1821.0917 
  511300    298.58826   -1163.0718    6363.4738    11579.282    1765.7623 
  511400    296.96395    -1170.647    6405.8393    11579.371    1891.1947 
  511500    296.19267   -1171.4091    6423.0321    11579.325     1888.261 
  511600    298.58661   -1165.2787    6365.7441     11579.31    1830.0618 
  511700    297.52791   -1161.4902      6384.54    11579.277    1887.5171 
  511800    297.75262   -1162.4505    6380.6809    11579.258    1889.2949 
  511900    300.11426   -1156.1679    6323.9204    11579.233    1824.0919 
  512000    294.85648   -1160.8658    6440.9625    11579.253    1876.1043 
  512100    300.45467   -1160.9991    6321.4173    11579.171    1803.4172 
  512200    297.31185   -1166.9318    6394.5365    11579.216    1841.6495 
  512300    296.94151   -1166.1253    6401.6355     11579.21    1789.3359 
  512400    297.67322   -1162.5716    6382.4572    11579.217    1800.1165 
  512500    295.91652   -1164.5307    6421.9095    11579.181    1879.4653 
  512600    300.23901   -1161.1073    6326.1033    11579.142    1860.3816 
  512700    296.22234    -1162.053    6412.8706    11579.153    1878.4867 
  512800    298.38828   -1160.4126    6365.1039    11579.299     1942.351 
  512900    298.83516   -1157.0068    6352.0198    11579.168    1859.5081 
  513000    297.41612   -1155.9903    6381.3318    11579.181    1896.1566 
  513100    297.27544   -1158.5675    6386.9424    11579.209    1992.5775 
  513200    299.26176   -1159.4562    6345.4508    11579.263    1946.8536 
  513300    296.94652   -1159.0417     6394.447    11579.212    1899.6205 
  513400    298.71148    -1163.777    6361.5484    11579.284    1891.6948 
  513500    295.91875   -1164.8649    6422.2713    11579.257    1900.9513 
  513600    301.61715   -1155.4496    6291.1077    11579.246    1880.1278 
  513700     299.6294    -1159.223    6337.2663    11579.166    1926.3958 
  513800    295.61315   -1164.4485    6428.3935    11579.266    1901.7113 
  513900    297.41292   -1162.3877    6387.9452    11579.328    1860.9534 
  514000    299.26326   -1159.2045    6345.1632    11579.259    1930.3831 
  514100    299.14498   -1162.1151    6350.4782    11579.137     1883.156 
  514200    298.29069    -1167.853    6374.6533    11579.323    1899.6405 
  514300    303.18791   -1164.4394    6266.6151     11579.32    1880.7033 
  514400    295.93472    -1164.047     6421.132    11579.276    1961.0799 
  514500     300.1365   -1164.2053    6331.5547    11579.305    1833.5693 
  514600    297.82404   -1163.4027    6380.2631    11579.414    1838.9606 
  514700    296.77456   -1161.3553    6400.5328    11579.311    1778.8093 
  514800     295.0603    -1165.993    6441.6772    11579.195    1829.1911 
  514900    301.23901   -1163.2895    6307.0846    11579.304    1846.4722 
  515000    298.72163   -1166.6865    6364.2904    11579.333    1895.6225 
  515100    297.85275   -1166.5558     6382.673    11579.284    1893.2274 
  515200    296.79194   -1162.2853    6401.0825    11579.302     1889.779 
  515300    297.25344   -1161.4616     6390.377    11579.279    1906.3675 
  515400    300.29347   -1164.8223    6328.8459    11579.333    1832.5334 
  515500    295.95287   -1163.0882    6419.8117    11579.302    1872.0031 
  515600    299.00344   -1164.5779    6356.0878     11579.26    1857.1469 
  515700    294.65811   -1161.6509      6446.02    11579.288      1873.77 
  515800    301.18844   -1168.0097    6312.8071    11579.226    1879.7507 
  515900    300.35871   -1162.7149    6325.2987    11579.287    1892.8575 
  516000    296.32603   -1156.9274    6405.5993    11579.223    1870.3887 
  516100    299.40125   -1158.9352    6341.9006    11579.214    1896.3297 
  516200    296.40786   -1156.9993    6403.9623    11579.262    1934.3517 
  516300    298.61418   -1159.9336     6359.688    11579.188    1835.3399 
  516400    300.48535    -1160.534    6320.3051     11579.18    1873.3282 
  516500    295.56954   -1159.2224    6424.1267    11579.294    1876.9304 
  516600    296.29489   -1162.5774    6411.9388    11579.247     1858.616 
  516700    298.54076   -1157.7227    6359.0963    11579.239    1837.6487 
  516800    297.07336   -1162.5025    6395.2032    11579.217    1942.2527 
  516900    296.72035   -1161.0671    6401.2283    11579.136    1892.2222 
  517000     300.6541   -1157.5412     6313.707    11579.179    1829.7976 
  517100    297.07653   -1161.5975    6394.2283    11579.215    1927.6641 
  517200     301.0344   -1165.2012    6313.2448    11579.182     1836.517 
  517300    294.19398   -1161.8877    6456.1289    11579.244    1772.2791 
  517400    299.50027   -1160.5547    6341.4579    11579.267    1840.1451 
  517500    295.28577   -1162.1163     6433.044    11579.255     1831.117 
  517600    299.65505   -1164.2752    6341.8527    11579.248    1742.1987 
  517700    296.99371   -1164.9427     6399.461    11579.333     1846.455 
  517800    295.89993    -1164.461    6422.2832     11579.27    1877.3518 
  517900    298.50019   -1158.7076    6360.9511    11579.242     1836.328 
  518000    296.63754   -1158.0733    6400.0769     11579.21    1811.8551 
  518100     297.9514   -1160.9574    6374.9948    11579.312    1935.3322 
  518200    299.93053   -1160.9793     6332.634     11579.21    1881.4466 
  518300    295.45266   -1160.9601    6428.2574     11579.19    1866.8809 
  518400    300.03834   -1164.7533    6334.1895    11579.295    1900.9805 
  518500    297.13804   -1161.2665    6392.6916    11579.323    1906.5019 
  518600    295.49496     -1164.83    6431.3713    11579.338    1851.4651 
  518700    297.58448   -1166.3288    6388.1741    11579.281    1864.4948 
  518800    294.84106   -1163.7368    6444.1334    11579.223    1910.6102 
  518900    299.03023   -1157.7769    6348.6689    11579.214    1880.1594 
  519000    294.88827   -1162.5173    6441.9977    11579.316    1873.9368 
  519100    298.53096   -1158.6221    6360.1657    11579.199     1909.888 
  519200    296.13943   -1156.1052    6408.7718    11579.231    1889.4632 
  519300    300.19132   -1162.2939    6328.4053    11579.238    1856.3245 
  519400    297.10919   -1166.3203    6398.2879     11579.25    1860.9298 
  519500    294.45648   -1160.8326    6449.4586    11579.237    1902.6521 
  519600    298.94333   -1162.1931    6354.9034    11579.176    1817.5616 
  519700    297.19941    -1163.148    6393.1087     11579.17    1908.8997 
  519800    299.79882   -1162.1567    6336.6499    11579.235    1867.0975 
  519900    297.09294   -1157.2221    6389.5153    11579.228    1909.0571 
  520000    303.02107   -1160.5214    6266.0974    11579.156    1901.3821 
  520100    294.22591   -1160.9915    6454.5395    11579.233    1987.5636 
  520200    301.78136   -1162.5648    6294.5944    11579.125    1861.3478 
  520300    297.22876   -1164.1409    6393.5214    11579.217    1885.3775 
  520400    298.32238   -1161.9152    6367.9589    11579.244    1872.4673 
  520500    296.53426    -1165.303    6409.5682    11579.265    1889.0016 
  520600    297.83559   -1166.2667    6382.6628    11579.196    1825.9541 
  520700    299.23731   -1164.0323    6350.4228    11579.137    1862.4015 
  520800    297.05589   -1157.6552    6390.7779    11579.266    1897.7098 
  520900    295.27659   -1157.3486    6428.3987    11579.181     1921.878 
  521000    297.36118   -1159.1318    6385.5999    11579.133     1883.487 
  521100    296.92441    -1154.445    6390.2538    11579.143    1979.9218 
  521200    300.81919   -1150.9781    6303.5998    11579.162    1958.6735 
  521300    296.92368   -1159.6383    6395.4891     11579.17     1933.302 
  521400    298.74462   -1162.2971    6359.3028    11579.226    1886.0877 
  521500    297.81288   -1165.6322    6382.5934    11579.276    1837.7207 
  521600    293.53652   -1165.0277    6473.3146    11579.244    1832.4864 
  521700    298.17809   -1163.5433    6372.6715    11579.246    1908.4183 
  521800    298.89945   -1160.3164    6354.0384     11579.25    1912.0491 
  521900    298.26777   -1157.2807    6364.4365    11579.189    1895.6516 
  522000    299.11481   -1157.8307    6346.9216     11579.22    1896.0537 
  522100    295.38477   -1155.9407    6424.7399    11579.242    1957.1817 
  522200    301.59711   -1158.1728    6294.3168    11579.304    1887.9128 
  522300    297.97263   -1159.7966    6373.3061    11579.238    1869.7698 
  522400    297.19092   -1161.3341    6391.5887    11579.283    1895.6561 
  522500     297.5203   -1166.8022    6390.0275     11579.29    1895.0322 
  522600    298.30203   -1164.8872    6371.4662    11579.344    1894.7556 
  522700    298.60324   -1169.0536     6369.192    11579.338    1903.6113 
  522800    295.88394   -1162.4086    6420.6683    11579.366    1883.2861 
  522900    298.27769   -1163.8185    6370.9303    11579.357    1821.4837 
  523000    298.37037   -1164.8324    6370.0203    11579.413    1852.0517 
  523100    301.84836    -1159.812    6290.6364    11579.352    1827.3716 
  523200    297.41668   -1166.6383     6392.232    11579.445    1855.2846 
  523300    294.93151   -1167.3659    6446.0615    11579.455    1902.6879 
  523400    301.19527   -1165.7297    6310.5064    11579.352    1897.0696 
  523500    298.48867   -1163.1976    6365.8273    11579.382    1812.4368 
  523600    297.18101   -1171.5871    6402.1269    11579.356    1815.0949 
  523700    298.30152   -1164.8262    6371.3842    11579.312    1840.4339 
  523800    297.83309   -1164.5143    6381.0275     11579.26    1841.0913 
  523900    297.06958   -1159.9767    6392.8846    11579.344    1846.3792 
  524000    298.16727   -1166.3243    6375.6903    11579.252    1897.1413 
  524100    299.62909   -1161.8805    6339.9968    11579.232    1922.6515 
  524200    297.48192   -1164.9943    6388.9675    11579.218    1910.0575 
  524300    298.26678    -1163.551     6370.813    11579.274    1859.5703 
  524400    296.48512   -1162.4852    6407.7575    11579.222    1814.5022 
  524500    297.25425   -1162.5868    6391.4174    11579.212    1853.7261 
  524600    300.82223   -1156.7091    6309.3176    11579.214    1812.5306 
  524700    294.54002   -1161.5249    6448.3202    11579.191    1891.0596 
  524800    297.44074   -1163.1859    6387.9163    11579.096    1876.6669 
  524900    297.22474   -1159.2972    6388.6338    11579.087    1872.6475 
  525000    298.36922   -1156.4126    6361.4528    11579.241     1912.365 
  525100    297.45557   -1153.8524    6378.3592    11579.189    1904.4337 
  525200      295.226    -1156.342    6428.3648    11579.073    1866.8632 
  525300    299.66942    -1159.582    6336.7335    11579.129    1908.0765 
  525400    297.18882   -1160.0755    6390.3032    11579.211    1935.1373 
  525500    295.85214   -1159.6653    6418.4535    11579.215    1868.9808 
  525600    301.14294   -1162.0978    6307.8445    11579.204     1881.405 
  525700    299.30698   -1161.4416    6346.4277     11579.22     1884.761 
  525800    296.92876   -1160.8756    6396.6915    11579.243    1865.2942 
  525900     298.6712   -1166.1651    6364.7355    11579.222    1888.0136 
  526000    296.97532   -1164.2859    6399.1423    11579.278    1890.5025 
  526100    295.80165   -1161.9174     6421.927    11579.358      1875.72 
  526200    298.80606   -1163.9663    6359.8083    11579.375    1820.2241 
  526300    298.07593   -1165.2668    6376.7363    11579.404    1870.1988 
  526400    299.09465    -1164.041     6353.686    11579.343    1894.6785 
  526500    294.63359   -1161.8891    6446.9072    11579.413    1905.1663 
  526600    303.95136   -1172.6712    6258.5484    11579.332    1777.2246 
  526700    295.18818     -1171.03    6444.2863    11579.499    1855.8818 
  526800    296.31692   -1162.9184    6412.0249    11579.463    1842.3591 
  526900    300.33651   -1167.0044    6330.1549    11579.379    1884.3774 
  527000    298.18113    -1163.259    6372.5246    11579.448       1881.6 
  527100    293.90918   -1162.3175    6462.8826    11579.484    1835.5695 
  527200     297.8183   -1167.8131    6384.7827    11579.401    1861.9416 
  527300    297.16196   -1162.8075    6393.7996    11579.401    1852.7674 
  527400    299.59262   -1164.0539    6343.1065    11579.389    1873.4805 
  527500    298.81197   -1162.1997    6357.8115    11579.271    1923.5184 
  527600    298.19633    -1161.489    6370.2272    11579.245    1897.8751 
  527700    297.50611   -1160.1641    6383.6609    11579.258    1918.3968 
  527800    300.10797   -1165.3291    6333.1886    11579.206    1989.5686 
  527900    294.91083   -1161.1977    6440.0309     11579.15    1993.1019 
  528000     297.3581   -1161.3026    6387.8225    11579.119    1925.9433 
  528100    297.47384   -1157.3941     6381.448    11579.126    1943.0607 
  528200    298.17761   -1154.6322    6363.6118    11579.087    1929.9324 
  528300    300.87271   -1157.9421    6309.3424    11579.084    1866.0888 
  528400    297.89813   -1160.6377     6375.622    11579.121    1888.8855 
  528500    299.04599    -1162.441    6352.9208    11579.139    1912.2467 
  528600    296.22643   -1157.8626    6408.5986    11579.159    1917.7801 
  528700    297.31438   -1160.5996    6388.1938     11579.26     1909.825 
  528800    299.41794   -1162.8195    6345.4723    11579.258    1903.0253 
  528900    300.32008   -1162.6339    6326.0185    11579.262    1886.5348 
  529000     297.5934   -1161.8542    6383.5111    11579.283    1867.7901 
  529100    296.92226   -1165.2609    6401.2737    11579.301    1844.6061 
  529200    297.84422   -1164.4083    6380.7784    11579.355    1854.0311 
  529300    298.80309   -1167.4973    6363.4404    11579.413    1849.9105 
  529400    295.17506   -1161.1686    6434.6545    11579.448    1909.1534 
  529500    300.41841   -1166.6731    6328.0707    11579.376    1875.6481 
  529600    294.78133   -1169.5325    6451.5562    11579.575    1885.4323 
  529700    296.56412   -1171.9666    6415.8667    11579.537    1847.7565 
  529800    296.71863    -1172.745    6413.3103    11579.504    1874.6462 
  529900     297.0355   -1168.3353    6402.1596    11579.532    1866.8089 
  530000     298.3253   -1171.7887    6378.0165     11579.49    1888.9639 
  530100    298.85701   -1168.0743    6362.9769    11579.524    1929.5355 
  530200    296.27556   -1168.3819    6418.4237    11579.515    1825.2866 
  530300    300.90524   -1170.5557     6321.613    11579.436    1862.2366 
  530400    296.78246   -1169.6856     6408.828    11579.444    1868.1982 
  530500    297.49471    -1169.873    6393.7796    11579.424    1830.3805 
  530600    298.33628   -1165.0219     6370.902    11579.377    1811.6468 
  530700    299.06475   -1161.4409      6351.71    11579.329    1852.1993 
  530800     299.2048   -1164.8948    6352.1739    11579.331    1897.7183 
  530900    296.62797   -1161.3724    6403.6322    11579.261    1832.5441 
  531000    299.28726   -1162.3093    6347.7403    11579.244    1815.1867 
  531100    295.16479   -1163.1357    6436.6154    11579.222    1926.8489 
  531200    303.82877   -1160.6976    6249.0056    11579.143    1873.5138 
  531300    294.57514   -1160.4952    6446.5255    11579.176    1899.5992 
  531400    297.35604   -1157.0525    6383.6291    11579.132     1893.844 
  531500    295.48611   -1158.4739    6424.9698    11579.103     1874.111 
  531600      301.155   -1161.0328    6306.4109    11579.093    1915.4275 
  531700    296.64839     -1154.15    6395.8007    11579.088     1985.625 
  531800    299.39386   -1155.3489    6338.2442    11578.986    1909.8794 
  531900    298.29895   -1160.7302    6367.1037    11579.073    1865.3765 
  532000    296.48075   -1162.3581    6407.7309    11579.229    1882.9349 
  532100     300.6921   -1163.8647    6319.2324    11579.193    1923.6018 
  532200    299.43069   -1164.5966    6347.0087    11579.289    1874.2045 
  532300    297.15324   -1162.6176    6393.6695    11579.275     1841.579 
  532400    298.09193   -1166.0281    6377.0751    11579.324    1827.8945 
  532500    294.94472   -1165.9303    6444.2294     11579.34    1907.0338 
  532600    304.58854   -1168.0239    6240.3373     11579.38    1853.7418 
  532700    295.84784   -1166.0777    6425.0679    11579.325    1893.7769 
  532800      301.846    -1162.646    6293.5651    11579.396     1868.149 
  532900    297.62116   -1165.3066     6386.487      11579.4    1894.8762 
  533000     298.5139   -1170.9728    6373.1268    11579.445    1814.5276 
  533100    299.02248   -1173.1021    6364.4811    11579.535    1886.1161 
  533200    301.51499   -1170.7291    6308.8739     11579.55    1845.9101 
  533300    296.59007   -1170.9433    6414.2695    11579.518    1852.4776 
  533400    299.48757   -1171.1517    6352.6482    11579.589    1874.1786 
  533500    299.56353   -1167.6197     6347.387    11579.483    1897.6326 
  533600    295.87612   -1165.5978    6424.1198    11579.461    1957.0053 
  533700    300.47362   -1169.0927    6329.3501    11579.415    1887.4513 
  533800    299.11405   -1166.8641    6356.1924    11579.441    1877.3759 
  533900    296.40394   -1168.6488    6415.8373    11579.404    1898.0562 
  534000    296.46891   -1164.8622    6410.6323    11579.373       1943.8 
  534100    299.27996   -1163.4259    6349.0902    11579.322    1940.4358 
  534200    299.24435   -1165.5921    6352.0191    11579.323    1885.3026 
  534300    295.35976   -1163.8537    6433.3042    11579.359    1958.2006 
  534400    299.80569   -1158.2911    6332.6951    11579.293    1908.9162 
  534500    298.69228   -1161.6342    6359.6977    11579.166    1881.9105 
  534600    297.86415   -1160.8225    6376.6607    11579.249    1906.5894 
  534700    297.21247    -1161.095    6390.7952    11579.189    1873.5537 
  534800    297.09983   -1155.8591    6387.8234    11579.046    1858.1187 
  534900     296.7494   -1149.4634    6388.9819    11579.114    1794.1852 
  535000    299.54892   -1158.5198    6338.3156    11579.199    1930.9357 
  535100    299.02109    -1160.622    6351.7048    11579.209    1870.9885 
  535200    295.66982   -1154.5483    6417.1147    11579.098    1834.1063 
  535300    297.73436   -1162.1562    6380.6605    11579.142    1883.9623 
  535400    297.05842   -1164.5272    6397.5732    11579.243    1856.3356 
  535500    298.82207   -1163.3738    6358.7038    11579.205    1851.0062 
  535600    295.59184   -1161.5684    6425.9419     11579.24    1956.9859 
  535700    300.78167   -1164.6965    6318.1887    11579.231    1831.0351 
  535800    296.04398   -1162.6152    6417.3937    11579.304    1807.4562 
  535900     295.6672   -1172.0083    6434.8525     11579.32    1914.4628 
  536000    300.50112   -1168.9537    6328.6584     11579.45    1930.5807 
  536100    298.54923   -1169.3963    6370.7617    11579.412     1821.892 
  536200    296.98356   -1172.1944    6407.1208    11579.524    1823.8113 
  536300     293.5804   -1161.1644    6468.8646    11579.595    1914.8742 
  536400    297.24014   -1173.5596    6403.0084    11579.528    1919.6041 
  536500    301.32887   -1167.9337    6310.0512    11579.547    1890.5192 
  536600    297.37376   -1165.2197    6391.8631    11579.577    1968.0956 
  536700    299.24881   -1168.6696    6355.1613    11579.483    1904.5475 
  536800    301.79207   -1168.7256     6300.853    11579.452    1894.2227 
  536900    298.40538   -1171.2914    6375.7902    11579.472    1912.9676 
  537000    292.25585   -1172.3702    6508.2351    11579.463    1916.2387 
  537100     299.3004   -1177.4567    6362.8144    11579.451    1868.0856 
  537200    299.76389   -1168.7622    6344.1916    11579.425    1880.3614 
  537300    296.45459     -1168.49    6414.5095    11579.317     1911.306 
  537400    301.92036    -1166.184     6295.575    11579.456    1838.4741 
  537500     296.4786   -1163.2242    6408.7806    11579.367    1889.3353 
  537600    298.60442   -1163.0027     6363.071    11579.294    1900.9757 
  537700    297.32577   -1160.8935    6388.2416    11579.257    1868.4931 
  537800    296.32573   -1160.6764    6409.3729    11579.241     1860.954 
  537900    301.58022   -1163.0419    6299.4006    11579.157    1864.9108 
  538000     298.0686   -1161.3338    6372.7569    11579.201    1897.7752 
  538100    296.81882   -1160.9278    6399.0222    11579.173    1884.2936 
  538200    296.76174   -1161.3111    6400.5383    11579.086    1850.4853 
  538300    298.38365   -1159.2726    6363.8574    11579.094    1855.7196 
  538400    299.11882   -1159.1683    6348.1091    11579.155    1844.9958 
  538500    297.89306    -1155.347    6370.5091     11579.19    1869.4357 
  538600    293.14473   -1154.4254    6470.9017    11579.064    1911.4884 
  538700    299.56774   -1156.8442     6336.177    11579.138    1916.2716 
  538800    298.23504   -1163.8278    6371.6733     11579.18    1877.7886 
  538900     300.0222   -1161.0688    6330.6113    11579.057    1839.5844 
  539000    297.36814   -1166.5091    6392.8807    11579.186    1883.3996 
  539100    297.67294   -1164.1227    6384.0196    11579.222    1862.9648 
  539200    297.46686   -1168.2983    6392.6225    11579.247    1834.1039 
  539300    298.96194   -1168.0331    6360.4467    11579.277    1943.0298 
  539400    298.19177   -1162.9057    6371.7656    11579.269     1923.463 
  539500     295.9134   -1162.3913    6419.9844    11579.329    1944.5743 
  539600    296.92069   -1164.5455    6400.6356    11579.345    1927.3135 
  539700    300.29156   -1163.9478    6328.0499     11579.37    1902.8565 
  539800    300.39014   -1167.1499     6329.231    11579.455     1930.132 
  539900    296.53061   -1164.0279    6408.5021    11579.396    1876.1425 
  540000    297.47204   -1168.9015    6393.2577     11579.39    1886.5729 
  540100    292.90423   -1170.5423    6492.4764    11579.383    1883.2997 
  540200    300.46099   -1164.1387    6324.6561    11579.405    1883.3791 
  540300    298.16396   -1167.4409    6377.0577    11579.432    1884.7024 
  540400    296.59674   -1169.4659    6412.5644    11579.433    1895.8127 
  540500    297.55594   -1161.0226    6383.4998    11579.303     1931.905 
  540600    302.26071   -1166.7752    6288.8133    11579.374    1901.9118 
  540700     298.6351   -1169.5893    6369.1493    11579.441     1836.577 
  540800    297.08636   -1166.2382    6398.7514    11579.307    1858.2941 
  540900    298.34432   -1166.5492    6372.2286    11579.348    1895.2695 
  541000    298.77382   -1164.1332    6360.6483    11579.359    1887.5339 
  541100    294.79912   -1166.7936    6448.2252    11579.362    1885.6605 
  541200    297.26512   -1158.1326    6386.8072    11579.288    1912.4229 
  541300    298.24633   -1165.0319    6372.6194    11579.163    1878.0436 
  541400    300.13297   -1161.5058    6328.8424    11579.217    1843.7187 
  541500    297.10603   -1161.6676    6393.7467    11579.294    1861.2348 
  541600    296.06167   -1164.5481    6418.9232    11579.278    1884.8709 
  541700    295.28074   -1164.9514    6436.0045    11579.273    1949.6125 
  541800    298.84245   -1167.9129    6362.8443    11579.242     1932.051 
  541900    298.92467   -1167.3131    6360.5036    11579.257    1917.6295 
  542000     299.3795   -1162.2384    6345.5961    11579.141    1816.0734 
  542100    293.46605   -1164.9719    6474.7175    11579.198    1861.1489 
  542200    301.52497    -1166.433    6304.1105    11579.296    1883.5541 
  542300     297.6928   -1165.9805     6385.502    11579.271    1908.7275 
  542400    293.86271   -1158.5061    6459.7784    11579.198    1898.6517 
  542500    300.27887   -1161.6225    6325.8798    11579.255     1889.987 
  542600    299.14177   -1163.9437    6352.5162    11579.278    1861.6368 
  542700    296.08152   -1164.8788    6418.8857    11579.334    1895.9892 
  542800    299.21651   -1168.3618     6355.372    11579.312    1900.1686 
  542900    295.48968   -1174.3177    6440.9476    11579.313    1937.8335 
  543000    301.25046   -1171.7945    6315.3104     11579.27    1899.7624 
  543100    296.39683   -1167.4478    6414.6801    11579.296    1945.8615 
  543200    296.93104   -1163.7951    6399.6308    11579.312    1915.5902 
  543300    301.32655   -1160.7667    6302.7108    11579.324    1943.7254 
  543400    299.03978    -1161.771    6352.6013    11579.356    1964.1215 
  543500    295.09801   -1162.7696    6437.7881    11579.335    1898.0601 
  543600    299.62478   -1167.4858    6345.7392    11579.277     1857.246 
  543700    296.11905   -1170.9017    6424.1847    11579.412    1875.4476 
  543800    298.17694   -1170.0587    6379.3976    11579.432    1832.0878 
  543900    299.04637   -1172.3224    6363.0256     11579.37    1856.6751 
  544000    297.61925   -1166.6555    6387.8124    11579.336     1895.399 
  544100     297.6128   -1165.7749    6387.0802    11579.346    1865.2563 
  544200    296.58829   -1168.3968    6411.7097    11579.467     1903.129 
  544300    297.44612   -1163.7512     6388.591     11579.32     1905.914 
  544400    297.91493    -1159.802     6374.626    11579.319    1872.9921 
  544500    300.56011   -1165.4812    6323.9254     11579.45    1947.5465 
  544600    296.16082   -1168.4404    6420.8184      11579.4     1944.038 
  544700    297.52393   -1160.3624    6383.5106     11579.29    1896.8153 
  544800     299.2225   -1164.3394     6351.221    11579.311    1928.2778 
  544900    300.01336   -1160.2682    6330.2706    11579.328    1899.4141 
  545000    297.30754   -1170.4264    6398.2734    11579.367    1872.7918 
  545100    297.06816   -1165.0988    6397.9066    11579.213    1881.2984 
  545200     300.5228     -1170.48    6329.5992    11579.328    1889.1771 
  545300    297.29473   -1170.3584    6398.4745    11579.362    1942.7526 
  545400    295.25529    -1161.388    6432.9194    11579.208    1949.6457 
  545500    301.68888   -1159.0623    6293.0724     11579.13     1902.017 
  545600    295.09478   -1155.6277     6430.597    11579.216    1935.7997 
  545700    299.81418   -1164.3144    6338.4687    11579.224    1887.4702 
  545800     295.8858    -1165.427    6423.4644    11579.183    1878.1658 
  545900    299.67595   -1168.5919    6345.6519    11579.177    1883.1697 
  546000    296.74907   -1165.1199    6404.8072    11579.276    1862.6367 
  546100    297.48356   -1161.5615    6385.5369    11579.255    1856.0345 
  546200    299.42106    -1168.991    6351.4724    11579.153    1916.0055 
  546300    295.27311   -1160.5123    6431.6173    11579.162    1945.4286 
  546400    296.67629   -1164.5092    6405.7094    11579.234     1915.192 
  546500     298.0024   -1162.0299    6374.9158     11579.25    1936.0671 
  546600    296.16477   -1160.8783    6412.9645    11579.192    1913.4661 
  546700    300.35086   -1165.3619    6328.0867     11579.26    1827.3093 
  546800    296.62407   -1164.7881    6407.1463    11579.276    1875.8532 
  546900    300.98758    -1168.745    6317.8886    11579.282     1846.634 
  547000    296.73058   -1164.0804    6404.1293    11579.242    1873.9151 
  547100    300.06096   -1169.0467     6338.063    11579.358    1843.5511 
  547200    298.42611   -1161.6654    6365.6021    11579.353    1953.1671 
  547300    298.68084   -1164.5646    6363.1481    11579.441    1953.0208 
  547400    295.67294   -1158.6399      6421.33    11579.289    1935.0508 
  547500    297.97405   -1164.7632    6378.3782    11579.373    1958.3199 
  547600    297.72635   -1166.8206    6385.7345     11579.38    1905.9809 
  547700    296.10648   -1166.2397    6419.8222    11579.443      1919.57 
  547800    299.23721   -1168.5368    6355.1055    11579.312    1856.2747 
  547900    296.58255   -1167.8906    6411.2363    11579.377    1925.8618 
  548000    299.12542    -1173.364    6362.4235    11579.415    1942.5212 
  548100     301.8173   -1170.8839    6302.3933    11579.373    1813.0655 
  548200    295.13695   -1170.5734    6444.8603    11579.435    1872.6347 
  548300    299.57897   -1169.0366    6348.3063    11579.315    1809.9576 
  548400    293.44953   -1169.4618    6479.6458    11579.283    1857.0977 
  548500    299.38356   -1171.5364     6355.107    11579.441      1878.38 
  548600    301.90979   -1162.9017    6292.4089    11579.347    1859.2426 
  548700     298.5099     -1163.04    6365.1829    11579.349    1881.5627 
  548800     293.6461   -1160.1297    6466.1144    11579.283    1876.0343 
  548900    297.89656   -1171.6661    6386.8349    11579.272    1890.8319 
  549000    299.77669   -1161.7024    6336.7605    11579.327    1914.3792 
  549100    301.31494    -1169.674    6311.8047    11579.262    1884.9373 
  549200    293.46892   -1161.7851    6471.5425    11579.271    1898.6522 
  549300    298.87121   -1163.2033    6357.5162    11579.238    1839.6268 
  549400    298.48824   -1160.2673    6362.7515    11579.228    1838.9097 
  549500    295.70987   -1160.5569    6422.3949    11579.226    1886.8464 
  549600    299.87052   -1162.2568    6335.0009    11579.018    1864.9713 
  549700    297.71522   -1155.9995     6374.869    11579.098    1854.2694 
  549800    296.82986    -1163.112    6400.9765    11579.179    1867.4771 
  549900     297.4507   -1164.2977    6388.8072    11579.087    1891.4247 
  550000    294.51679   -1158.7684    6446.0503    11579.181    1870.6563 
  550100    298.25989   -1159.9073    6367.1245    11579.082    1853.3465 
  550200    299.49518   -1159.4371    6340.2714    11579.089    1918.2973 
  550300    296.37883   -1153.0091    6400.4492    11579.119     1857.064 
  550400    292.03468   -1154.0208    6494.2428    11579.095    1869.8635 
  550500    300.62368    -1159.473    6316.1931    11579.084    1745.5463 
  550600    296.22496   -1159.1267    6409.8602    11579.125    1768.1227 
  550700    297.77525   -1157.1334    6374.7163    11579.094    1779.6631 
  550800    299.57831   -1160.4059    6339.5031    11579.128    1810.0634 
  550900    298.88962   -1162.8296    6356.6268    11579.115    1900.6852 
  551000    298.71575   -1163.3818    6360.9668    11579.189      1878.19 
  551100    298.68073   -1164.3516     6362.676     11579.18    1859.3426 
  551200    298.38073   -1165.6247    6370.3813    11579.203    1864.6747 
  551300    298.47379    -1159.606    6362.4154    11579.244    1866.3111 
  551400    298.06214   -1164.3229    6375.9594    11579.277    1871.0171 
  551500    300.34012   -1163.3929    6326.3499    11579.263    1851.5024 
  551600    299.11361   -1166.2571     6355.563    11579.409    1869.7471 
  551700    298.12061   -1167.5551    6378.0712    11579.405    1870.7918 
  551800    298.11101   -1169.0138    6379.7412    11579.412    1857.5694 
  551900    295.93682   -1171.6301     6428.846    11579.452    1882.9156 
  552000    303.11845   -1170.5291    6274.3151    11579.447    1837.7898 
  552100    295.63529   -1166.0368     6429.768    11579.526    1874.5094 
  552200    300.50957   -1164.8364    6324.3444    11579.434    1790.6099 
  552300    294.87799   -1161.6897    6441.5188    11579.445    1817.1792 
  552400    297.84296   -1170.5551    6387.0597    11579.462    1868.7642 
  552500    297.21579   -1171.7141    6401.6561    11579.501    1855.2694 
  552600    300.88085   -1172.1027    6323.6922    11579.447    1766.0878 
  552700    297.11426   -1168.1794    6400.2605    11579.471    1785.8788 
  552800    296.02159   -1158.7961    6414.1072    11579.358    1798.3591 
  552900    298.51063   -1165.4967    6367.6574    11579.382    1885.9972 
  553000    299.78366   -1155.1209    6329.9293    11579.226    1917.0831 
  553100    300.15819   -1158.4378    6325.2953    11579.277    1927.7904 
  553200    293.38326   -1160.0542    6471.5869    11579.216    1916.8126 
  553300    300.35861   -1158.0118    6320.3831    11579.072     1831.639 
  553400    296.62057   -1162.4849    6404.7803    11579.139     1882.275 
  553500    297.05893   -1160.2502    6393.2289    11579.187    1903.5451 
  553600     298.6494   -1159.7319    6358.6356     11579.09    1809.0063 
  553700    296.73271   -1155.7301    6395.5054    11579.014    1834.4958 
  553800    301.03716   -1154.9343    6302.8819    11579.145    1851.5981 
  553900    295.01061   -1154.1019    6430.7715    11579.119     1891.563 
  554000    298.48591   -1155.2135    6357.5581    11579.038    1814.7613 
  554100    297.94329   -1156.1742    6370.0952    11579.022    1857.7679 
  554200    300.00354   -1160.5607    6330.5869    11579.142    1901.0842 
  554300    294.80919   -1157.4894    6438.4946    11579.151    1840.0495 
  554400    301.23791   -1158.7023    6302.3404    11579.124    1875.4541 
  554500    296.42148   -1162.3809     6408.991      11579.2    1918.0752 
  554600    298.99194   -1158.8153    6350.5516     11579.24    1860.3044 
  554700    296.79329   -1164.4155    6403.2173    11579.335    1829.8895 
  554800    295.82924   -1167.8988    6427.2816    11579.321    1806.2928 
  554900    297.09793   -1169.4144    6401.8155    11579.443    1848.7596 
  555000    299.80234   -1167.7615    6342.3993    11579.455      1881.95 
  555100    299.38743   -1168.4406    6351.8991    11579.412    1880.1152 
  555200    298.07392   -1166.9035    6378.4021    11579.391    1854.3194 
  555300    297.98172   -1164.4256    6377.9789    11579.476    1876.7174 
  555400    298.98135   -1170.6472    6362.8821    11579.513    1907.8888 
  555500    297.58882    -1173.319    6395.2577    11579.467    1930.9409 
  555600    300.62859   -1167.3727    6324.3432    11579.439    1988.5354 
  555700    302.89766   -1170.7923    6279.2926    11579.444    1920.8034 
  555800    291.09318   -1176.9183    6537.7133    11579.554     1956.551 
  555900    297.97451   -1170.6649    6384.4126    11579.516    1884.1255 
  556000    297.92068   -1170.3513    6385.2022    11579.469    1888.8812 
  556100    299.99852   -1174.5162    6344.9985     11579.49    1896.0732 
  556200    297.52717   -1167.5059    6390.6914    11579.397    1949.0198 
  556300    300.23878   -1164.0944    6329.2179    11579.264    1825.6962 
  556400    296.43362   -1163.8072     6410.231    11579.273       1844.9 
  556500    296.80374   -1166.5161    6405.0979    11579.338     1891.091 
  556600    301.71163   -1165.5668    6299.2444    11579.284    1864.6932 
  556700    298.17716   -1162.8677    6372.0051    11579.235    1874.8616 
  556800    297.90545   -1163.1746    6378.0149    11579.133    1900.4039 
  556900    297.05627   -1162.3851    6395.4022    11579.168    1884.4743 
  557000    296.89622   -1159.3571     6395.687    11579.062    1877.8608 
  557100    298.24778   -1156.1377    6363.6753    11579.144    1892.2719 
  557200    297.97066   -1154.2099    6367.6005    11579.077    1848.3567 
  557300    296.69943   -1157.5253    6397.9826    11578.985    1825.0511 
  557400    295.99429   -1160.3367    6415.9488    11579.076    1873.2599 
  557500     300.8793   -1155.5185     6306.714     11579.02    1825.4255 
  557600    296.42869   -1153.0645     6399.399    11579.079    1777.6732 
  557700    298.73932   -1158.4562    6355.5288     11579.18    1799.0355 
  557800    295.16324   -1161.8768    6435.3968     11579.23    1908.1333 
  557900    297.33151   -1158.2703    6385.3287     11579.09    1899.3592 
  558000     297.6533   -1158.7514     6379.005     11579.16    1900.8025 
  558100    298.59046   -1162.3412    6362.6602    11579.246    1895.0545 
  558200    299.53102   -1158.3268    6338.5717    11579.266    1841.0937 
  558300    300.28263   -1159.3249    6323.4679    11579.221    1785.9254 
  558400    298.54878   -1161.9937    6363.3235    11579.366    1882.3458 
  558500    296.81859   -1160.7602    6399.0221    11579.335    1891.2518 
  558600    298.68699   -1159.3535    6357.6965    11579.332    1809.8504 
  558700    298.17978   -1165.8217    6375.0598    11579.392    1840.5287 
  558800    298.53721   -1171.7774    6373.3741    11579.386    1838.6364 
  558900     297.7947   -1176.1259    6393.6275    11579.428    1828.6981 
  559000    297.48579   -1163.9052    6387.9853    11579.408    1826.8882 
  559100    298.87263   -1163.3433    6357.8463    11579.458    1838.0264 
  559200    300.22789   -1171.5607    6337.0591    11579.407    1857.7789 
  559300    293.75258   -1170.9158    6474.8394    11579.497    1918.1228 
  559400    299.57335   -1172.1288    6351.5963    11579.392    1848.7528 
  559500    300.02993   -1163.9729    6333.7287    11579.435    1856.8502 
  559600    298.66408   -1167.5847    6366.5523    11579.467    1821.3538 
  559700    295.36785   -1166.4634    6435.7462    11579.364    1836.7188 
  559800    302.74373   -1162.3712    6273.9968    11579.281    1802.8243 
  559900    298.81869   -1169.3251     6364.879    11579.357      1891.59 
  560000    296.28296   -1164.9115    6414.6621    11579.382    1841.1902 
  560100     296.8034   -1162.5041    6401.0796    11579.325    1815.3762 
  560200    293.45843   -1154.7971    6464.8374    11579.329    1897.0807 
  560300     301.2759   -1168.5721    6311.4927    11579.218    1818.0947 
  560400    295.89157   -1160.7509    6418.7363    11579.255    1785.4799 
  560500    298.48723   -1157.0489    6359.5237    11579.197    1862.6891 
  560600    300.13913   -1157.6043    6324.6835    11579.091    1850.8543 
  560700    294.57585    -1162.368    6448.3283    11579.121    1787.6088 
  560800    296.55834   -1162.2544    6405.9028    11579.162    1824.4519 
  560900    297.91575   -1159.1594    6373.8316    11579.185    1884.4866 
  561000    297.56728    -1158.962    6381.0415    11579.148    1889.0472 
  561100    294.74586   -1163.1607    6445.5312    11579.163    1897.2159 
  561200    300.06577   -1162.8024    6331.5694    11579.212    1888.5623 
  561300    298.97419   -1161.8166    6353.8789    11579.187    1863.6905 
  561400    297.09177   -1163.2456    6395.5202    11579.184    1936.4368 
  561500    298.65823   -1166.3934    6365.2868    11579.268    2001.1644 
  561600    298.04755   -1156.4025    6368.2811    11579.207    1947.1115 
  561700    295.28671   -1165.2071    6436.0993     11579.24    1898.3142 
  561800    299.24388   -1165.5522    6351.9834    11579.317     1923.196 
  561900     299.2473   -1163.9868    6350.3301    11579.303    1919.6903 
  562000    298.51683   -1165.3179    6367.3499    11579.386    1889.0247 
  562100    299.47801   -1166.0154    6347.5255    11579.398    1913.0334 
  562200    296.07727   -1170.7159    6424.9599    11579.481    1951.3478 
  562300    296.09464   -1166.8686    6420.6383    11579.377    1883.6139 
  562400    303.64141   -1172.4218    6265.0948    11579.506    1888.2278 
  562500     297.6409   -1171.7759    6392.6167    11579.482    1941.1786 
  562600    296.95158   -1164.7212    6400.2543    11579.448    1863.0555 
  562700     297.8284   -1165.0595    6381.8784    11579.466    1878.6394 
  562800    298.10383   -1159.9413    6370.8608     11579.45    1891.0627 
  562900    301.19452   -1169.2384    6314.1323    11579.453    1820.4729 
  563000    299.40575   -1168.5723    6351.6075     11579.38    1827.2592 
  563100    296.15685    -1166.523    6418.9181    11579.332     1873.782 
  563200    297.38128   -1165.6733    6391.9223    11579.344    1868.2071 
  563300    298.24803   -1169.1685    6376.8852    11579.328     1871.274 
  563400    297.65835   -1159.8001    6379.9753    11579.189    1887.7249 
  563500    297.77845   -1166.1562    6383.7911    11579.215    1913.2186 
  563600     295.9529   -1156.0165     6412.646    11579.209    1832.9286 
  563700    298.70613   -1160.4942    6358.2696    11579.174    1797.7073 
  563800    298.46864    -1158.483    6361.2248    11579.066    1848.3996 
  563900     294.1078   -1154.4685    6450.4651    11579.158     1886.935 
  564000    304.30748   -1154.2713    6232.3437    11579.135    1892.2865 
  564100    295.00387   -1158.7309    6435.5636    11579.138    1918.2176 
  564200    297.41139   -1160.7086    6386.1611    11579.191    1806.9244 
  564300    297.30755   -1160.2773    6387.9764    11579.219    1892.9451 
  564400     301.3082   -1164.4005    6306.5061    11579.093     1858.197 
  564500    295.93257   -1155.8036    6412.7262    11579.068    1876.8374 
  564600    298.44126   -1156.8187    6360.2228    11579.144    1916.4617 
  564700    296.21886   -1158.0792    6408.9628    11579.145    1926.8168 
  564800    299.65189   -1154.5566    6332.1266    11579.173    1914.2472 
  564900    298.02778   -1162.7304    6375.1106    11579.287      1964.22 
  565000     299.0088    -1160.722    6352.1812    11579.323    1834.0396 
  565100    296.21542   -1165.4784    6416.6852    11579.395    1847.9407 
  565200    299.81339   -1161.7681    6336.1139    11579.399    1870.6057 
  565300    298.99015     -1169.19    6361.1198    11579.396    1873.1484 
  565400    297.71788   -1164.3069    6383.4256    11579.404    1836.3132 
  565500    299.37807   -1163.9248    6347.5638    11579.392    1880.2202 
  565600     301.2905   -1165.0845    6307.9195    11579.444    1919.7284 
  565700    296.75381   -1169.6166    6409.3004    11579.374    1861.9109 
  565800     298.7959   -1163.7154    6359.8186    11579.419    1918.0413 
  565900    296.63593   -1160.4159    6402.6009    11579.356    1959.9964 
  566000     301.7858    -1162.103     6294.251    11579.338    1898.4935 
  566100    300.44073   -1170.8406    6331.7659    11579.381     1863.738 
  566200    294.67406   -1160.7741     6444.874    11579.359    1847.9175 
  566300    298.84969   -1165.4223    6360.2921    11579.335    1790.3686 
  566400    298.77353   -1157.0796    6353.5599    11579.318    1803.3444 
  566500    298.30489   -1167.9369    6374.4584    11579.348    1892.1928 
  566600    299.60965    -1162.923    6341.4712    11579.249    1852.2241 
  566700    296.57569   -1155.6727    6398.9356    11579.148    1837.8668 
  566800    299.54557   -1161.7879    6341.6855    11579.229    1895.1645 
  566900    294.79858   -1155.5726    6436.8523    11579.199    1918.4984 
  567000    299.88406   -1156.0449    6328.5919     11579.11    1868.4583 
  567100    298.93665   -1154.3696    6347.0858    11579.039    1940.4029 
  567200    302.13747   -1157.4726    6281.8797    11579.111     1949.229 
  567300    294.79016   -1153.5046    6434.7413    11578.976    1886.9983 
  567400     297.7955   -1158.0574    6375.1678    11579.054    1955.4767 
  567500    298.03103    -1152.286    6364.4292    11579.119    1989.7073 
  567600    298.31964   -1154.3049    6360.2725    11579.109    1889.3442 
  567700    297.75793    -1155.727    6373.5871    11579.001    1872.6833 
  567800    298.96332   -1161.0231    6353.2447    11579.114    1954.7518 
  567900    297.61719   -1162.9751    6383.9668    11579.126    1843.7542 
  568000    296.90017     -1156.67    6392.9765    11579.123    1901.7285 
  568100    294.93871   -1154.6411    6432.8605    11579.132    1952.9967 
  568200    297.30362   -1162.0402    6389.7793    11579.175    1872.5614 
  568300    297.03013   -1163.3337    6396.9392    11579.198    1919.2707 
  568400    298.44057   -1161.0055    6364.5487    11579.268    1968.7368 
  568500    297.09454   -1158.9921    6391.3205    11579.297    1854.4654 
  568600    297.23197   -1165.7452    6395.2028    11579.362    1856.2981 
  568700    301.05246   -1166.4677    6314.3384    11579.395    1834.1483 
  568800    292.27809   -1167.3713    6502.7578    11579.459    1904.4808 
  568900    301.38213   -1176.2004     6317.105    11579.471    1875.0035 
  569000    295.09614   -1168.8092    6443.9835    11579.451    1914.3655 
  569100    297.80208   -1174.5317    6391.8661    11579.419    1879.5018 
  569200    297.41794    -1165.339    6390.8652    11579.404    1864.6838 
  569300    298.86232   -1168.1332    6362.8656    11579.467     1895.798 
  569400    294.11136   -1163.3024    6459.5347     11579.47     1886.156 
  569500    300.00266   -1170.5317    6340.7266    11579.291     1812.319 
  569600    298.21028   -1166.7478    6375.3077    11579.365    1888.3823 
  569700    296.20932   -1162.8854    6414.1441    11579.316    1840.3539 
  569800    300.87506   -1167.8245    6319.3818    11579.291    1843.6132 
  569900    297.49789   -1166.7587    6390.4599    11579.287    1879.1966 
  570000    297.77749   -1163.9984    6381.7303    11579.291    1854.0135 
  570100    298.87028   -1162.5892    6356.9467    11579.262    1851.8157 
  570200    296.29842    -1158.471    6407.7659    11579.256    1845.7862 
  570300    297.62562   -1162.6501    6383.4669    11579.131    1846.3757 
  570400    298.80536   -1157.7431    6353.3819    11579.157    1844.6135 
  570500    295.89334   -1158.4156    6416.3226    11579.214    1916.9005 
  570600    295.78073   -1159.9309      6420.13    11579.101     1914.039 
  570700    297.09036   -1160.2721    6392.4725     11579.08    1861.5526 
  570800    297.07032   -1158.6499    6391.2065    11579.008    1859.7993 
  570900    298.44219   -1153.1164    6356.3624    11579.005    1800.1087 
  571000    298.02279   -1154.0689    6366.3668    11579.097    1841.4044 
  571100     298.5105   -1160.4921    6362.4032     11579.13    1835.5247 
  571200    298.63326   -1160.0602    6359.3129    11579.094    1839.0097 
  571300     300.7741   -1153.5875    6307.0668    11579.056    1826.0768 
  571400    296.76313   -1158.4367    6397.6409    11579.093    1849.4563 
  571500    294.18842   -1153.9985      6448.18    11579.066     1858.732 
  571600    299.79331   -1159.8311    6334.2754    11579.068    1807.0303 
  571700    299.09266   -1162.6177    6352.0986    11579.137    1918.0057 
  571800    294.24557   -1165.8337    6458.9535    11579.225    1910.7442 
  571900    299.34225   -1162.5935    6346.8143    11579.209    1855.7572 
  572000    295.58324   -1162.4299    6426.9814    11579.234     1912.281 
  572100    298.83359   -1163.1937    6358.3005    11579.228    1930.4519 
  572200     297.5895   -1167.7944     6389.495    11579.244    1922.9925 
  572300    298.64874   -1164.9021    6364.0181    11579.288    1862.5111 
  572400     294.9634   -1163.5092    6441.4188     11579.35    1937.3523 
  572500    300.24056   -1171.6191    6336.7442    11579.304    1828.9167 
  572600    296.07513    -1166.903    6421.0947    11579.383    1956.7286 
  572700    302.60797   -1169.3211    6283.9778    11579.412    1992.7125 
  572800    296.29439   -1170.5586    6420.1393    11579.456    1954.8733 
  572900     298.4461   -1170.9693    6374.5523    11579.426    1817.6758 
  573000    298.88632   -1165.2951    6359.4638    11579.416    1879.5853 
  573100    300.52274    -1171.934    6331.1405    11579.414    1890.0998 
  573200    299.43432   -1167.2602    6349.6618    11579.356    1921.8245 
  573300    298.54095   -1169.4456    6370.9378    11579.362    1884.7712 
  573400    297.78095   -1164.5974    6382.3089    11579.345    1835.2068 
  573500    299.30067   -1170.9631    6356.0687    11579.205    1886.1343 
  573600     298.0845   -1165.9321    6377.0156    11579.201    1907.9473 
  573700    299.84431   -1164.6141    6338.1313    11579.231    1955.0985 
  573800    300.66237   -1165.0837    6321.1977    11579.304    1878.9147 
  573900    294.44899    -1157.024    6445.8013    11579.228    1864.4155 
  574000    296.36834   -1162.0862    6409.8671    11579.236    1929.6101 
  574100    297.79576   -1160.3221    6377.6341    11579.261     1912.892 
  574200    297.46836   -1160.3106    6384.5373    11579.182    1906.4134 
  574300    297.25738   -1161.9689    6390.6434    11579.122    1919.7194 
  574400    298.10883   -1159.0014    6369.3858    11579.022    1871.7194 
  574500    297.03844   -1158.1466    6391.4225    11579.046    1844.6557 
  574600    298.25957   -1161.6754    6368.8692    11579.052    1914.6456 
  574700    297.52338   -1157.6109    6380.5099    11579.029    1893.2442 
  574800    297.80289   -1155.0566    6371.9948     11579.04    1855.1466 
  574900    299.27817   -1155.2068    6340.6437    11579.056    1886.8598 
  575000    296.45741   -1161.1806    6406.8801    11579.057    1929.7631 
  575100    297.11414    -1158.779    6390.5452    11579.154    1984.3324 
  575200    297.04765   -1155.3808    6388.5043    11579.091     1905.355 
  575300    296.53707   -1159.3246    6403.3845    11579.119    1918.6731 
  575400    294.58025   -1155.6032    6441.4892    11579.141    1914.1625 
  575500    302.04865   -1163.0116    6289.4032    11579.197    1859.9581 
  575600     298.1938   -1160.9967    6369.7628    11579.219    1919.6657 
  575700    299.36811   -1170.2535    6354.0076    11579.294    1906.0626 
  575800    297.58385   -1166.5654    6388.4043    11579.261    1896.3103 
  575900    295.54159   -1163.2995    6428.7475    11579.241    1941.1951 
  576000    298.15166    -1160.265    6370.0206    11579.308    1955.2328 
  576100    297.94435   -1166.3926     6380.579     11579.31    1947.4652 
  576200    298.20944   -1163.6592    6372.2199    11579.348    1938.5916 
  576300      297.647   -1166.2308    6386.8499    11579.391    1915.3779 
  576400     296.9099     -1169.57    6405.9605    11579.415    1922.7359 
  576500    298.75029   -1168.3739    6365.4602    11579.428    1874.3777 
  576600    298.03964   -1169.6913    6381.9307    11579.399    1911.4672 
  576700    296.04332   -1167.5851    6422.5042     11579.43    1908.5712 
  576800    299.50746   -1164.0127    6345.0016    11579.506    1881.6858 
  576900    298.72141   -1167.3481    6365.0042    11579.381    1853.9163 
  577000    298.80082   -1168.0514    6363.9713    11579.341    1917.5816 
  577100    298.52738   -1165.2001    6367.0249    11579.404    1900.7962 
  577200    297.22342   -1166.8311    6396.4662    11579.357    1880.3239 
  577300    297.73189   -1174.3802    6393.2145    11579.419    1890.8722 
  577400    296.64734   -1165.6736    6407.5759    11579.317    1881.5294 
  577500    298.48838   -1165.3694    6367.8574    11579.234    1783.0075 
  577600    296.53299   -1164.6668    6408.9713    11579.277     1883.553 
  577700       299.58    -1163.909    6343.1001    11579.258    1871.7809 
  577800     297.1326   -1164.6468    6396.0562    11579.191    1934.6521 
  577900    295.94891   -1160.9084    6417.5204    11579.106    1968.1489 
  578000    300.65605    -1163.499    6319.6374    11579.194    1934.8708 
  578100    294.95736   -1160.6885    6438.5755    11579.198    1918.8448 
  578200    296.23962   -1157.1673    6407.6152    11579.153     1886.584 
  578300    300.79498   -1159.8766     6313.035    11579.182    1902.3962 
  578400    295.87432   -1161.7271    6419.9954    11579.169    1913.7405 
  578500    298.53812   -1161.2966    6362.6245    11579.137    1894.5287 
  578600    295.99431   -1161.1855    6416.8474    11579.126    1889.1436 
  578700    296.01111   -1160.3461    6415.7363    11579.213     1914.487 
  578800    296.12425   -1160.2244    6413.1461    11579.162     1906.061 
  578900    297.14043   -1161.6569    6392.7984    11579.091    1896.2926 
  579000    297.52452   -1160.1763    6383.2594    11579.238    1928.8857 
  579100     299.1789    -1162.242    6349.9318    11579.188    1860.4052 
  579200    298.50803   -1160.4436    6362.4645    11579.187     1858.145 
  579300    297.75909   -1161.2282    6379.3484    11579.286    1915.5518 
  579400    296.62604    -1160.572    6402.8703    11579.259     1896.468 
  579500    300.07263   -1165.8771    6334.5966    11579.311    1887.8287 
  579600     295.2922   -1167.8038    6438.6806    11579.341    1947.7009 
  579700     301.5848   -1163.3589    6299.7698    11579.307    1835.5082 
  579800    295.57303   -1166.0124    6430.8871    11579.339       1876.1 
  579900    295.71816   -1168.9859    6430.8109     11579.39    1891.2734 
  580000     300.0938   -1176.8448    6345.1012      11579.3    1837.5831 
  580100    298.26518   -1167.9927    6375.3622    11579.347    1898.1852 
  580200    300.40111     -1168.48    6330.1825    11579.311    1883.5064 
  580300    294.89715   -1167.7503    6447.0412    11579.316    1898.9754 
  580400    295.44527   -1155.5509    6423.1567    11579.341     1897.838 
  580500    297.76525     -1166.64    6384.6634    11579.321    1906.2427 
  580600    302.00079   -1168.3312    6295.9005    11579.353    1949.9966 
  580700    296.97379   -1165.4154     6400.403    11579.377    1823.7559 
  580800    296.13187   -1169.5575    6422.5419    11579.387    1874.6486 
  580900    298.59138   -1165.4608    6365.8387    11579.325    1842.6541 
  581000    299.51764   -1163.2244    6343.9105    11579.421    1871.4905 
  581100     300.7009   -1163.8299    6319.0957    11579.279    1921.8081 
  581200    299.56706   -1158.4554    6337.8514    11579.187    1910.5209 
  581300    295.74503   -1156.2671    6417.3121    11579.184    1924.9777 
  581400     299.7318   -1166.3196    6342.2353    11579.226    1886.2326 
  581500    294.91813   -1164.2626    6442.9232    11579.134    1882.4075 
  581600    299.71477   -1160.5359    6336.7625    11579.173    1854.7557 
  581700    297.57034   -1158.1978    6380.1402    11579.076    1843.9346 
  581800    297.24924   -1162.0685    6390.9212    11579.127    1857.2918 
  581900    298.27014   -1162.1362    6369.1183    11579.066     1899.803 
  582000    297.79255   -1159.2704    6376.4967    11579.107    1914.3938 
  582100    298.44568   -1159.5712    6362.7081    11578.971    1867.3383 
  582200    293.55608   -1157.3018    6464.9516    11579.025    1900.3475 
  582300     300.3402   -1156.7682    6319.5277    11579.067    1884.4879 
  582400    297.49593   -1158.2261    6381.7573    11579.075    1875.3719 
  582500    297.50336   -1161.8835    6385.3208     11579.14    1908.8933 
  582600    299.54402   -1163.7629    6343.6213    11579.157    1940.7413 
  582700    294.78232   -1164.2465    6445.8377    11579.163    1958.6022 
  582800    299.88307   -1165.3648    6338.0027     11579.18    1888.2585 
  582900    296.08341   -1161.2271    6415.0511    11579.192    1947.8225 
  583000    303.00867   -1162.8338    6268.7134    11579.195    1889.9603 
  583100     297.1968   -1166.2362    6396.2971    11579.215    1830.3046 
  583200    299.60756   -1161.0274     6339.559    11579.187    1830.0377 
  583300    298.53574   -1169.4963    6370.9446    11579.206    1898.9537 
  583400    301.07336   -1166.9248    6314.2448     11579.29    1943.2503 
  583500    297.71401     -1163.65    6382.7391    11579.292    1880.9952 
  583600      297.323   -1168.0185    6395.4635    11579.295    1853.6501 
  583700    299.74668   -1166.5236    6342.2386    11579.343    1814.2818 
  583800    298.64254   -1168.6053    6367.9161    11579.351    1820.6811 
  583900    300.37633   -1170.4836    6332.7967    11579.392    1870.9766 
  584000    298.03291   -1167.4692    6379.7432     11579.29    1925.7738 
  584100    296.85968   -1158.3757    6395.6984    11579.274    1878.9649 
  584200    298.37166   -1164.8284    6369.9186    11579.343     1880.415 
  584300     296.5082   -1156.6875    6401.5252     11579.28    1922.2648 
  584400    295.99161   -1160.4994    6416.2196    11579.127    1868.9349 
  584500    297.50418   -1162.3087    6385.7898    11579.201    1838.9779 
  584600    297.12991    -1165.365    6396.8698    11579.229    1930.2416 
  584700    300.97922   -1164.5044    6313.7664    11579.221    1899.5549 
  584800    297.09506   -1162.2142    6394.3847    11579.151    1916.2609 
  584900    299.51112   -1159.9768    6340.5836    11579.202    1883.4343 
  585000     297.0988   -1160.2397    6392.3196     11579.14    1899.3408 
  585100    301.51221   -1156.1116    6293.9544    11579.188    1886.2502 
  585200    297.94514   -1157.6491    6371.6014    11579.093    1913.7589 
  585300    296.12036   -1156.3467    6409.3738    11579.184    1906.4599 
  585400    301.97594   -1161.7582    6289.6811    11579.176    1859.8796 
  585500    293.33053   -1159.6341    6472.3095    11579.232    1913.3717 
  585600    300.54947   -1160.2391    6318.6389    11579.178    1902.7352 
  585700    296.93671   -1162.1039     6397.596    11579.089    1917.6562 
  585800    299.72773   -1165.1922    6341.1017    11579.132    1871.4065 
  585900    297.00566   -1166.1165    6400.2182    11579.172    1841.3858 
  586000    297.21493   -1159.9037    6389.5675    11579.205    1878.6819 
  586100    296.88349   -1164.6866     6401.469    11579.243    1860.1579 
  586200    298.80867   -1159.8149    6355.4201    11579.194    1849.7778 
  586300    294.64503   -1163.9373    6448.5614    11579.263      1877.65 
  586400    296.46868   -1164.9835    6410.7559    11579.371    1825.1341 
  586500    298.16372   -1166.2927    6375.8059    11579.324    1828.1711 
  586600    299.64461   -1166.0472    6343.8472    11579.247    1803.3525 
  586700    295.64889    -1168.192     6431.513    11579.406    1852.5483 
  586800    298.60059   -1168.8251    6369.0527    11579.371    1791.8142 
  586900    298.67772   -1164.7688    6363.3612    11579.384    1892.1211 
  587000    298.73069   -1165.2061    6362.6839    11579.401    1886.2722 
  587100     296.4152   -1162.2512     6409.154    11579.359    1902.3828 
  587200    299.99252   -1161.6063    6332.0327    11579.306    1867.4493 
  587300    299.28366   -1163.0542    6348.6303    11579.312    1901.8678 
  587400    297.93577   -1159.0076    6373.3937    11579.327    1889.5972 
  587500    298.17726   -1164.8581    6374.1205    11579.362    1914.4604 
  587600     297.4033   -1159.1753    6384.8623    11579.252    1903.7916 
  587700     294.9305   -1161.5785    6440.1732    11579.332    1890.3612 
  587800    302.51886   -1167.1024    6283.5509      11579.3    1883.1509 
  587900    298.43098    -1158.778    6362.4976    11579.239     1881.681 
  588000     296.6906   -1162.6821    6403.5643    11579.222    1884.1396 
  588100    299.27172    -1157.731    6343.5008    11579.251    1864.8189 
  588200    298.59031   -1156.7354    6356.9766    11579.165    1903.4644 
  588300    296.72803   -1156.7188    6396.7587    11579.179    1888.9541 
  588400    296.87345   -1158.5288    6395.3792    11579.096     1862.761 
  588500    297.83792   -1159.5639    6375.8571    11579.143    1863.2966 
  588600    296.51825   -1159.8673    6404.2935    11579.084    1876.9214 
  588700    297.01667   -1156.8609    6390.5841    11579.029    1882.0569 
  588800    300.32696   -1158.3538    6321.4027    11579.074    1867.3092 
  588900    296.75733   -1164.4002    6403.7138    11579.079    1818.2477 
  589000    294.11936   -1158.2253    6453.8859     11579.07    1825.7917 
  589100    302.12332   -1162.6422    6287.2431    11579.002    1786.5424 
  589200    298.02124   -1163.7752    6376.0941    11579.085     1898.776 
  589300    297.77894   -1162.2052    6379.7723    11579.157    1877.9308 
  589400    297.20731   -1167.2136    6396.8744    11579.039    1881.8763 
  589500    296.36557   -1163.9769    6411.6625    11579.081    1857.1582 
  589600     297.6938   -1155.9046    6375.1821    11579.049    1865.8933 
  589700    297.44578   -1161.5895    6386.2455    11579.129    1949.2855 
  589800    300.87454   -1159.9614    6311.2475    11579.009    1906.6876 
  589900    298.82829   -1160.1776    6355.2069    11579.037    1850.9675 
  590000    298.78855   -1163.6503    6359.6125    11579.121     1827.111 
  590100    299.55428   -1162.8487    6342.3878    11579.057    1828.3929 
  590200    298.24363   -1161.2953    6368.9202    11579.142    1819.0744 
  590300    295.63869   -1164.8913    6428.1747     11579.15    1876.2168 
  590400    295.48907   -1161.2968    6427.8985    11579.272    1966.8383 
  590500    299.98475   -1160.7853    6331.2362    11579.165    1889.5861 
  590600    297.76081   -1164.6152    6382.5192    11579.107     1888.717 
  590700    296.59747   -1163.7441    6406.4948    11579.101    1912.9465 
  590800    299.26387   -1160.5381    6346.3412    11579.117    1874.7016 
  590900    296.31112   -1162.8793    6411.7558    11579.109     1947.066 
  591000    299.24648   -1158.9699    6345.1697    11579.142    1930.1669 
  591100    297.55767   -1161.3616    6383.5069    11579.008    1920.0937 
  591200    296.73529   -1159.5956     6399.368    11579.067    1885.3224 
  591300    297.79563   -1162.8404     6380.031    11579.137    1862.7457 
  591400    297.82866   -1163.7819     6380.269    11579.139    1876.3151 
  591500    296.51241   -1161.9194    6406.5416    11579.155    1874.0117 
  591600      297.939   -1158.4678    6372.6746    11579.216    1894.6161 
  591700    298.82536   -1157.6573    6352.8654    11579.153     1927.299 
  591800    295.66469   -1159.2668    6422.0069    11579.162    1942.4444 
  591900    300.44293   -1163.6608    6324.3534    11579.195    1974.4477 
  592000    295.53712   -1159.4186    6424.9527    11579.231    1976.6021 
  592100    298.65963   -1163.9841    6362.8518    11579.272    1906.7245 
  592200    298.87134   -1167.5242    6361.8931    11579.296    1941.9071 
  592300    301.08994   -1170.4091    6317.3564    11579.272    1926.1102 
  592400    295.06118    -1166.013    6441.8508    11579.367    1895.5282 
  592500    299.67617   -1166.6345    6343.8132      11579.3    1791.7243 
  592600    298.42776    -1159.104     6363.016    11579.363    1861.5265 
  592700    297.56153   -1160.2358     6382.584    11579.294    1902.4941 
  592800    301.66047   -1169.7767     6304.612    11579.348    1896.0532 
  592900    294.44006   -1166.5103    6455.6688    11579.419    1897.0662 
  593000    297.52848   -1170.7273    6393.9097    11579.422    1919.3549 
  593100    297.99276   -1172.1855    6385.4209    11579.393    1933.9856 
  593200    298.83379   -1171.6018    6366.8287    11579.352    1925.7499 
  593300     301.1141   -1167.4185    6313.8336    11579.256      1894.04 
  593400    293.62938   -1161.2562    6467.6219    11579.307    1958.7885 
  593500    300.81122   -1157.9077    6310.7094    11579.172    1824.7954 
  593600    298.73245   -1163.6691    6360.8917    11579.183    1891.6541 
  593700    298.49611   -1168.6719    6371.0206     11579.26    1872.0739 
  593800     300.8726   -1165.3132    6316.8099    11579.178    1786.9143 
  593900    299.45979   -1162.4961    6344.1484    11579.151    1847.6412 
  594000    295.38897    -1164.469    6432.9755    11579.039    1883.4474 
  594100    294.54466   -1159.9982    6446.5049    11579.001    1816.5956 
  594200    298.87026   -1159.2205    6353.3346    11579.019    1824.4747 
  594300    298.35911   -1154.9629    6360.0162    11579.038    1839.3967 
  594400    301.69821   -1155.1961    6288.8834    11579.007     1794.126 
  594500    295.77688   -1158.3491    6418.5167    11578.987    1874.9168 
  594600    298.10856   -1156.7137     6367.145    11579.063    1898.8072 
  594700     294.5867   -1157.6741    6443.3673    11579.086     1897.832 
  594800    300.04382   -1151.5133    6320.6145    11579.077    1828.2552 
  594900    293.93944   -1154.1623    6453.6904    11579.093     1847.539 
  595000    300.00479    -1154.725    6324.6948    11579.112    1877.6151 
  595100    298.15544   -1158.2951    6367.7891    11579.128    1867.1871 
  595200    296.37942    -1154.549    6402.0306    11579.173    1926.3604 
  595300    301.49144   -1157.5904    6295.9568    11579.268    1941.0846 
  595400    294.52941   -1163.1433    6450.2046     11579.23    1900.2472 
  595500      298.677   -1171.2581    6369.7263    11579.244      1952.04 
  595600    294.90791   -1164.6764    6443.7771    11579.356    1942.6311 
  595700    300.01303   -1166.4414    6336.4897    11579.366    1860.2777 
  595800    296.91032   -1167.7153     6404.175    11579.493    1878.8534 
  595900    299.98042   -1168.9217    6339.7463    11579.446    1907.8128 
  596000    299.92314   -1172.0759    6344.1476     11579.47    1930.5673 
  596100    300.04846    -1161.693    6331.0266    11579.409    1830.1196 
  596200    298.88791   -1168.2339    6362.4721     11579.52    1842.9703 
  596300      296.233    -1168.991    6419.9942    11579.567    1864.8218 
  596400    299.25993   -1175.2137    6361.5722    11579.588    1853.8585 
  596500    298.97645   -1171.2761    6363.5438    11579.441    1867.6753 
  596600    298.72124   -1174.6057    6372.4287    11579.544    1926.6752 
  596700    298.93082   -1171.8407    6365.1376    11579.495    1921.7615 
  596800    298.00536   -1170.6108    6383.5946    11579.411    1857.8457 
  596900    297.33776   -1165.6102     6392.871    11579.426    1910.8227 
  597000    297.14619   -1163.0561    6394.3355    11579.352    1881.8131 
  597100    301.05217   -1166.2292    6314.1555    11579.444    1852.0735 
  597200    296.45303   -1165.9635    6412.0148    11579.315    1923.6487 
  597300    299.73643   -1168.7085    6344.4933    11579.194    1904.8275 
  597400    296.37199   -1158.7647    6406.3779    11579.146    1914.7047 
  597500    297.84663   -1158.1224    6374.2415    11579.155     1900.575 
  597600    297.95909   -1157.3931    6371.0825    11579.128     1878.926 
  597700    298.12614   -1160.0829    6370.1129    11579.038    1847.8534 
  597800    296.81673   -1156.2674    6394.2772    11579.044    1875.5725 
  597900     296.4537   -1157.4499    6403.1865    11579.015    1949.5645 
  598000    296.69271   -1156.0635    6396.7097    11579.031    1972.3239 
  598100     300.1239   -1155.9182    6323.2423    11579.011    1881.9671 
  598200    293.81769   -1150.0597    6452.1277    11579.032    1852.3825 
  598300    301.01513   -1154.5939    6302.8283    11578.961    1868.6211 
  598400    295.54042   -1161.0016    6426.2848    11579.051    1943.0877 
  598500    296.27838   -1158.3745    6407.9587    11579.117    1863.8354 
  598600    297.09376   -1157.2224    6389.3293    11579.059    1863.1476 
  598700    299.47036    -1159.821    6341.2865     11579.19    1934.8232 
  598800    300.58965   -1161.0775    6318.6955    11579.255    1900.9185 
  598900    293.94858   -1163.7693      6463.36    11579.351    1935.7345 
  599000    297.44833   -1165.3167    6390.1501    11579.361    1999.9851 
  599100    299.06694   -1170.7553    6361.0792     11579.43    1925.8029 
  599200    297.96703   -1172.4651     6386.282    11579.425    1892.9526 
  599300    298.24246   -1172.3194    6380.2343    11579.407    1958.4919 
  599400     296.2809   -1174.3241    6424.1808    11579.444    1965.4722 
  599500    299.41697   -1172.7193     6355.589    11579.454    1858.2586 
  599600    299.61965   -1165.7707    6344.2553    11579.399    1855.4408 
  599700    299.33861   -1172.1591    6356.8427    11579.594    1910.6161 
  599800    296.75422    -1171.642    6411.5353    11579.592    1929.6358 
  599900    299.16187   -1179.7636    6368.1695     11579.54    1902.7813 
  600000    298.91334   -1174.3117    6367.9796    11579.493    1824.6903 
Loop time of 281.725 on 8 procs for 300000 steps with 7168 atoms

Pair  time (%) = 138.364 (49.1133)
Bond  time (%) = 81.1217 (28.7947)
Neigh time (%) = 19.4548 (6.90562)
Comm  time (%) = 32.4944 (11.5341)
Outpt time (%) = 0.478203 (0.169741)
Other time (%) = 9.8111 (3.48251)

Nlocal:    896 ave 900 max 893 min
Histogram: 2 1 0 0 0 4 0 0 0 1
Nghost:    2839.88 ave 2845 max 2836 min
Histogram: 1 1 2 0 0 2 0 1 0 1
Neighs:    23680.1 ave 23960 max 23337 min
Histogram: 2 1 0 0 1 0 0 1 0 3

Total # of neighbors = 189441
Ave neighs/atom = 26.4287
Ave special neighs/atom = 157.056
Neighbor list builds = 3031
Dangerous builds = 0
# −−−−−−−−−−−−−− Flux calculation in nve −−−−−−−−−−−−−−−
reset_timestep  0
compute         PE all pe/atom
compute         KE all ke/atom

variable        CX atom (vx*(c_KE+c_PE))
compute         Jcx all reduce sum v_CX

variable        CZ atom (vz*(c_KE+c_PE))
compute         Jcz all reduce sum v_CZ

variable        CY atom (vy*(c_KE+c_PE))
compute         Jcy all reduce sum v_CY

compute         SA all stress/atom virial

variable        VX atom -(c_SA[1]*vx+c_SA[4]*vy+c_SA[5]*vz)*1.4593e-5
compute         Jvx all reduce sum v_VX

variable        VZ atom -(c_SA[3]*vz+c_SA[6]*vy+c_SA[5]*vx)*1.4593e-5
compute         Jvz all reduce sum v_VZ

variable        VY atom -(c_SA[2]*vy+c_SA[6]*vz+c_SA[4]*vx)*1.4593e-5
compute         Jvy all reduce sum v_VY

variable        Jx equal (c_Jcx+c_Jvx)/vol
variable        Jz equal (c_Jcz+c_Jvz)/vol
variable        Jy equal (c_Jcy+c_Jvy)/vol

fix             JJTx all ave/correlate $s $p $d                 v_Jx type auto file J0Jt_tx.dat ave running
fix             JJTx all ave/correlate 5 $p $d                 v_Jx type auto file J0Jt_tx.dat ave running
fix             JJTx all ave/correlate 5 20000 $d                 v_Jx type auto file J0Jt_tx.dat ave running
fix             JJTx all ave/correlate 5 20000 100000                 v_Jx type auto file J0Jt_tx.dat ave running

fix             JJTz all ave/correlate $s $p $d                 v_Jz type auto file J0Jt_tz.dat ave running
fix             JJTz all ave/correlate 5 $p $d                 v_Jz type auto file J0Jt_tz.dat ave running
fix             JJTz all ave/correlate 5 20000 $d                 v_Jz type auto file J0Jt_tz.dat ave running
fix             JJTz all ave/correlate 5 20000 100000                 v_Jz type auto file J0Jt_tz.dat ave running

fix             JJTy all ave/correlate $s $p $d                 v_Jy type auto file J0Jt_ty.dat ave running
fix             JJTy all ave/correlate 5 $p $d                 v_Jy type auto file J0Jt_ty.dat ave running
fix             JJTy all ave/correlate 5 20000 $d                 v_Jy type auto file J0Jt_ty.dat ave running
fix             JJTy all ave/correlate 5 20000 100000                 v_Jy type auto file J0Jt_ty.dat ave running

run             1000000
Memory usage per processor = 13.8919 Mbytes
Step Temp E_pair E_mol TotEng Press 
       0    298.91334   -1174.3117    6367.9796    11579.493    1824.6903 
     100    296.66023    -1170.734    6412.5633     11579.52    1877.3213 
     200    302.46393   -1170.9111    6288.7058    11579.472    1873.7682 
     300    293.49936   -1173.0818    6482.3121    11579.394    1912.3807 
     400    297.25673   -1166.0964    6395.0453    11579.383    1831.4703 
     500    296.21738    -1170.498    6421.6948    11579.427    1883.7044 
     600    301.43149   -1168.3166     6308.083    11579.388    1857.4877 
     700    295.48288   -1166.3978    6433.1635    11579.304    1907.2902 
     800    301.50979   -1164.2003    6302.1838    11579.278    1907.2193 
     900    295.58847   -1159.8684    6424.3185    11579.244     1932.207 
    1000    298.54524   -1160.0844     6361.356    11579.233    1904.8098 
    1100    296.33945    -1158.435    6406.8519    11579.255     1901.423 
    1200    297.46547   -1151.5274    6375.7421    11579.108    1907.7145 
    1300    299.20558   -1157.6122    6344.6357    11579.092    1928.3334 
    1400      294.254    -1150.427    6443.1844    11579.043    1956.0478 
    1500     302.1704   -1156.5202    6280.1463    11579.033    1905.2653 
    1600    298.78936   -1153.9108    6349.8411    11579.106    1923.1796 
    1700    298.79372   -1164.0975    6359.9496    11579.121    1904.9686 
    1800    294.42333   -1160.1202    6449.3203    11579.103    1862.5552 
    1900    299.50972   -1159.8345    6340.4423    11579.173    1817.9517 
    2000    295.43202    -1158.233    6425.9681    11579.187    1805.3926 
    2100    301.37279   -1159.9748     6300.811    11579.203    1825.0908 
    2200      299.325   -1156.4873    6341.0087    11579.141    1856.0988 
    2300    294.62637    -1155.349     6440.256    11579.147    1884.9913 
    2400    302.98819   -1162.5311    6268.8987    11579.245    1879.7912 
    2500    299.27039   -1166.3844    6352.2924    11579.361    1888.4396 
    2600    295.85365   -1169.2519     6428.169    11579.377    1957.8074 
    2700    300.11781    -1176.957    6344.7684    11579.368    1947.8768 
    2800    298.51695    -1172.609    6374.7265    11579.474    1860.0169 
    2900    299.94733    -1164.674    6336.2126    11579.453    1834.9116 
    3000    294.65861   -1162.9759    6447.5449    11579.498    1949.0024 
    3100    300.58307   -1170.0293    6328.0447    11579.511    1883.8333 
    3200    301.26684   -1172.8755    6316.2481    11579.476    1862.7747 
    3300    294.71105   -1165.0173    6448.4209    11579.453    1886.7714 
    3400    303.75952    -1166.572    6256.7049    11579.489     1830.993 
    3500    295.30807   -1164.5391    6435.2024    11579.467    1867.7173 
    3600    298.51438   -1171.1251    6373.1808    11579.357    1949.7112 
    3700    294.34196   -1166.2242     6457.448    11579.388    1965.5521 
    3800    303.66335   -1167.4721    6259.5052    11579.335    1825.5319 
    3900    295.90615   -1166.8181    6424.6062    11579.369    1906.8693 
    4000    298.05188   -1166.4186    6378.2309    11579.234    1836.4687 
    4100    302.35349   -1164.8707    6284.7878    11579.236    1812.8185 
    4200    295.48339   -1164.8081    6431.4219    11579.163    1852.6362 
    4300    301.87612   -1159.6429    6289.7017    11579.179    1829.8101 
    4400    296.64013   -1153.9962    6395.8165    11579.081    1862.1817 
    4500    296.74708   -1157.5342    6397.1074    11579.119    1861.1802 
    4600    305.11096   -1160.9744      6221.88    11579.133    1821.4088 
    4700    296.00085    -1160.189    6415.6703    11579.085    1925.2275 
    4800    296.63486   -1154.7535    6396.6626    11579.058    1822.4157 
    4900    299.72352   -1158.6781    6334.7086    11579.164      1827.49 
    5000    294.69502   -1156.8128    6440.1942    11579.088     1845.411 
    5100    300.10371   -1163.2842    6331.1844    11579.156    1807.9484 
    5200    295.44948   -1161.5815    6428.9753    11579.219    1869.8833 
    5300    299.54255   -1160.2387    6340.1463    11579.175    1914.5291 
    5400     298.4094   -1160.0462    6364.1144    11579.127    1895.8418 
    5500    297.27065   -1160.1696    6388.6132    11579.175    1891.3602 
    5600    298.79596   -1164.3536    6360.3124    11579.276    1892.5893 
    5700    296.06988   -1164.0798    6418.2881    11579.287     1834.948 
    5800    299.36638   -1168.0235    6351.8451    11579.325    1847.4787 
    5900    299.58151   -1171.1839    6350.4991    11579.415    1869.3995 
    6000    296.44407   -1170.8655    6417.1379    11579.345    1874.7628 
    6100    302.39384   -1177.0475    6296.3514    11579.484    1794.8355 
    6200    296.80685   -1173.4908    6412.2178     11579.55    1828.6594 
    6300    298.54527    -1168.875    6370.3724    11579.459    1815.0203 
    6400     295.0076   -1162.1788    6439.2443     11579.45    1808.7502 
    6500    300.02467   -1164.0615    6333.9828    11579.488    1863.1149 
    6600    296.63631   -1169.0963    6411.4584    11579.542    1935.8787 
    6700    297.72774   -1166.8389    6385.7375    11579.395    1869.9335 
    6800    296.48234   -1166.8802    6412.4382    11579.448    1851.9184 
    6900     297.6994   -1177.9953    6397.5155    11579.411    1877.0623 
    7000    297.08171   -1174.0504    6406.7493    11579.394    1917.4198 
    7100    299.68408   -1166.6259    6343.6411    11579.306    1881.9924 
    7200    297.76215   -1162.0127    6380.1014     11579.32    1866.3481 
    7300    299.79035   -1161.3063    6336.0308    11579.285    1825.5491 
    7400    294.43003   -1160.1326    6449.2492    11579.162    1892.7714 
    7500    298.59652   -1159.8103    6359.8362    11579.082    1864.8707 
    7600    300.30771    -1155.681     6319.197    11579.129    1870.8035 
    7700    298.64103   -1158.1449    6357.2311    11579.094    1865.0608 
    7800    294.06641   -1159.1703    6455.9042    11579.012    1844.7127 
    7900    296.37364   -1153.2868    6400.7356    11579.017     1845.546 
    8000    296.33518   -1155.4972    6403.7915    11579.041    1893.4218 
    8100     297.3282   -1159.7894    6386.9045    11579.076    1947.2596 
    8200    300.53337   -1158.9852    6317.5641    11579.013    1889.7354 
    8300    294.98946   -1153.1979    6430.2989    11579.098    1932.2024 
    8400    294.68906   -1157.9374    6441.4842    11579.126    1972.4055 
    8500    301.72876   -1158.9349    6292.0729     11579.11    1851.5307 
    8600    297.36764   -1155.8812     6382.212    11579.134     1900.577 
    8700    299.39401   -1154.2426       6337.3    11579.151    1913.7294 
    8800    298.23374   -1154.0428     6361.926    11579.189    1892.8633 
    8900    296.62204   -1155.4629    6397.8581     11579.27    1874.6027 
    9000    297.82395   -1159.6226     6376.325    11579.254    1839.0938 
    9100    300.03438   -1169.9944    6339.6081    11579.388    1862.9929 
    9200    295.23018   -1168.3585    6440.6149    11579.396    1818.9899 
    9300    296.46788     -1159.22    6404.9939    11579.355    1811.0732 
    9400    300.07889   -1167.3426    6335.9676     11579.35    1869.3995 
    9500    297.63284   -1163.3116    6384.1462    11579.304    1892.5863 
    9600    297.71878    -1166.386    6385.4233    11579.342    1904.5498 
    9700    297.64931   -1159.1715    6379.6723    11579.322    1905.4856 
    9800    302.49658   -1163.0286    6280.0272    11579.374    1951.6749 
    9900    296.95258   -1167.0386    6402.5202    11579.418    1944.0198 
   10000    296.58703   -1170.1939    6413.4185    11579.351    1919.1757 
Loop time of 1425.68 on 8 procs for 1000000 steps with 7168 atoms

Pair  time (%) = 567.005 (39.7708)
Bond  time (%) = 297.888 (20.8945)
Neigh time (%) = 65.1051 (4.5666)
Comm  time (%) = 116.019 (8.13783)
Outpt time (%) = 0.00410366 (0.000287839)
Other time (%) = 379.659 (26.63)

Nlocal:    896 ave 899 max 893 min
Histogram: 1 2 0 0 0 1 2 0 1 1
Nghost:    2842.5 ave 2848 max 2838 min
Histogram: 1 1 0 1 1 0 3 0 0 1
Neighs:    23620.4 ave 23919 max 23321 min
Histogram: 1 0 3 0 0 0 1 1 1 1

Total # of neighbors = 188963
Ave neighs/atom = 26.362
Ave special neighs/atom = 157.056
Neighbor list builds = 10112
Dangerous builds = 0
